! Generated by Python
# HZ S RI R 50
50000000.000000000   0.600027728   -0.475840029   0.600027728   -0.475840029   0.600027728   -0.475840029   0.600027728   -0.475840029
50100503.000000000   0.568213697   -0.533880857   0.568213697   -0.533880857   0.568213697   -0.533880857   0.568213697   -0.533880857
50201005.000000000   0.532819781   -0.582609429   0.532819781   -0.582609429   0.532819781   -0.582609429   0.532819781   -0.582609429
50301508.000000000   0.494575720   -0.623325286   0.494575720   -0.623325286   0.494575720   -0.623325286   0.494575720   -0.623325286
50402010.000000000   0.454988022   -0.656839783   0.454988022   -0.656839783   0.454988022   -0.656839783   0.454988022   -0.656839783
50502513.000000000   0.414460375   -0.684549836   0.414460375   -0.684549836   0.414460375   -0.684549836   0.414460375   -0.684549836
50603015.000000000   0.373244753   -0.706863851   0.373244753   -0.706863851   0.373244753   -0.706863851   0.373244753   -0.706863851
50703518.000000000   0.331504812   -0.724463623   0.331504812   -0.724463623   0.331504812   -0.724463623   0.331504812   -0.724463623
50804020.000000000   0.289413891   -0.737550140   0.289413891   -0.737550140   0.289413891   -0.737550140   0.289413891   -0.737550140
50904523.000000000   0.246756784   -0.746790499   0.246756784   -0.746790499   0.246756784   -0.746790499   0.246756784   -0.746790499
51005025.000000000   0.203580787   -0.751758046   0.203580787   -0.751758046   0.203580787   -0.751758046   0.203580787   -0.751758046
51105528.000000000   0.159802189   -0.752706972   0.159802189   -0.752706972   0.159802189   -0.752706972   0.159802189   -0.752706972
51206030.000000000   0.115459449   -0.749464206   0.115459449   -0.749464206   0.115459449   -0.749464206   0.115459449   -0.749464206
51306533.000000000   0.070385401   -0.741527401   0.070385401   -0.741527401   0.070385401   -0.741527401   0.070385401   -0.741527401
51407035.000000000   0.024799728   -0.728571053   0.024799728   -0.728571053   0.024799728   -0.728571053   0.024799728   -0.728571053
51507538.000000000   -0.021190245   -0.709938063   -0.021190245   -0.709938063   -0.021190245   -0.709938063   -0.021190245   -0.709938063
51608040.000000000   -0.067240708   -0.684818627   -0.067240708   -0.684818627   -0.067240708   -0.684818627   -0.067240708   -0.684818627
51708543.000000000   -0.112521925   -0.652246484   -0.112521925   -0.652246484   -0.112521925   -0.652246484   -0.112521925   -0.652246484
51809045.000000000   -0.156267434   -0.611021180   -0.156267434   -0.611021180   -0.156267434   -0.611021180   -0.156267434   -0.611021180
51909548.000000000   -0.196543312   -0.559959179   -0.196543312   -0.559959179   -0.196543312   -0.559959179   -0.196543312   -0.559959179
52010050.000000000   -0.231241502   -0.498000587   -0.231241502   -0.498000587   -0.231241502   -0.498000587   -0.231241502   -0.498000587
52110553.000000000   -0.256663435   -0.424768579   -0.256663435   -0.424768579   -0.256663435   -0.424768579   -0.256663435   -0.424768579
52211055.000000000   -0.268402521   -0.340390053   -0.268402521   -0.340390053   -0.268402521   -0.340390053   -0.268402521   -0.340390053
52311558.000000000   -0.261199486   -0.247554308   -0.261199486   -0.247554308   -0.261199486   -0.247554308   -0.261199486   -0.247554308
52412060.000000000   -0.229713399   -0.150905216   -0.229713399   -0.150905216   -0.229713399   -0.150905216   -0.229713399   -0.150905216
52512563.000000000   -0.170785324   -0.058964821   -0.170785324   -0.058964821   -0.170785324   -0.058964821   -0.170785324   -0.058964821
52613065.000000000   -0.084362653   0.016760870   -0.084362653   0.016760870   -0.084362653   0.016760870   -0.084362653   0.016760870
52713568.000000000   0.023290046   0.066241435   0.023290046   0.066241435   0.023290046   0.066241435   0.023290046   0.066241435
52814070.000000000   0.141017182   0.081613436   0.141017182   0.081613436   0.141017182   0.081613436   0.141017182   0.081613436
52914573.000000000   0.255568904   0.062229881   0.255568904   0.062229881   0.255568904   0.062229881   0.255568904   0.062229881
53015075.000000000   0.354445713   0.014035930   0.354445713   0.014035930   0.354445713   0.014035930   0.354445713   0.014035930
53115578.000000000   0.431209862   -0.053877603   0.431209862   -0.053877603   0.431209862   -0.053877603   0.431209862   -0.053877603
53216080.000000000   0.483655383   -0.131769143   0.483655383   -0.131769143   0.483655383   -0.131769143   0.483655383   -0.131769143
53316583.000000000   0.513740021   -0.211864239   0.513740021   -0.211864239   0.513740021   -0.211864239   0.513740021   -0.211864239
53417085.000000000   0.525051684   -0.288233516   0.525051684   -0.288233516   0.525051684   -0.288233516   0.525051684   -0.288233516
53517588.000000000   0.521900967   -0.358416172   0.521900967   -0.358416172   0.521900967   -0.358416172   0.521900967   -0.358416172
53618090.000000000   0.507892243   -0.420678050   0.507892243   -0.420678050   0.507892243   -0.420678050   0.507892243   -0.420678050
53718593.000000000   0.486074681   -0.474719269   0.486074681   -0.474719269   0.486074681   -0.474719269   0.486074681   -0.474719269
53819095.000000000   0.458460919   -0.521029923   0.458460919   -0.521029923   0.458460919   -0.521029923   0.458460919   -0.521029923
53919598.000000000   0.427024729   -0.560095119   0.427024729   -0.560095119   0.427024729   -0.560095119   0.427024729   -0.560095119
54020101.000000000   0.392970242   -0.592507300   0.392970242   -0.592507300   0.392970242   -0.592507300   0.392970242   -0.592507300
54120603.000000000   0.357156411   -0.618688870   0.357156411   -0.618688870   0.357156411   -0.618688870   0.357156411   -0.618688870
54221106.000000000   0.320148727   -0.639472651   0.320148727   -0.639472651   0.320148727   -0.639472651   0.320148727   -0.639472651
54321608.000000000   0.282288052   -0.655311675   0.282288052   -0.655311675   0.282288052   -0.655311675   0.282288052   -0.655311675
54422111.000000000   0.244082463   -0.666125010   0.244082463   -0.666125010   0.244082463   -0.666125010   0.244082463   -0.666125010
54522613.000000000   0.205441781   -0.672396413   0.205441781   -0.672396413   0.205441781   -0.672396413   0.205441781   -0.672396413
54623116.000000000   0.166845077   -0.674216880   0.166845077   -0.674216880   0.166845077   -0.674216880   0.166845077   -0.674216880
54723618.000000000   0.128552034   -0.671655375   0.128552034   -0.671655375   0.128552034   -0.671655375   0.128552034   -0.671655375
54824121.000000000   0.090495294   -0.664577499   0.090495294   -0.664577499   0.090495294   -0.664577499   0.090495294   -0.664577499
54924623.000000000   0.053131973   -0.652814000   0.053131973   -0.652814000   0.053131973   -0.652814000   0.053131973   -0.652814000
55025126.000000000   0.016616808   -0.636482702   0.016616808   -0.636482702   0.016616808   -0.636482702   0.016616808   -0.636482702
55125628.000000000   -0.018242812   -0.615098356   -0.018242812   -0.615098356   -0.018242812   -0.615098356   -0.018242812   -0.615098356
55226131.000000000   -0.050969187   -0.588258036   -0.050969187   -0.588258036   -0.050969187   -0.588258036   -0.050969187   -0.588258036
55326633.000000000   -0.080778719   -0.555989759   -0.080778719   -0.555989759   -0.080778719   -0.555989759   -0.080778719   -0.555989759
55427136.000000000   -0.106445574   -0.518182331   -0.106445574   -0.518182331   -0.106445574   -0.518182331   -0.106445574   -0.518182331
55527638.000000000   -0.126885726   -0.474831181   -0.126885726   -0.474831181   -0.126885726   -0.474831181   -0.126885726   -0.474831181
55628141.000000000   -0.140324452   -0.426537551   -0.140324452   -0.426537551   -0.140324452   -0.426537551   -0.140324452   -0.426537551
55728643.000000000   -0.145145497   -0.374090878   -0.145145497   -0.374090878   -0.145145497   -0.374090878   -0.145145497   -0.374090878
55829146.000000000   -0.139777396   -0.319460193   -0.139777396   -0.319460193   -0.139777396   -0.319460193   -0.139777396   -0.319460193
55929648.000000000   -0.122864683   -0.264564444   -0.122864683   -0.264564444   -0.122864683   -0.264564444   -0.122864683   -0.264564444
56030151.000000000   -0.093808859   -0.212588344   -0.093808859   -0.212588344   -0.093808859   -0.212588344   -0.093808859   -0.212588344
56130653.000000000   -0.052568827   -0.167540028   -0.052568827   -0.167540028   -0.052568827   -0.167540028   -0.052568827   -0.167540028
56231156.000000000   -0.001299699   -0.132505405   -0.001299699   -0.132505405   -0.001299699   -0.132505405   -0.001299699   -0.132505405
56331658.000000000   0.057283130   -0.110116483   0.057283130   -0.110116483   0.057283130   -0.110116483   0.057283130   -0.110116483
56432161.000000000   0.118720324   -0.102549900   0.118720324   -0.102549900   0.118720324   -0.102549900   0.118720324   -0.102549900
56532663.000000000   0.178769260   -0.110014991   0.178769260   -0.110014991   0.178769260   -0.110014991   0.178769260   -0.110014991
56633166.000000000   0.233800857   -0.130864200   0.233800857   -0.130864200   0.233800857   -0.130864200   0.233800857   -0.130864200
56733668.000000000   0.280136724   -0.162064428   0.280136724   -0.162064428   0.280136724   -0.162064428   0.280136724   -0.162064428
56834171.000000000   0.316403329   -0.200634934   0.316403329   -0.200634934   0.316403329   -0.200634934   0.316403329   -0.200634934
56934673.000000000   0.342125848   -0.243429337   0.342125848   -0.243429337   0.342125848   -0.243429337   0.342125848   -0.243429337
57035176.000000000   0.357603903   -0.287680411   0.357603903   -0.287680411   0.357603903   -0.287680411   0.357603903   -0.287680411
57135678.000000000   0.363781059   -0.331077567   0.363781059   -0.331077567   0.363781059   -0.331077567   0.363781059   -0.331077567
57236181.000000000   0.362201801   -0.372164748   0.362201801   -0.372164748   0.362201801   -0.372164748   0.362201801   -0.372164748
57336683.000000000   0.353964736   -0.409890958   0.353964736   -0.409890958   0.353964736   -0.409890958   0.353964736   -0.409890958
57437186.000000000   0.340348817   -0.443659334   0.340348817   -0.443659334   0.340348817   -0.443659334   0.340348817   -0.443659334
57537688.000000000   0.322692649   -0.473202377   0.322692649   -0.473202377   0.322692649   -0.473202377   0.322692649   -0.473202377
57638191.000000000   0.301842774   -0.498326348   0.301842774   -0.498326348   0.301842774   -0.498326348   0.301842774   -0.498326348
57738693.000000000   0.278362825   -0.519199313   0.278362825   -0.519199313   0.278362825   -0.519199313   0.278362825   -0.519199313
57839196.000000000   0.253329087   -0.535732411   0.253329087   -0.535732411   0.253329087   -0.535732411   0.253329087   -0.535732411
57939698.000000000   0.227202108   -0.548101683   0.227202108   -0.548101683   0.227202108   -0.548101683   0.227202108   -0.548101683
58040201.000000000   0.200309232   -0.556528029   0.200309232   -0.556528029   0.200309232   -0.556528029   0.200309232   -0.556528029
58140704.000000000   0.173072907   -0.560992825   0.173072907   -0.560992825   0.173072907   -0.560992825   0.173072907   -0.560992825
58241206.000000000   0.146158976   -0.561801962   0.146158976   -0.561801962   0.146158976   -0.561801962   0.146158976   -0.561801962
58341709.000000000   0.119713916   -0.558797261   0.119713916   -0.558797261   0.119713916   -0.558797261   0.119713916   -0.558797261
58442211.000000000   0.094223627   -0.552233085   0.094223627   -0.552233085   0.094223627   -0.552233085   0.094223627   -0.552233085
58542714.000000000   0.069961965   -0.542294445   0.069961965   -0.542294445   0.069961965   -0.542294445   0.069961965   -0.542294445
58643216.000000000   0.047472723   -0.529052202   0.047472723   -0.529052202   0.047472723   -0.529052202   0.047472723   -0.529052202
58743719.000000000   0.027192592   -0.512540794   0.027192592   -0.512540794   0.027192592   -0.512540794   0.027192592   -0.512540794
58844221.000000000   0.009463475   -0.493210974   0.009463475   -0.493210974   0.009463475   -0.493210974   0.009463475   -0.493210974
58944724.000000000   -0.004990040   -0.471401899   -0.004990040   -0.471401899   -0.004990040   -0.471401899   -0.004990040   -0.471401899
59045226.000000000   -0.015858669   -0.447446229   -0.015858669   -0.447446229   -0.015858669   -0.447446229   -0.015858669   -0.447446229
59145729.000000000   -0.022691639   -0.421976442   -0.022691639   -0.421976442   -0.022691639   -0.421976442   -0.022691639   -0.421976442
59246231.000000000   -0.025376110   -0.395514602   -0.025376110   -0.395514602   -0.025376110   -0.395514602   -0.025376110   -0.395514602
59346734.000000000   -0.022992727   -0.369203986   -0.022992727   -0.369203986   -0.022992727   -0.369203986   -0.022992727   -0.369203986
59447236.000000000   -0.016109864   -0.343580307   -0.016109864   -0.343580307   -0.016109864   -0.343580307   -0.016109864   -0.343580307
59547739.000000000   -0.004697679   -0.319868879   -0.004697679   -0.319868879   -0.004697679   -0.319868879   -0.004697679   -0.319868879
59648241.000000000   0.011220192   -0.298964858   0.011220192   -0.298964858   0.011220192   -0.298964858   0.011220192   -0.298964858
59748744.000000000   0.030371739   -0.281955734   0.030371739   -0.281955734   0.030371739   -0.281955734   0.030371739   -0.281955734
59849246.000000000   0.052346719   -0.269145876   0.052346719   -0.269145876   0.052346719   -0.269145876   0.052346719   -0.269145876
59949749.000000000   0.075769023   -0.261435213   0.075769023   -0.261435213   0.075769023   -0.261435213   0.075769023   -0.261435213
60050251.000000000   0.099575151   -0.258680043   0.099575151   -0.258680043   0.099575151   -0.258680043   0.099575151   -0.258680043
60150754.000000000   0.122550825   -0.260959739   0.122550825   -0.260959739   0.122550825   -0.260959739   0.122550825   -0.260959739
60251256.000000000   0.143777312   -0.267495955   0.143777312   -0.267495955   0.143777312   -0.267495955   0.143777312   -0.267495955
60351759.000000000   0.162273543   -0.277644042   0.162273543   -0.277644042   0.162273543   -0.277644042   0.162273543   -0.277644042
60452261.000000000   0.177650222   -0.290951476   0.177650222   -0.290951476   0.177650222   -0.290951476   0.177650222   -0.290951476
60552764.000000000   0.189380327   -0.306340788   0.189380327   -0.306340788   0.189380327   -0.306340788   0.189380327   -0.306340788
60653266.000000000   0.197410180   -0.322680763   0.197410180   -0.322680763   0.197410180   -0.322680763   0.197410180   -0.322680763
60753769.000000000   0.202046851   -0.339588198   0.202046851   -0.339588198   0.202046851   -0.339588198   0.202046851   -0.339588198
60854271.000000000   0.203227341   -0.356027140   0.203227341   -0.356027140   0.203227341   -0.356027140   0.203227341   -0.356027140
60954774.000000000   0.201483817   -0.371680508   0.201483817   -0.371680508   0.201483817   -0.371680508   0.201483817   -0.371680508
61055276.000000000   0.197166650   -0.386073943   0.197166650   -0.386073943   0.197166650   -0.386073943   0.197166650   -0.386073943
61155779.000000000   0.190734576   -0.399022879   0.190734576   -0.399022879   0.190734576   -0.399022879   0.190734576   -0.399022879
61256281.000000000   0.182229569   -0.409977677   0.182229569   -0.409977677   0.182229569   -0.409977677   0.182229569   -0.409977677
61356784.000000000   0.172383088   -0.418961648   0.172383088   -0.418961648   0.172383088   -0.418961648   0.172383088   -0.418961648
61457286.000000000   0.161721942   -0.426069417   0.161721942   -0.426069417   0.161721942   -0.426069417   0.161721942   -0.426069417
61557789.000000000   0.150348087   -0.431117751   0.150348087   -0.431117751   0.150348087   -0.431117751   0.150348087   -0.431117751
61658291.000000000   0.138779333   -0.433850267   0.138779333   -0.433850267   0.138779333   -0.433850267   0.138779333   -0.433850267
61758794.000000000   0.127041000   -0.434780710   0.127041000   -0.434780710   0.127041000   -0.434780710   0.127041000   -0.434780710
61859296.000000000   0.115963745   -0.433750562   0.115963745   -0.433750562   0.115963745   -0.433750562   0.115963745   -0.433750562
61959799.000000000   0.105341804   -0.431018990   0.105341804   -0.431018990   0.105341804   -0.431018990   0.105341804   -0.431018990
62060302.000000000   0.095593738   -0.426670746   0.095593738   -0.426670746   0.095593738   -0.426670746   0.095593738   -0.426670746
62160804.000000000   0.086917491   -0.421063305   0.086917491   -0.421063305   0.086917491   -0.421063305   0.086917491   -0.421063305
62261307.000000000   0.079561538   -0.414303392   0.079561538   -0.414303392   0.079561538   -0.414303392   0.079561538   -0.414303392
62361809.000000000   0.073452090   -0.406698608   0.073452090   -0.406698608   0.073452090   -0.406698608   0.073452090   -0.406698608
62462312.000000000   0.068945969   -0.398318556   0.068945969   -0.398318556   0.068945969   -0.398318556   0.068945969   -0.398318556
62562814.000000000   0.066004503   -0.389791056   0.066004503   -0.389791056   0.066004503   -0.389791056   0.066004503   -0.389791056
62663317.000000000   0.064809475   -0.381213721   0.064809475   -0.381213721   0.064809475   -0.381213721   0.064809475   -0.381213721
62763819.000000000   0.065016984   -0.372707406   0.065016984   -0.372707406   0.065016984   -0.372707406   0.065016984   -0.372707406
62864322.000000000   0.066662169   -0.365052021   0.066662169   -0.365052021   0.066662169   -0.365052021   0.066662169   -0.365052021
62964824.000000000   0.069318419   -0.358160975   0.069318419   -0.358160975   0.069318419   -0.358160975   0.069318419   -0.358160975
63065327.000000000   0.073261064   -0.352296018   0.073261064   -0.352296018   0.073261064   -0.352296018   0.073261064   -0.352296018
63165829.000000000   0.077864086   -0.347616925   0.077864086   -0.347616925   0.077864086   -0.347616925   0.077864086   -0.347616925
63266332.000000000   0.082966536   -0.344155677   0.082966536   -0.344155677   0.082966536   -0.344155677   0.082966536   -0.344155677
63366834.000000000   0.088054227   -0.342085827   0.088054227   -0.342085827   0.088054227   -0.342085827   0.088054227   -0.342085827
63467337.000000000   0.093205089   -0.341088853   0.093205089   -0.341088853   0.093205089   -0.341088853   0.093205089   -0.341088853
63567839.000000000   0.097973402   -0.341280863   0.097973402   -0.341280863   0.097973402   -0.341280863   0.097973402   -0.341280863
63668342.000000000   0.102311116   -0.342641124   0.102311116   -0.342641124   0.102311116   -0.342641124   0.102311116   -0.342641124
63768844.000000000   0.105914726   -0.344562699   0.105914726   -0.344562699   0.105914726   -0.344562699   0.105914726   -0.344562699
63869347.000000000   0.108668720   -0.347337223   0.108668720   -0.347337223   0.108668720   -0.347337223   0.108668720   -0.347337223
63969849.000000000   0.110495702   -0.350605062   0.110495702   -0.350605062   0.110495702   -0.350605062   0.110495702   -0.350605062
64070352.000000000   0.111347902   -0.354024686   0.111347902   -0.354024686   0.111347902   -0.354024686   0.111347902   -0.354024686
64170854.000000000   0.111106390   -0.357374998   0.111106390   -0.357374998   0.111106390   -0.357374998   0.111106390   -0.357374998
64271357.000000000   0.110063845   -0.360438515   0.110063845   -0.360438515   0.110063845   -0.360438515   0.110063845   -0.360438515
64371859.000000000   0.107970011   -0.363471226   0.107970011   -0.363471226   0.107970011   -0.363471226   0.107970011   -0.363471226
64472362.000000000   0.105305966   -0.366111678   0.105305966   -0.366111678   0.105305966   -0.366111678   0.105305966   -0.366111678
64572864.000000000   0.101798438   -0.367832860   0.101798438   -0.367832860   0.101798438   -0.367832860   0.101798438   -0.367832860
64673367.000000000   0.097840809   -0.368845437   0.097840809   -0.368845437   0.097840809   -0.368845437   0.097840809   -0.368845437
64773869.000000000   0.093536127   -0.368816055   0.093536127   -0.368816055   0.093536127   -0.368816055   0.093536127   -0.368816055
64874372.000000000   0.089112633   -0.367972883   0.089112633   -0.367972883   0.089112633   -0.367972883   0.089112633   -0.367972883
64974874.000000000   0.084792159   -0.366134963   0.084792159   -0.366134963   0.084792159   -0.366134963   0.084792159   -0.366134963
65075377.000000000   0.080622602   -0.363349171   0.080622602   -0.363349171   0.080622602   -0.363349171   0.080622602   -0.363349171
65175879.000000000   0.076891513   -0.359537516   0.076891513   -0.359537516   0.076891513   -0.359537516   0.076891513   -0.359537516
65276382.000000000   0.074037846   -0.354861543   0.074037846   -0.354861543   0.074037846   -0.354861543   0.074037846   -0.354861543
65376884.000000000   0.071884148   -0.349481040   0.071884148   -0.349481040   0.071884148   -0.349481040   0.071884148   -0.349481040
65477387.000000000   0.070652219   -0.343480812   0.070652219   -0.343480812   0.070652219   -0.343480812   0.070652219   -0.343480812
65577889.000000000   0.070724024   -0.337051072   0.070724024   -0.337051072   0.070724024   -0.337051072   0.070724024   -0.337051072
65678392.000000000   0.072182481   -0.330629579   0.072182481   -0.330629579   0.072182481   -0.330629579   0.072182481   -0.330629579
65778894.000000000   0.074897597   -0.324206881   0.074897597   -0.324206881   0.074897597   -0.324206881   0.074897597   -0.324206881
65879397.000000000   0.078993145   -0.318184906   0.078993145   -0.318184906   0.078993145   -0.318184906   0.078993145   -0.318184906
65979899.000000000   0.084359738   -0.312926691   0.084359738   -0.312926691   0.084359738   -0.312926691   0.084359738   -0.312926691
66080402.000000000   0.090844962   -0.308596303   0.090844962   -0.308596303   0.090844962   -0.308596303   0.090844962   -0.308596303
66180905.000000000   0.098424499   -0.305697950   0.098424499   -0.305697950   0.098424499   -0.305697950   0.098424499   -0.305697950
66281407.000000000   0.106795017   -0.304356506   0.106795017   -0.304356506   0.106795017   -0.304356506   0.106795017   -0.304356506
66381910.000000000   0.115586967   -0.304450917   0.115586967   -0.304450917   0.115586967   -0.304450917   0.115586967   -0.304450917
66482412.000000000   0.124584535   -0.306497073   0.124584535   -0.306497073   0.124584535   -0.306497073   0.124584535   -0.306497073
66582915.000000000   0.133355502   -0.310514255   0.133355502   -0.310514255   0.133355502   -0.310514255   0.133355502   -0.310514255
66683417.000000000   0.141423731   -0.316585326   0.141423731   -0.316585326   0.141423731   -0.316585326   0.141423731   -0.316585326
66783920.000000000   0.148536636   -0.324161279   0.148536636   -0.324161279   0.148536636   -0.324161279   0.148536636   -0.324161279
66884422.000000000   0.154076540   -0.333541868   0.154076540   -0.333541868   0.154076540   -0.333541868   0.154076540   -0.333541868
66984925.000000000   0.158064492   -0.344292499   0.158064492   -0.344292499   0.158064492   -0.344292499   0.158064492   -0.344292499
67085427.000000000   0.159772987   -0.355977168   0.159772987   -0.355977168   0.159772987   -0.355977168   0.159772987   -0.355977168
67185930.000000000   0.159365247   -0.368324702   0.159365247   -0.368324702   0.159365247   -0.368324702   0.159365247   -0.368324702
67286432.000000000   0.156745862   -0.380686446   0.156745862   -0.380686446   0.156745862   -0.380686446   0.156745862   -0.380686446
67386935.000000000   0.151669117   -0.392817116   0.151669117   -0.392817116   0.151669117   -0.392817116   0.151669117   -0.392817116
67487437.000000000   0.144307119   -0.404321466   0.144307119   -0.404321466   0.144307119   -0.404321466   0.144307119   -0.404321466
67587940.000000000   0.134825854   -0.414605418   0.134825854   -0.414605418   0.134825854   -0.414605418   0.134825854   -0.414605418
67688442.000000000   0.123225134   -0.423515333   0.123225134   -0.423515333   0.123225134   -0.423515333   0.123225134   -0.423515333
67788945.000000000   0.110191174   -0.430839121   0.110191174   -0.430839121   0.110191174   -0.430839121   0.110191174   -0.430839121
67889447.000000000   0.095517943   -0.435746397   0.095517943   -0.435746397   0.095517943   -0.435746397   0.095517943   -0.435746397
67989950.000000000   0.079627332   -0.438578395   0.079627332   -0.438578395   0.079627332   -0.438578395   0.079627332   -0.438578395
68090452.000000000   0.063092847   -0.438900249   0.063092847   -0.438900249   0.063092847   -0.438900249   0.063092847   -0.438900249
68190955.000000000   0.046040487   -0.436570392   0.046040487   -0.436570392   0.046040487   -0.436570392   0.046040487   -0.436570392
68291457.000000000   0.028842035   -0.431610697   0.028842035   -0.431610697   0.028842035   -0.431610697   0.028842035   -0.431610697
68391960.000000000   0.011900931   -0.423689958   0.011900931   -0.423689958   0.011900931   -0.423689958   0.011900931   -0.423689958
68492462.000000000   -0.004320107   -0.412998740   -0.004320107   -0.412998740   -0.004320107   -0.412998740   -0.004320107   -0.412998740
68592965.000000000   -0.019186441   -0.399101668   -0.019186441   -0.399101668   -0.019186441   -0.399101668   -0.019186441   -0.399101668
68693467.000000000   -0.032281929   -0.382193140   -0.032281929   -0.382193140   -0.032281929   -0.382193140   -0.032281929   -0.382193140
68793970.000000000   -0.042869419   -0.362685188   -0.042869419   -0.362685188   -0.042869419   -0.362685188   -0.042869419   -0.362685188
68894472.000000000   -0.050679565   -0.340677870   -0.050679565   -0.340677870   -0.050679565   -0.340677870   -0.050679565   -0.340677870
68994975.000000000   -0.054794913   -0.316336366   -0.054794913   -0.316336366   -0.054794913   -0.316336366   -0.054794913   -0.316336366
69095477.000000000   -0.054693692   -0.290529370   -0.054693692   -0.290529370   -0.054693692   -0.290529370   -0.054693692   -0.290529370
69195980.000000000   -0.049689707   -0.263864571   -0.049689707   -0.263864571   -0.049689707   -0.263864571   -0.049689707   -0.263864571
69296482.000000000   -0.039646472   -0.237304343   -0.039646472   -0.237304343   -0.039646472   -0.237304343   -0.039646472   -0.237304343
69396985.000000000   -0.023848779   -0.211967044   -0.023848779   -0.211967044   -0.023848779   -0.211967044   -0.023848779   -0.211967044
69497487.000000000   -0.002648837   -0.188926037   -0.002648837   -0.188926037   -0.002648837   -0.188926037   -0.002648837   -0.188926037
69597990.000000000   0.023824582   -0.170007460   0.023824582   -0.170007460   0.023824582   -0.170007460   0.023824582   -0.170007460
69698492.000000000   0.054784701   -0.155944441   0.054784701   -0.155944441   0.054784701   -0.155944441   0.054784701   -0.155944441
69798995.000000000   0.088990521   -0.148803292   0.088990521   -0.148803292   0.088990521   -0.148803292   0.088990521   -0.148803292
69899497.000000000   0.124800899   -0.148730384   0.124800899   -0.148730384   0.124800899   -0.148730384   0.124800899   -0.148730384
70000000.000000000   0.160873450   -0.156468950   0.160873450   -0.156468950   0.160873450   -0.156468950   0.160873450   -0.156468950
70100503.000000000   0.195030181   -0.172141529   0.195030181   -0.172141529   0.195030181   -0.172141529   0.195030181   -0.172141529
70201005.000000000   0.225197804   -0.194845552   0.225197804   -0.194845552   0.225197804   -0.194845552   0.225197804   -0.194845552
70301508.000000000   0.250437765   -0.223634481   0.250437765   -0.223634481   0.250437765   -0.223634481   0.250437765   -0.223634481
70402010.000000000   0.268682415   -0.256883149   0.268682415   -0.256883149   0.268682415   -0.256883149   0.268682415   -0.256883149
70502513.000000000   0.279662242   -0.293086602   0.279662242   -0.293086602   0.279662242   -0.293086602   0.279662242   -0.293086602
70603015.000000000   0.283397908   -0.330552497   0.283397908   -0.330552497   0.283397908   -0.330552497   0.283397908   -0.330552497
70703518.000000000   0.279801403   -0.367427476   0.279801403   -0.367427476   0.279801403   -0.367427476   0.279801403   -0.367427476
70804020.000000000   0.269324378   -0.402278154   0.269324378   -0.402278154   0.269324378   -0.402278154   0.269324378   -0.402278154
70904523.000000000   0.253058514   -0.434306861   0.253058514   -0.434306861   0.253058514   -0.434306861   0.253058514   -0.434306861
71005025.000000000   0.231867593   -0.462424933   0.231867593   -0.462424933   0.231867593   -0.462424933   0.231867593   -0.462424933
71105528.000000000   0.206425078   -0.486265283   0.206425078   -0.486265283   0.206425078   -0.486265283   0.206425078   -0.486265283
71206030.000000000   0.177913170   -0.505530013   0.177913170   -0.505530013   0.177913170   -0.505530013   0.177913170   -0.505530013
71306533.000000000   0.147148473   -0.519634481   0.147148473   -0.519634481   0.147148473   -0.519634481   0.147148473   -0.519634481
71407035.000000000   0.114752321   -0.528797344   0.114752321   -0.528797344   0.114752321   -0.528797344   0.114752321   -0.528797344
71507538.000000000   0.081586298   -0.532852712   0.081586298   -0.532852712   0.081586298   -0.532852712   0.081586298   -0.532852712
71608040.000000000   0.048067315   -0.532034922   0.048067315   -0.532034922   0.048067315   -0.532034922   0.048067315   -0.532034922
71708543.000000000   0.015030263   -0.526428627   0.015030263   -0.526428627   0.015030263   -0.526428627   0.015030263   -0.526428627
71809045.000000000   -0.017153562   -0.516034735   -0.017153562   -0.516034735   -0.017153562   -0.516034735   -0.017153562   -0.516034735
71909548.000000000   -0.047648147   -0.500944700   -0.047648147   -0.500944700   -0.047648147   -0.500944700   -0.047648147   -0.500944700
72010050.000000000   -0.076370709   -0.481238534   -0.076370709   -0.481238534   -0.076370709   -0.481238534   -0.076370709   -0.481238534
72110553.000000000   -0.102488844   -0.457091213   -0.102488844   -0.457091213   -0.102488844   -0.457091213   -0.102488844   -0.457091213
72211055.000000000   -0.125243302   -0.428924274   -0.125243302   -0.428924274   -0.125243302   -0.428924274   -0.125243302   -0.428924274
72311558.000000000   -0.144318900   -0.396949038   -0.144318900   -0.396949038   -0.144318900   -0.396949038   -0.144318900   -0.396949038
72412060.000000000   -0.158990409   -0.361009402   -0.158990409   -0.361009402   -0.158990409   -0.361009402   -0.158990409   -0.361009402
72512563.000000000   -0.168020705   -0.321966545   -0.168020705   -0.321966545   -0.168020705   -0.321966545   -0.168020705   -0.321966545
72613065.000000000   -0.170634661   -0.280387165   -0.170634661   -0.280387165   -0.170634661   -0.280387165   -0.170634661   -0.280387165
72713568.000000000   -0.166347522   -0.237213682   -0.166347522   -0.237213682   -0.166347522   -0.237213682   -0.166347522   -0.237213682
72814070.000000000   -0.154168862   -0.193675502   -0.154168862   -0.193675502   -0.154168862   -0.193675502   -0.154168862   -0.193675502
72914573.000000000   -0.133467136   -0.151194836   -0.133467136   -0.151194836   -0.133467136   -0.151194836   -0.133467136   -0.151194836
73015075.000000000   -0.103954339   -0.111803909   -0.103954339   -0.111803909   -0.103954339   -0.111803909   -0.103954339   -0.111803909
73115578.000000000   -0.066370094   -0.077821586   -0.066370094   -0.077821586   -0.066370094   -0.077821586   -0.066370094   -0.077821586
73216080.000000000   -0.021161206   -0.051311846   -0.021161206   -0.051311846   -0.021161206   -0.051311846   -0.021161206   -0.051311846
73316583.000000000   0.029801578   -0.033601868   0.029801578   -0.033601868   0.029801578   -0.033601868   0.029801578   -0.033601868
73417085.000000000   0.084330760   -0.027052708   0.084330760   -0.027052708   0.084330760   -0.027052708   0.084330760   -0.027052708
73517588.000000000   0.139756739   -0.032395260   0.139756739   -0.032395260   0.139756739   -0.032395260   0.139756739   -0.032395260
73618090.000000000   0.193251580   -0.049399098   0.193251580   -0.049399098   0.193251580   -0.049399098   0.193251580   -0.049399098
73718593.000000000   0.241689173   -0.077202371   0.241689173   -0.077202371   0.241689173   -0.077202371   0.241689173   -0.077202371
73819095.000000000   0.282716470   -0.114326151   0.282716470   -0.114326151   0.282716470   -0.114326151   0.282716470   -0.114326151
73919598.000000000   0.314542777   -0.158198987   0.314542777   -0.158198987   0.314542777   -0.158198987   0.314542777   -0.158198987
74020101.000000000   0.336780343   -0.206467916   0.336780343   -0.206467916   0.336780343   -0.206467916   0.336780343   -0.206467916
74120603.000000000   0.348805497   -0.256834684   0.348805497   -0.256834684   0.348805497   -0.256834684   0.348805497   -0.256834684
74221106.000000000   0.350948456   -0.307172532   0.350948456   -0.307172532   0.350948456   -0.307172532   0.350948456   -0.307172532
74321608.000000000   0.344058227   -0.355474216   0.344058227   -0.355474216   0.344058227   -0.355474216   0.344058227   -0.355474216
74422111.000000000   0.329447333   -0.400356115   0.329447333   -0.400356115   0.329447333   -0.400356115   0.329447333   -0.400356115
74522613.000000000   0.308143783   -0.441154184   0.308143783   -0.441154184   0.308143783   -0.441154184   0.308143783   -0.441154184
74623116.000000000   0.281581861   -0.476759687   0.281581861   -0.476759687   0.281581861   -0.476759687   0.281581861   -0.476759687
74723618.000000000   0.250362514   -0.507042240   0.250362514   -0.507042240   0.250362514   -0.507042240   0.250362514   -0.507042240
74824121.000000000   0.216030703   -0.531796100   0.216030703   -0.531796100   0.216030703   -0.531796100   0.216030703   -0.531796100
74924623.000000000   0.179060980   -0.550839344   0.179060980   -0.550839344   0.179060980   -0.550839344   0.179060980   -0.550839344
75025126.000000000   0.140269386   -0.564528591   0.140269386   -0.564528591   0.140269386   -0.564528591   0.140269386   -0.564528591
75125628.000000000   0.100485415   -0.572670873   0.100485415   -0.572670873   0.100485415   -0.572670873   0.100485415   -0.572670873
75226131.000000000   0.060302791   -0.575231020   0.060302791   -0.575231020   0.060302791   -0.575231020   0.060302791   -0.575231020
75326633.000000000   0.019769900   -0.572609950   0.019769900   -0.572609950   0.019769900   -0.572609950   0.019769900   -0.572609950
75427136.000000000   -0.020031035   -0.564495014   -0.020031035   -0.564495014   -0.020031035   -0.564495014   -0.020031035   -0.564495014
75527638.000000000   -0.058704075   -0.551161448   -0.058704075   -0.551161448   -0.058704075   -0.551161448   -0.058704075   -0.551161448
75628141.000000000   -0.096149547   -0.532495789   -0.096149547   -0.532495789   -0.096149547   -0.532495789   -0.096149547   -0.532495789
75728643.000000000   -0.131273267   -0.508441471   -0.131273267   -0.508441471   -0.131273267   -0.508441471   -0.131273267   -0.508441471
75829146.000000000   -0.163786520   -0.478966733   -0.163786520   -0.478966733   -0.163786520   -0.478966733   -0.163786520   -0.478966733
75929648.000000000   -0.192837682   -0.444275842   -0.192837682   -0.444275842   -0.192837682   -0.444275842   -0.192837682   -0.444275842
76030151.000000000   -0.217626772   -0.404577001   -0.217626772   -0.404577001   -0.217626772   -0.404577001   -0.217626772   -0.404577001
76130653.000000000   -0.236986082   -0.359940869   -0.236986082   -0.359940869   -0.236986082   -0.359940869   -0.236986082   -0.359940869
76231156.000000000   -0.249931978   -0.310881090   -0.249931978   -0.310881090   -0.249931978   -0.310881090   -0.249931978   -0.310881090
76331658.000000000   -0.255354749   -0.257897003   -0.255354749   -0.257897003   -0.255354749   -0.257897003   -0.255354749   -0.257897003
76432161.000000000   -0.251864851   -0.202020506   -0.251864851   -0.202020506   -0.251864851   -0.202020506   -0.251864851   -0.202020506
76532663.000000000   -0.238012011   -0.144945798   -0.238012011   -0.144945798   -0.238012011   -0.144945798   -0.238012011   -0.144945798
76633166.000000000   -0.212796535   -0.088370205   -0.212796535   -0.088370205   -0.212796535   -0.088370205   -0.212796535   -0.088370205
76733668.000000000   -0.175562412   -0.035461748   -0.175562412   -0.035461748   -0.175562412   -0.035461748   -0.175562412   -0.035461748
76834171.000000000   -0.126845596   0.011276987   -0.126845596   0.011276987   -0.126845596   0.011276987   -0.126845596   0.011276987
76934673.000000000   -0.067089494   0.048468494   -0.067089494   0.048468494   -0.067089494   0.048468494   -0.067089494   0.048468494
77035176.000000000   0.001392292   0.072575131   0.001392292   0.072575131   0.001392292   0.072575131   0.001392292   0.072575131
77135678.000000000   0.074888538   0.081681749   0.074888538   0.081681749   0.074888538   0.081681749   0.074888538   0.081681749
77236181.000000000   0.149660446   0.074248335   0.149660446   0.074248335   0.149660446   0.074248335   0.149660446   0.074248335
77336683.000000000   0.221119540   0.049902048   0.221119540   0.049902048   0.221119540   0.049902048   0.221119540   0.049902048
77437186.000000000   0.285040102   0.010961001   0.285040102   0.010961001   0.285040102   0.010961001   0.285040102   0.010961001
77537688.000000000   0.337716071   -0.040117390   0.337716071   -0.040117390   0.337716071   -0.040117390   0.337716071   -0.040117390
77638191.000000000   0.377385586   -0.099752415   0.377385586   -0.099752415   0.377385586   -0.099752415   0.377385586   -0.099752415
77738693.000000000   0.402927366   -0.163988737   0.402927366   -0.163988737   0.402927366   -0.163988737   0.402927366   -0.163988737
77839196.000000000   0.414582004   -0.229987042   0.414582004   -0.229987042   0.414582004   -0.229987042   0.414582004   -0.229987042
77939698.000000000   0.413858892   -0.293884266   0.413858892   -0.293884266   0.413858892   -0.293884266   0.413858892   -0.293884266
78040201.000000000   0.401793774   -0.354121857   0.401793774   -0.354121857   0.401793774   -0.354121857   0.401793774   -0.354121857
78140704.000000000   0.380436663   -0.409064803   0.380436663   -0.409064803   0.380436663   -0.409064803   0.380436663   -0.409064803
78241206.000000000   0.351455608   -0.457489863   0.351455608   -0.457489863   0.351455608   -0.457489863   0.351455608   -0.457489863
78341709.000000000   0.316591518   -0.499093835   0.316591518   -0.499093835   0.316591518   -0.499093835   0.316591518   -0.499093835
78442211.000000000   0.277183196   -0.533582777   0.277183196   -0.533582777   0.277183196   -0.533582777   0.277183196   -0.533582777
78542714.000000000   0.234635198   -0.561152605   0.234635198   -0.561152605   0.234635198   -0.561152605   0.234635198   -0.561152605
78643216.000000000   0.189694451   -0.581784165   0.189694451   -0.581784165   0.189694451   -0.581784165   0.189694451   -0.581784165
78743719.000000000   0.143638730   -0.595866165   0.143638730   -0.595866165   0.143638730   -0.595866165   0.143638730   -0.595866165
78844221.000000000   0.096737937   -0.603428611   0.096737937   -0.603428611   0.096737937   -0.603428611   0.096737937   -0.603428611
78944724.000000000   0.049782381   -0.605012722   0.049782381   -0.605012722   0.049782381   -0.605012722   0.049782381   -0.605012722
79045226.000000000   0.003304519   -0.600375834   0.003304519   -0.600375834   0.003304519   -0.600375834   0.003304519   -0.600375834
79145729.000000000   -0.042029331   -0.589837296   -0.042029331   -0.589837296   -0.042029331   -0.589837296   -0.042029331   -0.589837296
79246231.000000000   -0.086253860   -0.573580365   -0.086253860   -0.573580365   -0.086253860   -0.573580365   -0.086253860   -0.573580365
79346734.000000000   -0.128194137   -0.551385363   -0.128194137   -0.551385363   -0.128194137   -0.551385363   -0.128194137   -0.551385363
79447236.000000000   -0.167683280   -0.523729664   -0.167683280   -0.523729664   -0.167683280   -0.523729664   -0.167683280   -0.523729664
79547739.000000000   -0.204141377   -0.490154748   -0.204141377   -0.490154748   -0.204141377   -0.490154748   -0.204141377   -0.490154748
79648241.000000000   -0.236370248   -0.450881775   -0.236370248   -0.450881775   -0.236370248   -0.450881775   -0.236370248   -0.450881775
79748744.000000000   -0.264309365   -0.405966977   -0.264309365   -0.405966977   -0.264309365   -0.405966977   -0.264309365   -0.405966977
79849246.000000000   -0.286094787   -0.355724425   -0.286094787   -0.355724425   -0.286094787   -0.355724425   -0.286094787   -0.355724425
79949749.000000000   -0.300777902   -0.300566272   -0.300777902   -0.300566272   -0.300777902   -0.300566272   -0.300777902   -0.300566272
80050251.000000000   -0.307248464   -0.241522778   -0.307248464   -0.241522778   -0.307248464   -0.241522778   -0.307248464   -0.241522778
80150754.000000000   -0.303957787   -0.179220525   -0.303957787   -0.179220525   -0.303957787   -0.179220525   -0.303957787   -0.179220525
80251256.000000000   -0.289640872   -0.115074947   -0.289640872   -0.115074947   -0.289640872   -0.115074947   -0.289640872   -0.115074947
80351759.000000000   -0.262688169   -0.051499871   -0.262688169   -0.051499871   -0.262688169   -0.051499871   -0.262688169   -0.051499871
80452261.000000000   -0.222652659   0.008771537   -0.222652659   0.008771537   -0.222652659   0.008771537   -0.222652659   0.008771537
80552764.000000000   -0.169297150   0.062577661   -0.169297150   0.062577661   -0.169297150   0.062577661   -0.169297150   0.062577661
80653266.000000000   -0.103191026   0.106193889   -0.103191026   0.106193889   -0.103191026   0.106193889   -0.103191026   0.106193889
80753769.000000000   -0.027404101   0.135843480   -0.027404101   0.135843480   -0.027404101   0.135843480   -0.027404101   0.135843480
80854271.000000000   0.055334657   0.149081157   0.055334657   0.149081157   0.055334657   0.149081157   0.055334657   0.149081157
80954774.000000000   0.140180912   0.143420946   0.140180912   0.143420946   0.140180912   0.143420946   0.140180912   0.143420946
81055276.000000000   0.221837406   0.118742100   0.221837406   0.118742100   0.221837406   0.118742100   0.221837406   0.118742100
81155779.000000000   0.295795716   0.077032985   0.295795716   0.077032985   0.295795716   0.077032985   0.295795716   0.077032985
81256281.000000000   0.357435239   0.021107692   0.357435239   0.021107692   0.357435239   0.021107692   0.357435239   0.021107692
81356784.000000000   0.404592695   -0.045252293   0.404592695   -0.045252293   0.404592695   -0.045252293   0.404592695   -0.045252293
81457286.000000000   0.435964509   -0.117561531   0.435964509   -0.117561531   0.435964509   -0.117561531   0.435964509   -0.117561531
81557789.000000000   0.451094238   -0.191316220   0.451094238   -0.191316220   0.451094238   -0.191316220   0.451094238   -0.191316220
81658291.000000000   0.452144483   -0.263850567   0.452144483   -0.263850567   0.452144483   -0.263850567   0.452144483   -0.263850567
81758794.000000000   0.440131206   -0.331943750   0.440131206   -0.331943750   0.440131206   -0.331943750   0.440131206   -0.331943750
81859296.000000000   0.417511405   -0.394048243   0.417511405   -0.394048243   0.417511405   -0.394048243   0.417511405   -0.394048243
81959799.000000000   0.386434507   -0.448866673   0.386434507   -0.448866673   0.386434507   -0.448866673   0.386434507   -0.448866673
82060302.000000000   0.348780111   -0.496022603   0.348780111   -0.496022603   0.348780111   -0.496022603   0.348780111   -0.496022603
82160804.000000000   0.305882815   -0.535197498   0.305882815   -0.535197498   0.305882815   -0.535197498   0.305882815   -0.535197498
82261307.000000000   0.259628638   -0.566612233   0.259628638   -0.566612233   0.259628638   -0.566612233   0.259628638   -0.566612233
82361809.000000000   0.211009538   -0.590409805   0.211009538   -0.590409805   0.211009538   -0.590409805   0.211009538   -0.590409805
82462312.000000000   0.160835350   -0.606919113   0.160835350   -0.606919113   0.160835350   -0.606919113   0.160835350   -0.606919113
82562814.000000000   0.110052986   -0.616353438   0.110052986   -0.616353438   0.110052986   -0.616353438   0.110052986   -0.616353438
82663317.000000000   0.059413168   -0.619218817   0.059413168   -0.619218817   0.059413168   -0.619218817   0.059413168   -0.619218817
82763819.000000000   0.009233669   -0.615603446   0.009233669   -0.615603446   0.009233669   -0.615603446   0.009233669   -0.615603446
82864322.000000000   -0.039884698   -0.605821587   -0.039884698   -0.605821587   -0.039884698   -0.605821587   -0.039884698   -0.605821587
82964824.000000000   -0.087376814   -0.589716530   -0.087376814   -0.589716530   -0.087376814   -0.589716530   -0.087376814   -0.589716530
83065327.000000000   -0.132838028   -0.567861184   -0.132838028   -0.567861184   -0.132838028   -0.567861184   -0.132838028   -0.567861184
83165829.000000000   -0.175689260   -0.539878442   -0.175689260   -0.539878442   -0.175689260   -0.539878442   -0.175689260   -0.539878442
83266332.000000000   -0.215304926   -0.506231863   -0.215304926   -0.506231863   -0.215304926   -0.506231863   -0.215304926   -0.506231863
83366834.000000000   -0.251156755   -0.466475023   -0.251156755   -0.466475023   -0.251156755   -0.466475023   -0.251156755   -0.466475023
83467337.000000000   -0.282221029   -0.421230448   -0.282221029   -0.421230448   -0.282221029   -0.421230448   -0.282221029   -0.421230448
83567839.000000000   -0.307511157   -0.370118827   -0.307511157   -0.370118827   -0.307511157   -0.370118827   -0.307511157   -0.370118827
83668342.000000000   -0.326117226   -0.313833447   -0.326117226   -0.313833447   -0.326117226   -0.313833447   -0.326117226   -0.313833447
83768844.000000000   -0.336478319   -0.252801407   -0.336478319   -0.252801407   -0.336478319   -0.252801407   -0.336478319   -0.252801407
83869347.000000000   -0.337387359   -0.188184692   -0.337387359   -0.188184692   -0.337387359   -0.188184692   -0.337387359   -0.188184692
83969849.000000000   -0.327247998   -0.121135513   -0.327247998   -0.121135513   -0.327247998   -0.121135513   -0.327247998   -0.121135513
84070352.000000000   -0.304872902   -0.053558284   -0.304872902   -0.053558284   -0.304872902   -0.053558284   -0.304872902   -0.053558284
84170854.000000000   -0.268979529   0.012153012   -0.268979529   0.012153012   -0.268979529   0.012153012   -0.268979529   0.012153012
84271357.000000000   -0.219064320   0.072946332   -0.219064320   0.072946332   -0.219064320   0.072946332   -0.219064320   0.072946332
84371859.000000000   -0.155601432   0.124688212   -0.155601432   0.124688212   -0.155601432   0.124688212   -0.155601432   0.124688212
84472362.000000000   -0.079941359   0.164052296   -0.079941359   0.164052296   -0.079941359   0.164052296   -0.079941359   0.164052296
84572864.000000000   0.005061488   0.187148111   0.005061488   0.187148111   0.005061488   0.187148111   0.005061488   0.187148111
84673367.000000000   0.094758663   0.191307585   0.094758663   0.191307585   0.094758663   0.191307585   0.094758663   0.191307585
84773869.000000000   0.184626936   0.175587932   0.184626936   0.175587932   0.184626936   0.175587932   0.184626936   0.175587932
84874372.000000000   0.268893265   0.140366671   0.268893265   0.140366671   0.268893265   0.140366671   0.268893265   0.140366671
84974874.000000000   0.342152222   0.087414292   0.342152222   0.087414292   0.342152222   0.087414292   0.342152222   0.087414292
85075377.000000000   0.401301417   0.021510198   0.401301417   0.021510198   0.401301417   0.021510198   0.401301417   0.021510198
85175879.000000000   0.443766899   -0.053691348   0.443766899   -0.053691348   0.443766899   -0.053691348   0.443766899   -0.053691348
85276382.000000000   0.469084782   -0.133154578   0.469084782   -0.133154578   0.469084782   -0.133154578   0.469084782   -0.133154578
85376884.000000000   0.477758831   -0.212361684   0.477758831   -0.212361684   0.477758831   -0.212361684   0.477758831   -0.212361684
85477387.000000000   0.471535774   -0.288440570   0.471535774   -0.288440570   0.471535774   -0.288440570   0.471535774   -0.288440570
85577889.000000000   0.452343798   -0.358790696   0.452343798   -0.358790696   0.452343798   -0.358790696   0.452343798   -0.358790696
85678392.000000000   0.422837737   -0.422021592   0.422837737   -0.422021592   0.422837737   -0.422021592   0.422837737   -0.422021592
85778894.000000000   0.385391959   -0.476722220   0.385391959   -0.476722220   0.385391959   -0.476722220   0.385391959   -0.476722220
85879397.000000000   0.341621065   -0.523046388   0.341621065   -0.523046388   0.341621065   -0.523046388   0.341621065   -0.523046388
85979899.000000000   0.293251508   -0.560613068   0.293251508   -0.560613068   0.293251508   -0.560613068   0.293251508   -0.560613068
86080402.000000000   0.242148434   -0.589848432   0.242148434   -0.589848432   0.242148434   -0.589848432   0.242148434   -0.589848432
86180905.000000000   0.188949702   -0.611026178   0.188949702   -0.611026178   0.188949702   -0.611026178   0.188949702   -0.611026178
86281407.000000000   0.134909098   -0.624545502   0.134909098   -0.624545502   0.134909098   -0.624545502   0.134909098   -0.624545502
86381910.000000000   0.080695079   -0.630985034   0.080695079   -0.630985034   0.080695079   -0.630985034   0.080695079   -0.630985034
86482412.000000000   0.026863504   -0.630313135   0.026863504   -0.630313135   0.026863504   -0.630313135   0.026863504   -0.630313135
86582915.000000000   -0.026065282   -0.622894914   -0.026065282   -0.622894914   -0.026065282   -0.622894914   -0.026065282   -0.622894914
86683417.000000000   -0.077222752   -0.609214244   -0.077222752   -0.609214244   -0.077222752   -0.609214244   -0.077222752   -0.609214244
86783920.000000000   -0.126507147   -0.588822860   -0.126507147   -0.588822860   -0.126507147   -0.588822860   -0.126507147   -0.588822860
86884422.000000000   -0.173466264   -0.562610366   -0.173466264   -0.562610366   -0.173466264   -0.562610366   -0.173466264   -0.562610366
86984925.000000000   -0.216966065   -0.530080648   -0.216966065   -0.530080648   -0.216966065   -0.530080648   -0.216966065   -0.530080648
87085427.000000000   -0.257061075   -0.491683321   -0.257061075   -0.491683321   -0.257061075   -0.491683321   -0.257061075   -0.491683321
87185930.000000000   -0.292761316   -0.447132871   -0.292761316   -0.447132871   -0.292761316   -0.447132871   -0.292761316   -0.447132871
87286432.000000000   -0.322858533   -0.396901444   -0.322858533   -0.396901444   -0.322858533   -0.396901444   -0.322858533   -0.396901444
87386935.000000000   -0.346799574   -0.340957871   -0.346799574   -0.340957871   -0.346799574   -0.340957871   -0.346799574   -0.340957871
87487437.000000000   -0.363075190   -0.279703500   -0.363075190   -0.279703500   -0.363075190   -0.279703500   -0.363075190   -0.279703500
87587940.000000000   -0.370433207   -0.213600625   -0.370433207   -0.213600625   -0.370433207   -0.213600625   -0.370433207   -0.213600625
87688442.000000000   -0.367345181   -0.144082848   -0.367345181   -0.144082848   -0.367345181   -0.144082848   -0.367345181   -0.144082848
87788945.000000000   -0.352156865   -0.072953711   -0.352156865   -0.072953711   -0.352156865   -0.072953711   -0.352156865   -0.072953711
87889447.000000000   -0.323692524   -0.001701928   -0.323692524   -0.001701928   -0.323692524   -0.001701928   -0.323692524   -0.001701928
87989950.000000000   -0.280990484   0.066597444   -0.280990484   0.066597444   -0.280990484   0.066597444   -0.280990484   0.066597444
88090452.000000000   -0.223158631   0.128507156   -0.223158631   0.128507156   -0.223158631   0.128507156   -0.223158631   0.128507156
88190955.000000000   -0.151605137   0.180214171   -0.151605137   0.180214171   -0.151605137   0.180214171   -0.151605137   0.180214171
88291457.000000000   -0.067359452   0.217294127   -0.067359452   0.217294127   -0.067359452   0.217294127   -0.067359452   0.217294127
88391960.000000000   0.025837619   0.236332357   0.025837619   0.236332357   0.025837619   0.236332357   0.025837619   0.236332357
88492462.000000000   0.122985216   0.234565694   0.122985216   0.234565694   0.122985216   0.234565694   0.122985216   0.234565694
88592965.000000000   0.218745607   0.210595073   0.218745607   0.210595073   0.218745607   0.210595073   0.218745607   0.210595073
88693467.000000000   0.306176776   0.166364630   0.306176776   0.166364630   0.306176776   0.166364630   0.306176776   0.166364630
88793970.000000000   0.380922014   0.104063927   0.380922014   0.104063927   0.380922014   0.104063927   0.380922014   0.104063927
88894472.000000000   0.439007959   0.028608701   0.439007959   0.028608701   0.439007959   0.028608701   0.439007959   0.028608701
88994975.000000000   0.478543515   -0.054847277   0.478543515   -0.054847277   0.478543515   -0.054847277   0.478543515   -0.054847277
89095477.000000000   0.499047574   -0.141328153   0.499047574   -0.141328153   0.499047574   -0.141328153   0.499047574   -0.141328153
89195980.000000000   0.502165703   -0.226495130   0.502165703   -0.226495130   0.502165703   -0.226495130   0.502165703   -0.226495130
89296482.000000000   0.489279844   -0.306375130   0.489279844   -0.306375130   0.489279844   -0.306375130   0.489279844   -0.306375130
89396985.000000000   0.463430163   -0.379497147   0.463430163   -0.379497147   0.463430163   -0.379497147   0.463430163   -0.379497147
89497487.000000000   0.427743878   -0.443567898   0.427743878   -0.443567898   0.427743878   -0.443567898   0.427743878   -0.443567898
89597990.000000000   0.383875415   -0.498447267   0.383875415   -0.498447267   0.383875415   -0.498447267   0.383875415   -0.498447267
89698492.000000000   0.334433867   -0.543574179   0.334433867   -0.543574179   0.334433867   -0.543574179   0.334433867   -0.543574179
89798995.000000000   0.281190941   -0.579432299   0.281190941   -0.579432299   0.281190941   -0.579432299   0.281190941   -0.579432299
89899497.000000000   0.225367991   -0.606200095   0.225367991   -0.606200095   0.225367991   -0.606200095   0.225367991   -0.606200095
90000000.000000000   0.168494680   -0.624595175   0.168494680   -0.624595175   0.168494680   -0.624595175   0.168494680   -0.624595175
