! 27-Aug-26 2:35:02 PM
! E:\20260827_VNA\T1T1E5_SHORT_2.S2P
! CHANNEL.1
! TR.MEASUREMENT
! CORRECTED.DATA
# GHZ S RI R 50.0
! FREQ.GHZ         S11RE         S11IM         S21RE         S21IM         S12RE         S12IM         S22RE         S22IM         
!; PortSelection: Port_12
   0.000050000    -0.0329053    0.0548902    -0.1447430    0.0577546    -0.0042167   -0.0019828     0.9838837    0.0130735 
   0.000150025    -0.0700585    0.0776287    -0.2949799   -0.1960390    -0.0001744   -0.0001434     1.0008840    0.0029986 
   0.000250050     0.0873623   -0.8055381    -0.0080730    0.0064042    -0.0024024   -0.0000327     1.0160200   -0.0151994 
   0.000350075     0.9710617   -0.0500997    -0.0041362   -0.0070755    -0.0002433    0.0014537     1.0091950   -0.0271370 
   0.000450100     0.9984790   -0.0099434    -0.0016359   -0.0135669    -0.0002261    0.0003240     0.9967231   -0.0278226 
   0.000550125     0.9750063   -0.0029059    -0.0031931   -0.0146578    -0.0009559   -0.0009506     0.9936009   -0.0393172 
   0.000650150     0.9611384   -0.0600473    -0.0074339   -0.0115206    -0.0006053   -0.0008426     1.0023590   -0.0547253 
   0.000750175     1.0012380   -0.0537916    -0.0045122   -0.0088013     0.0005167    0.0003230     0.9939561   -0.0531159 
   0.000850200     0.9832388   -0.0539194    -0.0072948   -0.0158022     0.0000754    0.0002112     0.9973636   -0.0561262 
   0.000950225     0.9922715   -0.0528475    -0.0073089   -0.0025005     0.0000117   -0.0002629     0.9935772   -0.0717140 
   0.001050250     1.0098510   -0.0498046    -0.0077751   -0.0077239    -0.0007014   -0.0007161     0.9973482   -0.0677337 
   0.001150275     1.0308080   -0.0421586    -0.0083205   -0.0020427    -0.0008056   -0.0002515     0.9885504   -0.0786776 
   0.001250300     0.9921942   -0.0309229    -0.0075209   -0.0048789    -0.0006205    0.0001432     0.9952902   -0.0921180 
   0.001350325     0.9848021   -0.0545224    -0.0114507   -0.0033595    -0.0007901    0.0000205     0.9903486   -0.0906629 
   0.001450350     0.9936652   -0.0442245    -0.0076223   -0.0060357    -0.0005806    0.0001389     0.9918422   -0.0981502 
   0.001550375     0.9728747   -0.0726545    -0.0066635   -0.0025470    -0.0004904   -0.0001913     0.9983867   -0.1034381 
   0.001650400     1.0054540   -0.0278097    -0.0088455    0.0021534     0.0006626   -0.0003596     0.9841398   -0.1149763 
   0.001750425     0.9905981   -0.0673774    -0.0074668    0.0052168     0.0001426    0.0001318     0.9893655   -0.1208418 
   0.001850450     0.9477289   -0.0617251    -0.0101926    0.0013140     0.0000880    0.0003817     0.9814439   -0.1357843 
   0.001950475     0.9670358   -0.0206815    -0.0076295    0.0020028     0.0004398   -0.0005102     0.9825711   -0.1378538 
   0.002050500     0.9294403   -0.0639418    -0.0073342    0.0061301    -0.0004737   -0.0000879     0.9832001   -0.1536255 
   0.002150525     0.9916173   -0.0999622    -0.0066257    0.0032110     0.0000598   -0.0012716     0.9771733   -0.1558805 
   0.002250550     0.9523388   -0.0976524    -0.0088314    0.0011050    -0.0006168   -0.0000822     0.9789036   -0.1625985 
   0.002350575     0.9594739   -0.1240775    -0.0077359    0.0040118    -0.0000791    0.0000207     0.9767544   -0.1650517 
   0.002450600     0.9786714   -0.0527133    -0.0069897    0.0023267    -0.0004375   -0.0002384     0.9763337   -0.1743498 
   0.002550625     1.0071150   -0.0972721    -0.0053120   -0.0002294     0.0001811    0.0000711     0.9745188   -0.1814379 
   0.002650650     1.0006680   -0.0727978    -0.0055798    0.0053748    -0.0005296    0.0003206     0.9667838   -0.1930376 
   0.002750675     1.0048660   -0.0314984    -0.0079508    0.0039342    -0.0003975   -0.0000515     0.9581699   -0.1926063 
   0.002850700     1.0103850   -0.1297648    -0.0035681    0.0021202     0.0000262   -0.0003276     0.9624489   -0.2012589 
   0.002950725     0.9459503   -0.0589045    -0.0020517    0.0041956     0.0001086   -0.0001241     0.9623206   -0.2018634 
   0.003050750     0.9947937   -0.1423617    -0.0022531    0.0003183     0.0000232   -0.0003695     0.9580979   -0.2171765 
   0.003150775     0.9807879   -0.1357138    -0.0048553    0.0050730    -0.0005982    0.0009504     0.9441069   -0.2219020 
   0.003250800     0.9724397   -0.1390789    -0.0023209   -0.0007132    -0.0000387   -0.0004749     0.9442967   -0.2245517 
   0.003350825     0.9667618   -0.1164104    -0.0037077    0.0005666    -0.0007026   -0.0001425     0.9352600   -0.2352625 
   0.003450850     0.9770882   -0.1638807    -0.0000833    0.0019318    -0.0003152    0.0008560     0.9397115   -0.2363266 
   0.003550875     0.9457418   -0.1421247    -0.0028752    0.0007383    -0.0004090    0.0000412     0.9389757   -0.2442940 
   0.003650900     0.9939445   -0.1197864    -0.0003761    0.0024322    -0.0000908   -0.0003804     0.9325748   -0.2526695 
   0.003750925     0.9609660   -0.1579961    -0.0018189    0.0033621    -0.0002105    0.0004674     0.9253872   -0.2608465 
   0.003850950     0.9629672   -0.1755241    -0.0021606    0.0001690    -0.0001398   -0.0003296     0.9292660   -0.2645868 
   0.003950975     0.9982820   -0.1100591    -0.0001825    0.0011697    -0.0003917    0.0002274     0.9206997   -0.2648113 
   0.004051001     0.9614792   -0.1884324    -0.0002831    0.0021703    -0.0004299    0.0000724     0.9136321   -0.2713029 
   0.004151026     0.9752181   -0.1325173    -0.0029858    0.0015447    -0.0004721    0.0000684     0.9175995   -0.2783879 
   0.004251051     0.9953358   -0.1499098    -0.0010049    0.0031424    -0.0001736   -0.0003169     0.9117602   -0.2878192 
   0.004351076     0.9657789   -0.1353734     0.0003012    0.0018940    -0.0001132    0.0003386     0.9070765   -0.2875004 
   0.004451101     0.9928401   -0.1840913     0.0003564    0.0020233     0.0000294   -0.0000563     0.9015115   -0.2900301 
   0.004551126     1.0051760   -0.1744667     0.0030568    0.0029762    -0.0003854   -0.0001175     0.9040205   -0.3000691 
   0.004651151     0.9775762   -0.1783504    -0.0000308    0.0001740     0.0000725    0.0004372     0.8994565   -0.3046720 
   0.004751176     0.9706264   -0.1795488    -0.0034230    0.0019435     0.0005101    0.0005639     0.8913938   -0.3117305 
   0.004851201     0.9531157   -0.1870189     0.0004500    0.0041938    -0.0001724    0.0000616     0.8859438   -0.3159428 
   0.004951226     0.9751322   -0.1720114    -0.0030035    0.0001587     0.0005164    0.0000099     0.8857365   -0.3180141 
   0.005051251     0.9847947   -0.1823118     0.0014094   -0.0004601    -0.0001597    0.0004229     0.8826425   -0.3203904 
   0.005151276     0.9516951   -0.1657317    -0.0003132    0.0033685    -0.0000514    0.0006465     0.8718166   -0.3285459 
   0.005251301     0.9803208   -0.1971095    -0.0015776    0.0033566    -0.0002045   -0.0006618     0.8719420   -0.3353742 
   0.005351326     0.9673437   -0.1523866    -0.0004046    0.0013346     0.0002899    0.0000128     0.8658928   -0.3374042 
   0.005451351     0.9621560   -0.1917722     0.0009148    0.0011477    -0.0003338    0.0005731     0.8614763   -0.3487797 
   0.005551376     0.9825801   -0.2077888     0.0010236    0.0005387     0.0001267    0.0004656     0.8555270   -0.3441765 
   0.005651401     0.9762443   -0.1913626     0.0003361    0.0011131     0.0000448   -0.0000370     0.8544463   -0.3540137 
   0.005751426     0.9438841   -0.2197634    -0.0023058   -0.0007627     0.0000995    0.0003840     0.8473079   -0.3566501 
   0.005851451     0.9337698   -0.2347649    -0.0005371   -0.0002265    -0.0003368    0.0003247     0.8464649   -0.3627359 
   0.005951476     0.9379838   -0.1976259    -0.0014340    0.0005856    -0.0000425    0.0003320     0.8412796   -0.3630991 
   0.006051501     0.9534606   -0.2117265     0.0005166    0.0021733     0.0000317   -0.0004078     0.8390411   -0.3735347 
   0.006151526     0.9471187   -0.2045007    -0.0000406    0.0001476    -0.0001332   -0.0001390     0.8287866   -0.3757621 
   0.006251551     0.9653670   -0.2046891     0.0029010    0.0004642     0.0001364   -0.0002375     0.8288010   -0.3818711 
   0.006351576     0.9560117   -0.2156885    -0.0003704    0.0007025     0.0000076   -0.0003100     0.8167968   -0.3802381 
   0.006451601     0.9552999   -0.2494081     0.0008292   -0.0013625    -0.0004418   -0.0000356     0.8165472   -0.3871594 
   0.006551626     0.9466360   -0.2436712     0.0022864    0.0014677    -0.0002192    0.0000703     0.8115156   -0.3900403 
   0.006651651     0.9463277   -0.2428767    -0.0001522   -0.0011844    -0.0002425    0.0004761     0.8058630   -0.3951645 
   0.006751676     0.9432596   -0.2533306    -0.0031733   -0.0013445     0.0002846    0.0000398     0.8050930   -0.3951655 
   0.006851701     0.9613619   -0.2558068    -0.0010120    0.0005088    -0.0009302   -0.0003168     0.7944333   -0.4014605 
   0.006951726     0.9148071   -0.2621364     0.0002887    0.0009146    -0.0003290    0.0003728     0.7900178   -0.4014688 
   0.007051751     0.9608086   -0.2670570     0.0009626    0.0004627    -0.0002129    0.0002422     0.7864634   -0.4038791 
   0.007151776     0.9236541   -0.2513154    -0.0011105    0.0003628     0.0001451   -0.0001128     0.7794871   -0.4123960 
   0.007251801     0.9647536   -0.2436613     0.0006538    0.0022537    -0.0001228   -0.0002102     0.7788908   -0.4159575 
   0.007351826     0.9351428   -0.2638501    -0.0013887   -0.0012930    -0.0000158   -0.0002965     0.7685908   -0.4187386 
   0.007451851     0.9267588   -0.2744269     0.0001356   -0.0000425     0.0005389    0.0002635     0.7697052   -0.4181177 
   0.007551876     0.9560308   -0.2736014    -0.0003319   -0.0003419     0.0000995    0.0004323     0.7658646   -0.4228834 
   0.007651901     0.9404104   -0.2639015    -0.0012557   -0.0015511    -0.0001120    0.0000474     0.7599717   -0.4254144 
   0.007751926     0.9340189   -0.2755635    -0.0004214    0.0008247    -0.0000535    0.0000250     0.7487593   -0.4268152 
   0.007851951     0.9201575   -0.2652939     0.0002620   -0.0012811    -0.0000461    0.0002295     0.7528019   -0.4317670 
   0.007951976     0.9341578   -0.3103302    -0.0002352    0.0009764     0.0003370    0.0001424     0.7416065   -0.4310846 
   0.008052001     0.9397517   -0.2725836    -0.0001730    0.0011095     0.0000242    0.0002313     0.7387607   -0.4347473 
   0.008152026     0.9458482   -0.3031660    -0.0005007    0.0005160     0.0001251    0.0000268     0.7381220   -0.4397047 
   0.008252051     0.9366307   -0.2767480    -0.0007222    0.0022179    -0.0000358    0.0002361     0.7301489   -0.4389548 
   0.008352076     0.9489747   -0.3071342     0.0014593    0.0011304    -0.0001478   -0.0002551     0.7269114   -0.4429666 
   0.008452101     0.9372585   -0.2903299    -0.0005358    0.0006678    -0.0000241    0.0004674     0.7209627   -0.4472213 
   0.008552126     0.9337133   -0.2965043    -0.0008164    0.0000128    -0.0000659   -0.0001336     0.7157018   -0.4475504 
   0.008652151     0.9364744   -0.2950611    -0.0002219   -0.0002502    -0.0000156   -0.0004664     0.7105551   -0.4517041 
   0.008752176     0.9405952   -0.3062003    -0.0015178    0.0000710     0.0003024    0.0002121     0.7074711   -0.4551481 
   0.008852201     0.9141035   -0.2776197     0.0011099   -0.0002599    -0.0000309    0.0002958     0.7005958   -0.4507962 
   0.008952226     0.9565731   -0.3058218     0.0001978   -0.0007068    -0.0003037    0.0002710     0.6982005   -0.4527515 
   0.009052251     0.9439572   -0.3022920     0.0009870    0.0007237     0.0000395    0.0001833     0.6950431   -0.4574485 
   0.009152276     0.9157720   -0.3198479    -0.0013093    0.0021896    -0.0001392    0.0000706     0.6859043   -0.4590174 
   0.009252301     0.9117123   -0.3277491     0.0003351    0.0007403    -0.0001375    0.0000762     0.6821955   -0.4632140 
   0.009352326     0.9383904   -0.3300486     0.0004210   -0.0000272     0.0001325   -0.0001368     0.6781143   -0.4612121 
   0.009452351     0.9354503   -0.3292940    -0.0000257    0.0015728     0.0000279    0.0003128     0.6735471   -0.4648061 
   0.009552376     0.9167073   -0.3296789    -0.0007244    0.0003663     0.0002048    0.0000370     0.6689873   -0.4663498 
   0.009652401     0.9149685   -0.3228357     0.0003558   -0.0003803    -0.0000647   -0.0001844     0.6648477   -0.4674087 
   0.009752426     0.9114739   -0.3385160     0.0006093   -0.0008771    -0.0002499    0.0003808     0.6602255   -0.4680649 
   0.009852451     0.9230417   -0.3409158     0.0005526    0.0012071     0.0001178    0.0000920     0.6539305   -0.4703714 
   0.009952476     0.9003732   -0.3545763     0.0003258    0.0011998    -0.0002038    0.0001990     0.6505716   -0.4696895 
   0.010052501     0.9087048   -0.3425814     0.0016439    0.0009339    -0.0002924   -0.0001527     0.6487890   -0.4684076 
   0.010152526     0.9244875   -0.3427234    -0.0001545   -0.0004287     0.0000080   -0.0001779     0.6403989   -0.4700935 
   0.010252551     0.9080830   -0.3352019     0.0001219   -0.0000243     0.0001143    0.0004023     0.6398615   -0.4763082 
   0.010352576     0.9018345   -0.3720227    -0.0011094    0.0004029     0.0001257    0.0002420     0.6330034   -0.4765957 
   0.010452601     0.9339342   -0.3512679    -0.0000471    0.0016199    -0.0000320    0.0002682     0.6288233   -0.4769989 
   0.010552626     0.8950203   -0.3585663     0.0003581    0.0001083     0.0003141    0.0005045     0.6243198   -0.4802458 
   0.010652651     0.9088095   -0.3758953    -0.0003877    0.0001014    -0.0000814    0.0003606     0.6201626   -0.4807307 
   0.010752676     0.9089187   -0.3803238     0.0001629   -0.0010494     0.0001652    0.0000895     0.6151725   -0.4796382 
   0.010852701     0.9101900   -0.3593533    -0.0004633    0.0006101     0.0000428    0.0003065     0.6146275   -0.4801726 
   0.010952726     0.8940936   -0.3827855     0.0009102    0.0010739     0.0001206    0.0002053     0.6059486   -0.4823294 
   0.011052751     0.8760845   -0.3883366    -0.0005847    0.0009675    -0.0000103    0.0003731     0.6021037   -0.4846423 
   0.011152776     0.9082543   -0.3866195     0.0001620    0.0000986    -0.0002580   -0.0000465     0.5956118   -0.4858572 
   0.011252801     0.9053466   -0.3943595     0.0012043   -0.0003892    -0.0000680    0.0004562     0.5940185   -0.4861417 
   0.011352826     0.8913200   -0.4102025     0.0010069   -0.0000386    -0.0001159    0.0000777     0.5915633   -0.4829560 
   0.011452851     0.8766837   -0.3836433    -0.0003612    0.0012903     0.0002347    0.0001976     0.5868709   -0.4871390 
   0.011552876     0.8762164   -0.3989543    -0.0006870    0.0001667    -0.0000526    0.0000547     0.5817695   -0.4904998 
   0.011652901     0.8873094   -0.4052135     0.0016835    0.0006363    -0.0001321   -0.0000124     0.5799303   -0.4867581 
   0.011752926     0.8809775   -0.3932165    -0.0011321    0.0003175    -0.0000680   -0.0001196     0.5737027   -0.4892681 
   0.011852951     0.8816192   -0.4096093     0.0003940    0.0004142    -0.0001462    0.0003268     0.5712384   -0.4877395 
   0.011952976     0.8863756   -0.4130058     0.0002552    0.0007539     0.0001294    0.0001347     0.5652471   -0.4901073 
   0.012053002     0.8704069   -0.4295275     0.0012742   -0.0000688    -0.0001654   -0.0001535     0.5617518   -0.4893092 
   0.012153027     0.8837137   -0.4178590    -0.0003137    0.0001201     0.0000010   -0.0000323     0.5583247   -0.4908256 
   0.012253052     0.8603131   -0.4185002     0.0005142    0.0012917     0.0001104    0.0001930     0.5538406   -0.4917707 
   0.012353077     0.8893841   -0.4195903    -0.0002850    0.0000553    -0.0001177    0.0002876     0.5528598   -0.4902337 
   0.012453102     0.8852991   -0.4134331     0.0002087   -0.0016300    -0.0000087    0.0001696     0.5455429   -0.4918130 
   0.012553127     0.8667911   -0.4370856     0.0002646   -0.0003294     0.0000978    0.0003287     0.5406270   -0.4914950 
   0.012653152     0.8781387   -0.4309252     0.0003537   -0.0005487     0.0001912    0.0004244     0.5354590   -0.4931774 
   0.012753177     0.8653340   -0.4367898     0.0007105    0.0004404     0.0004402   -0.0001263     0.5346761   -0.4915191 
   0.012853202     0.8759921   -0.4187116    -0.0002934    0.0001592     0.0002841    0.0001593     0.5292101   -0.4909773 
   0.012953227     0.8719010   -0.4315990    -0.0003306   -0.0000845     0.0001356   -0.0000383     0.5303181   -0.4944651 
   0.013053252     0.8556022   -0.4552851    -0.0010458   -0.0001493     0.0000169    0.0001564     0.5237475   -0.4936812 
   0.013153277     0.8666195   -0.4253066    -0.0003721   -0.0005259     0.0000933    0.0000880     0.5184416   -0.4921084 
   0.013253302     0.8601853   -0.4467242     0.0002031   -0.0004853     0.0000371   -0.0000061     0.5183340   -0.4889691 
   0.013353327     0.8553402   -0.4379143     0.0000680   -0.0004560    -0.0002998   -0.0001090     0.5119802   -0.4951583 
   0.013453352     0.8727093   -0.4378892    -0.0009247    0.0007038    -0.0000090    0.0003062     0.5082800   -0.4929456 
   0.013553377     0.8533965   -0.4460609     0.0002623    0.0000687    -0.0001655    0.0004770     0.5028232   -0.4928063 
   0.013653402     0.8580254   -0.4556962    -0.0001221    0.0007452     0.0001561    0.0001214     0.5008729   -0.4911376 
   0.013753427     0.8608220   -0.4592301    -0.0007934   -0.0000669     0.0001981    0.0002586     0.4949054   -0.4915517 
   0.013853452     0.8540757   -0.4674323     0.0004439   -0.0002473    -0.0001737    0.0001517     0.4961353   -0.4922911 
   0.013953477     0.8371532   -0.4468392     0.0005765   -0.0000889    -0.0000382    0.0000475     0.4898610   -0.4929254 
   0.014053502     0.8463629   -0.4745149    -0.0003821    0.0007980    -0.0000341    0.0001440     0.4863873   -0.4935921 
   0.014153527     0.8428597   -0.4784083     0.0008420   -0.0004435     0.0001775   -0.0003726     0.4846740   -0.4917286 
   0.014253552     0.8515810   -0.4723183     0.0007960    0.0004087     0.0001821    0.0002326     0.4834161   -0.4927067 
   0.014353577     0.8399402   -0.4707877    -0.0001691    0.0010728    -0.0000748    0.0000938     0.4770234   -0.4905209 
   0.014453602     0.8317267   -0.4678399     0.0001598    0.0001890    -0.0000646    0.0000484     0.4773239   -0.4904679 
   0.014553627     0.8411433   -0.4796810     0.0008151   -0.0001350     0.0001415    0.0000893     0.4708928   -0.4920475 
   0.014653652     0.8455548   -0.4879473    -0.0002257   -0.0000464     0.0000987    0.0000845     0.4661146   -0.4911109 
   0.014753677     0.8304889   -0.4846563    -0.0000261   -0.0007466     0.0001474    0.0003457     0.4629154   -0.4903177 
   0.014853702     0.8360652   -0.4808953     0.0009144   -0.0001268     0.0004112    0.0003472     0.4612230   -0.4896705 
   0.014953727     0.8217596   -0.5126268     0.0005184   -0.0003064     0.0003528   -0.0001779     0.4578169   -0.4898968 
   0.015053752     0.8413935   -0.4945438     0.0007545   -0.0001495     0.0002470    0.0002223     0.4552554   -0.4875703 
   0.015153777     0.8245971   -0.5059481    -0.0002921   -0.0000124     0.0002439   -0.0001955     0.4534796   -0.4901093 
   0.015253802     0.8205935   -0.5031070     0.0000605   -0.0001836     0.0000223    0.0001974     0.4475499   -0.4898110 
   0.015353827     0.8188471   -0.5029956    -0.0001780   -0.0000294     0.0002246    0.0003423     0.4450190   -0.4893257 
   0.015453852     0.8261377   -0.5103161     0.0013982   -0.0002554     0.0001015    0.0004912     0.4407804   -0.4870483 
   0.015553877     0.8192616   -0.5158198    -0.0004937    0.0005744     0.0003550    0.0000281     0.4383461   -0.4859430 
   0.015653902     0.8145626   -0.5090404    -0.0005984    0.0004237     0.0002932    0.0001636     0.4371948   -0.4890663 
   0.015753927     0.8116179   -0.5002024     0.0005396   -0.0001287     0.0000828    0.0001837     0.4318820   -0.4859048 
   0.015853952     0.8141498   -0.5269220     0.0005488   -0.0003696     0.0003731    0.0003086     0.4301719   -0.4862053 
   0.015953977     0.8278427   -0.5120907    -0.0005413    0.0001751     0.0002033    0.0000716     0.4262671   -0.4846271 
   0.016054002     0.8062376   -0.5095613    -0.0000590    0.0005830     0.0001021    0.0002460     0.4223371   -0.4861373 
   0.016154027     0.8149651   -0.5271413     0.0002742    0.0009806     0.0002171   -0.0001289     0.4202905   -0.4874538 
   0.016254052     0.7967393   -0.5271808     0.0001815    0.0002802     0.0001360   -0.0000450     0.4170973   -0.4846313 
   0.016354077     0.7943186   -0.5280240     0.0002607    0.0001745     0.0003648    0.0001286     0.4149644   -0.4833085 
   0.016454102     0.8064886   -0.5303474     0.0011667    0.0004537    -0.0000227   -0.0000143     0.4116072   -0.4842304 
   0.016554127     0.7967218   -0.5319955     0.0000382    0.0003947     0.0002087    0.0001181     0.4086012   -0.4843111 
   0.016654152     0.8080310   -0.5419900     0.0002068    0.0005133     0.0001516    0.0003585     0.4054261   -0.4809595 
   0.016754177     0.7895400   -0.5447317    -0.0004514   -0.0004298     0.0004090    0.0002840     0.4040955   -0.4803106 
   0.016854202     0.7928417   -0.5389562     0.0001006   -0.0002527    -0.0000615    0.0001427     0.4008183   -0.4806891 
   0.016954227     0.7994261   -0.5636186     0.0000274    0.0002716    -0.0000881    0.0000646     0.4003612   -0.4801049 
   0.017054252     0.7881578   -0.5592260    -0.0000797    0.0000257     0.0001597    0.0003275     0.3947600   -0.4796442 
   0.017154277     0.7827210   -0.5442617     0.0000542    0.0002751     0.0000287    0.0002275     0.3924585   -0.4793873 
   0.017254302     0.7941207   -0.5511703    -0.0002382    0.0001622     0.0002892    0.0001595     0.3901676   -0.4774441 
   0.017354327     0.7855495   -0.5689440     0.0003271   -0.0006298     0.0002139    0.0002288     0.3879061   -0.4782605 
   0.017454352     0.7798409   -0.5633164     0.0005748   -0.0006262     0.0001757    0.0003674     0.3833523   -0.4771225 
   0.017554377     0.7688363   -0.5744833     0.0002932    0.0001386     0.0000561    0.0000960     0.3828505   -0.4770151 
   0.017654402     0.7817771   -0.5663404     0.0010977    0.0004163     0.0002002    0.0003332     0.3795959   -0.4740970 
   0.017754427     0.7695923   -0.5659001     0.0002650   -0.0005638     0.0000760    0.0001025     0.3785648   -0.4746181 
   0.017854452     0.7832434   -0.5779985    -0.0001035   -0.0006219     0.0000284    0.0001432     0.3752518   -0.4741606 
   0.017954477     0.7736413   -0.5563751     0.0004411    0.0001191     0.0002864    0.0002402     0.3744254   -0.4739633 
   0.018054502     0.7702407   -0.5764709    -0.0008449    0.0002505     0.0004080    0.0001429     0.3698275   -0.4721529 
   0.018154527     0.7594419   -0.5756871     0.0005310   -0.0001754     0.0002664    0.0002676     0.3671676   -0.4724635 
   0.018254552     0.7616788   -0.5848857    -0.0004963    0.0000494     0.0002567    0.0000783     0.3647690   -0.4697598 
   0.018354577     0.7582552   -0.5810434     0.0007462    0.0003138     0.0003919    0.0001748     0.3629950   -0.4695403 
   0.018454602     0.7519795   -0.5882003     0.0005421    0.0004161     0.0001101    0.0000677     0.3608089   -0.4686017 
   0.018554627     0.7441551   -0.6006348     0.0005498    0.0006267     0.0000214    0.0000701     0.3584182   -0.4693142 
   0.018654652     0.7532575   -0.5969380     0.0005376    0.0003106     0.0005212   -0.0000733     0.3553642   -0.4674574 
   0.018754677     0.7480320   -0.5891087    -0.0003224   -0.0001620     0.0000667    0.0000943     0.3550177   -0.4676008 
   0.018854702     0.7579916   -0.5907586     0.0002194   -0.0005088     0.0001228    0.0001533     0.3531207   -0.4672032 
   0.018954727     0.7482180   -0.6033313    -0.0000966    0.0000804     0.0001773    0.0002333     0.3479210   -0.4647561 
   0.019054752     0.7438025   -0.5990754    -0.0004019    0.0001429     0.0002333    0.0000684     0.3459015   -0.4667150 
   0.019154777     0.7375186   -0.5993495     0.0005478   -0.0000318     0.0003332    0.0000676     0.3427033   -0.4639818 
   0.019254802     0.7328281   -0.6090496     0.0003258    0.0004448     0.0001552    0.0000506     0.3404951   -0.4632334 
   0.019354827     0.7262568   -0.6064146     0.0003319    0.0005393     0.0000717    0.0000666     0.3390111   -0.4623081 
   0.019454852     0.7321571   -0.6050543     0.0000177   -0.0001328     0.0003161    0.0001384     0.3380538   -0.4636015 
   0.019554877     0.7213286   -0.6032336     0.0002773   -0.0002038     0.0002273    0.0001828     0.3355637   -0.4615253 
   0.019654902     0.7433539   -0.6119710     0.0005498    0.0005584     0.0001671    0.0002486     0.3351867   -0.4621679 
   0.019754927     0.7260980   -0.6124167    -0.0003707   -0.0003007     0.0000367    0.0003622     0.3306469   -0.4609999 
   0.019854952     0.7193317   -0.6153491    -0.0003604    0.0003150     0.0002860    0.0001949     0.3295144   -0.4588897 
   0.019954977     0.7222514   -0.6209147     0.0003560    0.0001290     0.0001458    0.0001058     0.3295515   -0.4570431 
   0.020055003     0.7192740   -0.6236141     0.0001271    0.0002831     0.0001786    0.0002741     0.3250034   -0.4571325 
   0.020155028     0.7155207   -0.6158863     0.0000870   -0.0001551     0.0003665    0.0001936     0.3232764   -0.4583955 
   0.020255053     0.7166815   -0.6333517     0.0007978    0.0002365     0.0000875    0.0001810     0.3220543   -0.4567637 
   0.020355078     0.7114336   -0.6375796     0.0005222   -0.0003145     0.0002086    0.0001590     0.3182750   -0.4557556 
   0.020455103     0.7211464   -0.6309152     0.0003406   -0.0001360     0.0002173    0.0003403     0.3184939   -0.4541093 
   0.020555128     0.6995527   -0.6334815    -0.0002025   -0.0003378     0.0003607   -0.0000104     0.3140680   -0.4551014 
   0.020655153     0.7086362   -0.6366005    -0.0001463   -0.0007024     0.0001151    0.0001911     0.3125324   -0.4527246 
   0.020755178     0.6924284   -0.6356938    -0.0000099    0.0000170     0.0002665    0.0002410     0.3119443   -0.4520686 
   0.020855203     0.6992483   -0.6370335     0.0007668    0.0006670     0.0000444    0.0002082     0.3077902   -0.4517983 
   0.020955228     0.6983434   -0.6364340     0.0000286    0.0000372     0.0001330    0.0000284     0.3064196   -0.4496531 
   0.021055253     0.6865019   -0.6516965     0.0009919    0.0001962     0.0001613    0.0001252     0.3055803   -0.4497048 
   0.021155278     0.6964238   -0.6530883    -0.0003146    0.0007259     0.0002181    0.0001710     0.3049724   -0.4487239 
   0.021255303     0.6832693   -0.6407388     0.0005415    0.0000026     0.0002349    0.0003025     0.3008126   -0.4490770 
   0.021355328     0.6956437   -0.6519326     0.0006930    0.0004955     0.0002608    0.0001666     0.3001592   -0.4465911 
   0.021455353     0.6776628   -0.6506839    -0.0001706    0.0007839     0.0003321    0.0001972     0.2984341   -0.4458837 
   0.021555378     0.6844987   -0.6617993     0.0002018   -0.0003635     0.0001966    0.0001046     0.2969925   -0.4447622 
   0.021655403     0.6845122   -0.6598378     0.0006183    0.0005244     0.0002087    0.0002433     0.2953540   -0.4441495 
   0.021755428     0.6763557   -0.6567872     0.0007396    0.0001831     0.0003140    0.0002210     0.2940241   -0.4433687 
   0.021855453     0.6781460   -0.6624389     0.0005185   -0.0000239     0.0002135    0.0002263     0.2913404   -0.4400366 
   0.021955478     0.6666802   -0.6607394     0.0000656   -0.0000251     0.0001932   -0.0000461     0.2892910   -0.4411326 
   0.022055503     0.6774742   -0.6658463     0.0002743   -0.0001449     0.0001493    0.0001486     0.2872242   -0.4399894 
   0.022155528     0.6662840   -0.6701235     0.0000898   -0.0002688     0.0003148    0.0001170     0.2861170   -0.4402302 
   0.022255553     0.6570860   -0.6726249     0.0006131    0.0008060     0.0002193    0.0001261     0.2831893   -0.4388871 
   0.022355578     0.6633521   -0.6664355    -0.0000727   -0.0001389     0.0002746    0.0002400     0.2830292   -0.4381278 
   0.022455603     0.6572123   -0.6817445     0.0001547    0.0005533     0.0002914    0.0002481     0.2797793   -0.4380796 
   0.022555628     0.6643391   -0.6789815     0.0005424    0.0004526     0.0004161    0.0002395     0.2801434   -0.4373820 
   0.022655653     0.6636946   -0.6785481     0.0006491    0.0002781     0.0002525    0.0000569     0.2780947   -0.4355000 
   0.022755678     0.6463920   -0.6788462     0.0001764    0.0002855     0.0002786    0.0001609     0.2767594   -0.4339943 
   0.022855703     0.6459950   -0.6861581     0.0005011    0.0004603     0.0003087    0.0002422     0.2749937   -0.4342858 
   0.022955728     0.6549047   -0.6799260     0.0002915    0.0000827     0.0001729    0.0000006     0.2736145   -0.4330468 
   0.023055753     0.6453527   -0.6904503     0.0003969    0.0000339     0.0003189    0.0001099     0.2704689   -0.4309758 
   0.023155778     0.6451027   -0.6893364     0.0003531   -0.0000178     0.0002418    0.0001317     0.2691381   -0.4317919 
   0.023255803     0.6375247   -0.6977838     0.0002723    0.0001659     0.0002777    0.0001710     0.2683453   -0.4289759 
   0.023355828     0.6307522   -0.6883056     0.0000993    0.0000647     0.0002250    0.0000424     0.2657728   -0.4294472 
   0.023455853     0.6358539   -0.6990986     0.0002315    0.0003098     0.0001910    0.0001609     0.2648688   -0.4292801 
   0.023555878     0.6346555   -0.7000534     0.0002522    0.0004112     0.0001962    0.0002500     0.2628569   -0.4283609 
   0.023655903     0.6293856   -0.6920455     0.0000331    0.0002475     0.0001315    0.0001811     0.2619575   -0.4281530 
   0.023755928     0.6277207   -0.6961214     0.0005412   -0.0001790     0.0003291    0.0001936     0.2602393   -0.4250370 
   0.023855953     0.6260058   -0.6975619     0.0003251    0.0003185     0.0002411    0.0002617     0.2582400   -0.4249158 
   0.023955978     0.6159639   -0.7047208     0.0004176    0.0000258     0.0002970    0.0001634     0.2578549   -0.4261979 
   0.024056003     0.6286662   -0.7052174     0.0000971    0.0005164     0.0002344    0.0001327     0.2559318   -0.4245796 
   0.024156028     0.6119006   -0.7003520     0.0005893    0.0003367     0.0002956    0.0001435     0.2555461   -0.4225719 
   0.024256053     0.6143678   -0.7037452     0.0002495    0.0003621     0.0001987    0.0001377     0.2535389   -0.4220638 
   0.024356078     0.6113898   -0.7117445     0.0004949   -0.0000449     0.0002727    0.0000394     0.2522794   -0.4223557 
   0.024456103     0.6071593   -0.7027540     0.0001282   -0.0001592     0.0003035    0.0000404     0.2502239   -0.4209828 
   0.024556128     0.6127326   -0.7091135     0.0002537    0.0001934     0.0003930    0.0002267     0.2496235   -0.4199283 
   0.024656153     0.6093464   -0.7130151     0.0003681    0.0002977     0.0002197    0.0000851     0.2487851   -0.4185530 
   0.024756178     0.6048365   -0.7184817     0.0003628    0.0002515     0.0002959    0.0002463     0.2466539   -0.4171727 
   0.024856203     0.6043068   -0.7218228     0.0004875    0.0001446     0.0002749    0.0000710     0.2450498   -0.4154560 
   0.024956228     0.6046320   -0.7189358     0.0002530    0.0001284     0.0002249    0.0000185     0.2436432   -0.4163398 
   0.025056253     0.5946711   -0.7169155     0.0002992    0.0003970     0.0002731    0.0001941     0.2432305   -0.4158167 
   0.025156278     0.5971894   -0.7268398     0.0002608    0.0002098     0.0001978    0.0001556     0.2403997   -0.4149659 
   0.025256303     0.5919312   -0.7201577     0.0004267   -0.0000277     0.0001652   -0.0000004     0.2400400   -0.4139868 
   0.025356328     0.5999510   -0.7347426     0.0002864    0.0001074     0.0003229    0.0001097     0.2389966   -0.4128922 
   0.025456353     0.5829446   -0.7309016     0.0000740    0.0002453     0.0002816    0.0000445     0.2368444   -0.4123122 
   0.025556378     0.5807200   -0.7341394     0.0004270    0.0001700     0.0003784    0.0000175     0.2361622   -0.4104203 
   0.025656403     0.5823961   -0.7384513     0.0004897    0.0001962     0.0001933    0.0000948     0.2349385   -0.4114138 
   0.025756428     0.5807153   -0.7409015     0.0004946    0.0000798     0.0002619    0.0000742     0.2328520   -0.4087486 
   0.025856453     0.5786498   -0.7345966     0.0003704   -0.0000512     0.0002975    0.0001033     0.2320882   -0.4084157 
   0.025956478     0.5760723   -0.7375396     0.0001949    0.0001721     0.0001765    0.0000928     0.2312772   -0.4083547 
   0.026056503     0.5704554   -0.7373515    -0.0000057    0.0001322     0.0003057    0.0001537     0.2295720   -0.4067567 
   0.026156528     0.5650622   -0.7347351     0.0000349   -0.0000444     0.0002339    0.0000431     0.2280671   -0.4067540 
   0.026256553     0.5723254   -0.7377719     0.0004480   -0.0001297     0.0002589    0.0001582     0.2282535   -0.4049445 
   0.026356578     0.5651457   -0.7474887     0.0003175    0.0001073     0.0001828    0.0000659     0.2258658   -0.4058265 
   0.026456603     0.5580066   -0.7460109     0.0003500   -0.0000630     0.0003093    0.0001762     0.2256086   -0.4031174 
   0.026556628     0.5591771   -0.7482224     0.0000583    0.0001429     0.0003456    0.0000677     0.2233862   -0.4021578 
   0.026656653     0.5508215   -0.7451912     0.0002104    0.0002760     0.0002476    0.0000720     0.2224444   -0.4012749 
   0.026756678     0.5537634   -0.7538083     0.0001722    0.0003963     0.0002299    0.0000749     0.2230396   -0.4019741 
   0.026856703     0.5475398   -0.7595500     0.0003330    0.0001770     0.0003510    0.0002291     0.2213767   -0.4011466 
   0.026956728     0.5477186   -0.7562744     0.0004121    0.0003493     0.0003642    0.0001046     0.2192609   -0.3988385 
   0.027056753     0.5465121   -0.7600253     0.0003644    0.0002269     0.0003287    0.0000576     0.2171445   -0.3985878 
   0.027156778     0.5421530   -0.7560596     0.0002869   -0.0001599     0.0002850   -0.0000061     0.2162491   -0.3974999 
   0.027256803     0.5429294   -0.7507053     0.0002804    0.0000816     0.0002464    0.0000486     0.2147906   -0.3968020 
   0.027356828     0.5393606   -0.7603251     0.0001799   -0.0000271     0.0002834    0.0001104     0.2135749   -0.3961909 
   0.027456853     0.5283944   -0.7642438     0.0002394    0.0002027     0.0003552    0.0001087     0.2136392   -0.3967054 
   0.027556878     0.5327948   -0.7604783     0.0003998    0.0000336     0.0003041    0.0001377     0.2110865   -0.3940333 
   0.027656903     0.5342672   -0.7674074     0.0000592    0.0002292     0.0003847    0.0001352     0.2120150   -0.3940739 
   0.027756928     0.5213214   -0.7651212     0.0002732    0.0001154     0.0002965    0.0000901     0.2104208   -0.3930313 
   0.027856953     0.5263963   -0.7706321     0.0002388    0.0000054     0.0002975    0.0000993     0.2101499   -0.3924049 
   0.027956978     0.5233528   -0.7628531     0.0002249    0.0001483     0.0002797    0.0001230     0.2081034   -0.3913506 
   0.028057004     0.5203188   -0.7638898     0.0002710   -0.0000905     0.0003669    0.0001304     0.2061385   -0.3893213 
   0.028157029     0.5106610   -0.7729331     0.0003008    0.0001211     0.0002801    0.0000906     0.2061725   -0.3890379 
   0.028257054     0.5091652   -0.7744737     0.0000826    0.0000542     0.0003333    0.0000769     0.2054016   -0.3898624 
   0.028357079     0.5075025   -0.7706332     0.0004606    0.0003547     0.0003171    0.0001243     0.2035900   -0.3880384 
   0.028457104     0.5059087   -0.7711695     0.0000566   -0.0000774     0.0002859    0.0000150     0.2023901   -0.3871399 
   0.028557129     0.5018402   -0.7793818     0.0004072   -0.0000018     0.0003293    0.0000695     0.2024843   -0.3874213 
   0.028657154     0.5061575   -0.7788260     0.0004175    0.0000092     0.0002277    0.0001801     0.2011359   -0.3847812 
   0.028757179     0.5041208   -0.7768546     0.0006414    0.0003256     0.0002864    0.0000877     0.2003185   -0.3850864 
   0.028857204     0.4951836   -0.7816425     0.0003192    0.0001997     0.0002007    0.0001658     0.1983331   -0.3850486 
   0.028957229     0.4892593   -0.7784390     0.0003115   -0.0000631     0.0003090    0.0000662     0.1990181   -0.3835300 
   0.029057254     0.4959307   -0.7906700     0.0002855   -0.0000693     0.0003677    0.0001620     0.1979629   -0.3828683 
   0.029157279     0.4843173   -0.7825942    -0.0000217    0.0001318     0.0002491    0.0000794     0.1962273   -0.3819507 
   0.029257304     0.4840277   -0.7899529     0.0002953   -0.0001108     0.0003090    0.0001610     0.1946756   -0.3806388 
   0.029357329     0.4798404   -0.7821907     0.0004576   -0.0002042     0.0002676    0.0000437     0.1948150   -0.3801880 
   0.029457354     0.4832576   -0.7904097     0.0004908    0.0004486     0.0003069    0.0000086     0.1929775   -0.3798068 
   0.029557379     0.4752901   -0.7958225     0.0003127    0.0001016     0.0003347    0.0000899     0.1925149   -0.3792358 
   0.029657404     0.4768619   -0.7928718     0.0004339   -0.0001790     0.0003431    0.0001201     0.1918715   -0.3782009 
   0.029757429     0.4684020   -0.7955413     0.0004351    0.0000744     0.0003270    0.0000330     0.1912196   -0.3782626 
   0.029857454     0.4629326   -0.7913718     0.0002939    0.0000110     0.0003245    0.0000547     0.1900066   -0.3768960 
   0.029957479     0.4681816   -0.7910643     0.0002466   -0.0000598     0.0003482    0.0000881     0.1897322   -0.3751535 
   0.030057504     0.4608287   -0.7933449     0.0003724    0.0001804     0.0003923    0.0001094     0.1881712   -0.3747902 
   0.030157529     0.4656402   -0.7904474     0.0003954    0.0002791     0.0003443    0.0000636     0.1873337   -0.3739964 
   0.030257554     0.4587843   -0.7925742     0.0005032    0.0001499     0.0003356    0.0000948     0.1857722   -0.3729338 
   0.030357579     0.4588484   -0.7916357     0.0004246   -0.0000887     0.0003775   -0.0000288     0.1849372   -0.3724602 
   0.030457604     0.4559082   -0.7985090     0.0002944   -0.0001203     0.0003713    0.0001228     0.1849759   -0.3722452 
   0.030557629     0.4530153   -0.7969638     0.0002064   -0.0002189     0.0004166   -0.0000043     0.1835878   -0.3718302 
   0.030657654     0.4468128   -0.8016208     0.0003155   -0.0000530     0.0002980    0.0000597     0.1828015   -0.3709202 
   0.030757679     0.4394213   -0.8053529     0.0003828   -0.0000680     0.0002617    0.0000661     0.1825666   -0.3701915 
   0.030857704     0.4432987   -0.8054173     0.0004043    0.0001221     0.0003696    0.0000751     0.1814643   -0.3700372 
   0.030957729     0.4401739   -0.8100368     0.0003743    0.0000154     0.0003465    0.0000942     0.1793112   -0.3690101 
   0.031057754     0.4356931   -0.8008574     0.0004494   -0.0000791     0.0003458    0.0001269     0.1793908   -0.3680604 
   0.031157779     0.4344347   -0.8140302     0.0002922    0.0001288     0.0003910    0.0000384     0.1777967   -0.3670770 
   0.031257804     0.4298595   -0.8079501     0.0005057   -0.0000833     0.0003155    0.0000006     0.1780311   -0.3672232 
   0.031357829     0.4284673   -0.8128912     0.0005293   -0.0000106     0.0003376    0.0000026     0.1771355   -0.3657879 
   0.031457854     0.4252911   -0.8019218    -0.0000126    0.0003313     0.0003291    0.0000052     0.1761911   -0.3655840 
   0.031557879     0.4216943   -0.8159524     0.0002225   -0.0002167     0.0003370    0.0000471     0.1757507   -0.3640240 
   0.031657904     0.4165159   -0.8056830     0.0005643    0.0001099     0.0003018    0.0000493     0.1744777   -0.3636862 
   0.031757929     0.4179506   -0.8123990     0.0003370    0.0000214     0.0004072   -0.0000151     0.1729537   -0.3626726 
   0.031857954     0.4152413   -0.8151413     0.0003989    0.0003161     0.0004440   -0.0000021     0.1732778   -0.3629936 
   0.031957979     0.4127640   -0.8132135     0.0001933    0.0000669     0.0003564    0.0000678     0.1730289   -0.3616444 
   0.032058004     0.4132735   -0.8199100     0.0001517    0.0000660     0.0004053   -0.0000037     0.1713707   -0.3618557 
   0.032158029     0.4105876   -0.8181790     0.0001135    0.0000486     0.0003451   -0.0000140     0.1711581   -0.3602274 
   0.032258054     0.4079723   -0.8203385     0.0001906   -0.0001861     0.0003865    0.0000991     0.1701798   -0.3595042 
   0.032358079     0.4065118   -0.8194290     0.0004873    0.0000322     0.0003527   -0.0000026     0.1686937   -0.3583704 
   0.032458104     0.4032498   -0.8204203     0.0001859    0.0002437     0.0004639    0.0000523     0.1683446   -0.3579971 
   0.032558129     0.3953263   -0.8153121     0.0005106    0.0000281     0.0002762    0.0001088     0.1678767   -0.3586940 
   0.032658154     0.3935884   -0.8218619     0.0002690    0.0001659     0.0004203    0.0000274     0.1671737   -0.3567616 
   0.032758179     0.3942887   -0.8206270     0.0001457    0.0001341     0.0001823   -0.0000467     0.1669824   -0.3558235 
   0.032858204     0.3828610   -0.8192629     0.0003882    0.0002071     0.0003279   -0.0000676     0.1653435   -0.3552276 
   0.032958229     0.3882178   -0.8238313     0.0004798   -0.0004472     0.0002875    0.0000410     0.1644922   -0.3535933 
   0.033058254     0.3796812   -0.8233019     0.0001037   -0.0002789     0.0003736    0.0000862     0.1633864   -0.3547135 
   0.033158279     0.3721628   -0.8263584     0.0006398    0.0002052     0.0004287   -0.0000179     0.1632647   -0.3533726 
   0.033258304     0.3782531   -0.8268386     0.0003685   -0.0000499     0.0004228    0.0001467     0.1615490   -0.3530671 
   0.033358329     0.3693758   -0.8287100     0.0007447    0.0003300     0.0005349    0.0000919     0.1624973   -0.3516243 
   0.033458354     0.3720582   -0.8244633     0.0005572    0.0000273     0.0003707   -0.0000588     0.1612119   -0.3512497 
   0.033558379     0.3665593   -0.8334352     0.0004578    0.0002190     0.0003967   -0.0000281     0.1612529   -0.3494320 
   0.033658404     0.3584211   -0.8304351     0.0004058   -0.0000842     0.0003111    0.0000952     0.1597636   -0.3492112 
   0.033758429     0.3578168   -0.8242584     0.0004311   -0.0000465     0.0004219   -0.0000099     0.1597737   -0.3490066 
   0.033858454     0.3538923   -0.8313249     0.0004249   -0.0003300     0.0003433   -0.0000749     0.1583030   -0.3490976 
   0.033958479     0.3576239   -0.8386290     0.0001751    0.0000217     0.0003489   -0.0000807     0.1575864   -0.3482251 
   0.034058504     0.3535227   -0.8288074     0.0004751   -0.0001456     0.0002533    0.0000863     0.1565646   -0.3476509 
   0.034158529     0.3455154   -0.8363525     0.0006791   -0.0005329     0.0003865    0.0000313     0.1573038   -0.3461269 
   0.034258554     0.3496009   -0.8358804     0.0006633    0.0005130     0.0004668    0.0000783     0.1561611   -0.3473626 
   0.034358579     0.3432670   -0.8372849     0.0003901    0.0001534     0.0002431    0.0000663     0.1555768   -0.3457375 
   0.034458604     0.3458215   -0.8368688     0.0005205   -0.0001808     0.0004242   -0.0000022     0.1558624   -0.3451356 
   0.034558629     0.3442328   -0.8351926     0.0004718   -0.0001153     0.0005155    0.0000327     0.1532127   -0.3446454 
   0.034658654     0.3338954   -0.8375837     0.0004027    0.0000690     0.0004127    0.0000699     0.1534171   -0.3430325 
   0.034758679     0.3317067   -0.8352873     0.0004071    0.0001301     0.0003870    0.0000154     0.1531588   -0.3424883 
   0.034858704     0.3347345   -0.8354886     0.0005632    0.0000862     0.0005252    0.0000638     0.1511855   -0.3424033 
   0.034958729     0.3373521   -0.8315406     0.0003543    0.0001460     0.0004035    0.0001102     0.1523254   -0.3423628 
   0.035058754     0.3256820   -0.8403919     0.0001345    0.0001424     0.0004164    0.0000605     0.1503536   -0.3413028 
   0.035158779     0.3296476   -0.8412411    -0.0001938   -0.0004580     0.0003587    0.0000158     0.1500846   -0.3404864 
   0.035258804     0.3220356   -0.8450030     0.0000701    0.0001942     0.0003256   -0.0001135     0.1498587   -0.3400306 
   0.035358829     0.3214843   -0.8352015    -0.0002199    0.0002058     0.0002499   -0.0000180     0.1491825   -0.3379893 
   0.035458854     0.3103832   -0.8409693     0.0003265   -0.0001059     0.0004166    0.0000738     0.1482356   -0.3387808 
   0.035558879     0.3192832   -0.8382461     0.0006415    0.0000263     0.0003467    0.0001133     0.1485211   -0.3380846 
   0.035658904     0.3064007   -0.8406888     0.0008272   -0.0000345     0.0005086   -0.0000619     0.1472615   -0.3366443 
   0.035758929     0.3138113   -0.8378453     0.0007039    0.0003016     0.0001684   -0.0000844     0.1475314   -0.3362909 
   0.035858954     0.3131971   -0.8412911     0.0006486    0.0001578     0.0003035    0.0001316     0.1466528   -0.3359149 
   0.035958979     0.3075734   -0.8457834     0.0003212    0.0002019     0.0004167    0.0000006     0.1450589   -0.3366307 
   0.036059005     0.3074473   -0.8420074     0.0001101   -0.0000675     0.0004415    0.0000024     0.1444919   -0.3339108 
   0.036159030     0.2983774   -0.8478697     0.0002807   -0.0003455     0.0004264   -0.0000183     0.1436020   -0.3345929 
   0.036259055     0.2927856   -0.8421211     0.0004284    0.0001755     0.0004099   -0.0001275     0.1436018   -0.3343736 
   0.036359080     0.2857336   -0.8358948    -0.0002001   -0.0000933     0.0005564   -0.0001148     0.1433295   -0.3329743 
   0.036459105     0.2909863   -0.8515581     0.0001376   -0.0002507     0.0004262    0.0000216     0.1431178   -0.3328317 
   0.036559130     0.2865396   -0.8356746     0.0001008   -0.0001783     0.0004124    0.0000794     0.1421737   -0.3311795 
   0.036659155     0.2837657   -0.8512654     0.0003546   -0.0001191     0.0003248   -0.0000300     0.1413174   -0.3310117 
   0.036759180     0.2850640   -0.8442543     0.0008585   -0.0000118     0.0003792    0.0000431     0.1417708   -0.3314185 
   0.036859205     0.2878035   -0.8480751     0.0002207   -0.0000266     0.0002486   -0.0000511     0.1400857   -0.3300881 
   0.036959230     0.2755845   -0.8457693     0.0000803   -0.0001398     0.0006124    0.0000523     0.1395176   -0.3303061 
   0.037059255     0.2787351   -0.8500881     0.0005078    0.0001936     0.0002429   -0.0001350     0.1393781   -0.3293484 
   0.037159280     0.2702481   -0.8489712     0.0005321    0.0001078     0.0004962   -0.0001136     0.1398335   -0.3291634 
   0.037259305     0.2594536   -0.8568099     0.0006704    0.0002230     0.0004015   -0.0000415     0.1378174   -0.3282590 
   0.037359330     0.2654996   -0.8513978     0.0003852    0.0003098     0.0004955   -0.0001496     0.1382522   -0.3277933 
   0.037459355     0.2655873   -0.8487245     0.0003787   -0.0004314     0.0005345    0.0000949     0.1375539   -0.3268916 
   0.037559380     0.2630340   -0.8496906     0.0002523    0.0002724     0.0004548   -0.0001752     0.1365177   -0.3265752 
   0.037659405     0.2576560   -0.8497638     0.0008682   -0.0002166     0.0002359   -0.0000512     0.1366138   -0.3250989 
   0.037759430     0.2585343   -0.8533400     0.0006327    0.0003485     0.0001460   -0.0000145     0.1358706   -0.3247372 
   0.037859455     0.2489406   -0.8431706     0.0000668    0.0006124     0.0002874   -0.0000495     0.1353615   -0.3244871 
   0.037959480     0.2450233   -0.8476359     0.0004183    0.0000216     0.0003257   -0.0001761     0.1345897   -0.3238867 
   0.038059505     0.2470074   -0.8525460     0.0003902   -0.0002827     0.0005179   -0.0000258     0.1346657   -0.3243522 
   0.038159530     0.2393433   -0.8545390     0.0003729    0.0003719     0.0005603    0.0001786     0.1335376   -0.3224276 
   0.038259555     0.2363587   -0.8558936     0.0008030    0.0003190     0.0003287    0.0000419     0.1337360   -0.3219346 
   0.038359580     0.2421820   -0.8546023     0.0000596    0.0001650     0.0002416    0.0000793     0.1321588   -0.3217368 
   0.038459605     0.2391393   -0.8545313     0.0003436   -0.0001488     0.0003851   -0.0000071     0.1315517   -0.3207552 
   0.038559630     0.2304237   -0.8507096     0.0008552    0.0000490     0.0005004   -0.0000729     0.1309123   -0.3213924 
   0.038659655     0.2394045   -0.8600137     0.0005310    0.0001962     0.0004543   -0.0001339     0.1316013   -0.3197298 
   0.038759680     0.2333428   -0.8514163     0.0007139    0.0001421     0.0002662   -0.0002290     0.1304141   -0.3206565 
   0.038859705     0.2202398   -0.8546355     0.0004013   -0.0002440     0.0004177    0.0001125     0.1310375   -0.3193849 
   0.038959730     0.2252088   -0.8621148     0.0010603   -0.0001230     0.0005674   -0.0000879     0.1304296   -0.3183051 
   0.039059755     0.2145541   -0.8611867     0.0002179   -0.0003321     0.0002162    0.0000264     0.1294985   -0.3174407 
   0.039159780     0.2141934   -0.8502152     0.0002711    0.0003639     0.0004156    0.0000713     0.1277509   -0.3178734 
   0.039259805     0.2182822   -0.8600526     0.0005501   -0.0001990     0.0004794   -0.0000635     0.1279722   -0.3174425 
   0.039359830     0.2069465   -0.8489039     0.0002242    0.0003683     0.0003477   -0.0001031     0.1282411   -0.3162246 
   0.039459855     0.2078854   -0.8573435    -0.0001233   -0.0000533     0.0005735    0.0001034     0.1273436   -0.3155441 
   0.039559880     0.2072830   -0.8558887     0.0005177   -0.0003311     0.0006009   -0.0001036     0.1273563   -0.3151331 
   0.039659905     0.2038619   -0.8579866     0.0001122    0.0001943     0.0002553    0.0000104     0.1256734   -0.3138080 
   0.039759930     0.2046256   -0.8554382     0.0002895    0.0003644     0.0003471    0.0000268     0.1260873   -0.3140516 
   0.039859955     0.2005552   -0.8574547     0.0008362   -0.0009185     0.0004464   -0.0000114     0.1258549   -0.3138177 
   0.039959980     0.1875153   -0.8629817     0.0002636    0.0000720     0.0002179   -0.0002883     0.1248514   -0.3129086 
   0.040060005     0.1966560   -0.8598788    -0.0002089    0.0000936     0.0004214   -0.0001135     0.1247870   -0.3126053 
   0.040160030     0.1883458   -0.8620910     0.0005655   -0.0003630     0.0003478   -0.0000360     0.1244352   -0.3116748 
   0.040260055     0.1922177   -0.8590057     0.0005563   -0.0005502     0.0003825    0.0001848     0.1233764   -0.3109684 
   0.040360080     0.1831932   -0.8578908     0.0001463   -0.0000265     0.0004135    0.0001317     0.1226492   -0.3104872 
   0.040460105     0.1811664   -0.8644637    -0.0002410   -0.0003681     0.0003861   -0.0002964     0.1223362   -0.3103210 
   0.040560130     0.1791762   -0.8628340     0.0002472   -0.0002228     0.0003725   -0.0001527     0.1231207   -0.3100138 
   0.040660155     0.1831472   -0.8634925     0.0007129   -0.0006253     0.0004974   -0.0001639     0.1215289   -0.3089049 
   0.040760180     0.1827656   -0.8549463     0.0003691   -0.0004677     0.0002776   -0.0003850     0.1216655   -0.3085389 
   0.040860205     0.1731326   -0.8563375     0.0003787   -0.0006152     0.0004176   -0.0002806     0.1215875   -0.3080755 
   0.040960230     0.1744504   -0.8608193     0.0007730    0.0001037     0.0003016   -0.0000787     0.1204788   -0.3070553 
   0.041060255     0.1701434   -0.8655156     0.0006199   -0.0000001     0.0006360    0.0000454     0.1200844   -0.3072420 
   0.041160280     0.1659712   -0.8628778    -0.0005354   -0.0001314     0.0003422   -0.0000121     0.1196736   -0.3067649 
   0.041260305     0.1638670   -0.8562776     0.0002910   -0.0003305     0.0001839   -0.0000824     0.1185804   -0.3056524 
   0.041360330     0.1567006   -0.8585199     0.0005953    0.0001601     0.0003704    0.0001818     0.1195920   -0.3058709 
   0.041460355     0.1603444   -0.8540080     0.0007246   -0.0001708     0.0005958   -0.0001339     0.1188714   -0.3053788 
   0.041560380     0.1582868   -0.8613654     0.0006365   -0.0004040     0.0004646    0.0001281     0.1185804   -0.3049919 
   0.041660405     0.1491444   -0.8679668     0.0001673   -0.0006378     0.0003196    0.0001945     0.1181754   -0.3038222 
   0.041760430     0.1461937   -0.8623714    -0.0001526    0.0004179     0.0004979   -0.0002782     0.1178637   -0.3033670 
   0.041860455     0.1423116   -0.8628672     0.0005320    0.0002716     0.0005164   -0.0001874     0.1170145   -0.3042006 
   0.041960480     0.1415865   -0.8595180     0.0004790   -0.0000263     0.0004985   -0.0001308     0.1165513   -0.3028477 
   0.042060505     0.1442584   -0.8599692     0.0010555   -0.0005705     0.0003618   -0.0002703     0.1162298   -0.3015469 
   0.042160530     0.1400093   -0.8629726    -0.0000879   -0.0004749     0.0002230    0.0000145     0.1153324   -0.3022360 
   0.042260555     0.1353856   -0.8585460     0.0008129   -0.0002147     0.0006206   -0.0001766     0.1155704   -0.3019181 
   0.042360580     0.1358429   -0.8635069    -0.0005503   -0.0004756     0.0001960    0.0001590     0.1144432   -0.3017946 
   0.042460605     0.1352312   -0.8680121     0.0003469   -0.0006154     0.0007368   -0.0001153     0.1144478   -0.3003043 
   0.042560630     0.1231720   -0.8657763    -0.0001334   -0.0000609     0.0002902   -0.0001128     0.1147812   -0.3001931 
   0.042660655     0.1283399   -0.8589165     0.0002087   -0.0000805     0.0005145   -0.0002548     0.1138739   -0.2995813 
   0.042760680     0.1247555   -0.8559848     0.0011820   -0.0006264     0.0005796   -0.0002117     0.1134719   -0.2987129 
   0.042860705     0.1181352   -0.8700995     0.0000049   -0.0001345     0.0004571    0.0000290     0.1135903   -0.2988224 
   0.042960730     0.1157398   -0.8548130     0.0002349   -0.0000184     0.0004122   -0.0000592     0.1129238   -0.2983329 
   0.043060755     0.1136605   -0.8659838     0.0003630   -0.0004076     0.0004946   -0.0002185     0.1121557   -0.2981628 
   0.043160780     0.1180021   -0.8605757     0.0014609   -0.0013365     0.0003463   -0.0001474     0.1118053   -0.2977768 
   0.043260805     0.1067546   -0.8675739     0.0004205   -0.0003937     0.0003768   -0.0003598     0.1120668   -0.2963881 
   0.043360830     0.1163759   -0.8626814    -0.0000668   -0.0001125     0.0007448   -0.0002185     0.1108848   -0.2966046 
   0.043460855     0.1103420   -0.8488702    -0.0001257    0.0004566     0.0004888   -0.0001779     0.1113025   -0.2954883 
   0.043560880     0.1098864   -0.8627701     0.0007504   -0.0004717     0.0004510    0.0000190     0.1105589   -0.2950723 
   0.043660905     0.1140470   -0.8656036     0.0009429    0.0002112     0.0002816    0.0000430     0.1097958   -0.2953559 
   0.043760930     0.1005678   -0.8660645     0.0004572   -0.0012080     0.0003739   -0.0001222     0.1090593   -0.2942239 
   0.043860955     0.1017066   -0.8610902     0.0009993   -0.0002887     0.0004605   -0.0001682     0.1086546   -0.2930492 
   0.043960980     0.0946503   -0.8629351     0.0009975   -0.0003923     0.0003433    0.0002588     0.1090378   -0.2932113 
   0.044061006     0.1038680   -0.8594291     0.0003809   -0.0007119     0.0003431    0.0000321     0.1090755   -0.2930608 
   0.044161031     0.0924296   -0.8628705    -0.0000263    0.0003136     0.0003441   -0.0001493     0.1088420   -0.2927898 
   0.044261056     0.0957436   -0.8607416     0.0004019   -0.0004398     0.0002905   -0.0000195     0.1075059   -0.2921709 
   0.044361081     0.0911218   -0.8578092    -0.0007875   -0.0002885     0.0004162    0.0000913     0.1072598   -0.2918038 
   0.044461106     0.0914270   -0.8601585     0.0002086   -0.0002327     0.0003927    0.0000458     0.1071696   -0.2907251 
   0.044561131     0.0871053   -0.8571643     0.0006855   -0.0002777     0.0002664   -0.0000872     0.1076122   -0.2907432 
   0.044661156     0.0771094   -0.8608426     0.0003579   -0.0006036     0.0002132   -0.0002144     0.1070960   -0.2916991 
   0.044761181     0.0854179   -0.8619348     0.0010935    0.0001210     0.0004853   -0.0002679     0.1064352   -0.2901701 
   0.044861206     0.0775320   -0.8659723     0.0014940   -0.0004788     0.0004921   -0.0001162     0.1066152   -0.2891910 
   0.044961231     0.0665900   -0.8603998     0.0009962    0.0002523     0.0001082   -0.0000766     0.1044640   -0.2887291 
   0.045061256     0.0715104   -0.8639697     0.0010854   -0.0001287     0.0004709   -0.0003519     0.1048330   -0.2880687 
   0.045161281     0.0685752   -0.8554831    -0.0001317    0.0000173     0.0005571   -0.0002214     0.1049741   -0.2876832 
   0.045261306     0.0643624   -0.8552316     0.0001356    0.0004999     0.0007060   -0.0000707     0.1046711   -0.2884791 
   0.045361331     0.0692115   -0.8634130     0.0006283   -0.0001647     0.0007730   -0.0000645     0.1032290   -0.2873224 
   0.045461356     0.0598475   -0.8697082     0.0014680   -0.0001155     0.0005509   -0.0001335     0.1036456   -0.2867000 
   0.045561381     0.0588382   -0.8639562     0.0009687   -0.0000639     0.0004430   -0.0000262     0.1037731   -0.2857380 
   0.045661406     0.0525474   -0.8580764     0.0001303   -0.0013242     0.0002371   -0.0002811     0.1029930   -0.2859615 
   0.045761431     0.0652754   -0.8624210     0.0005860    0.0006507     0.0002286   -0.0003231     0.1027392   -0.2854473 
   0.045861456     0.0505740   -0.8574417     0.0007770   -0.0002285     0.0003569   -0.0002769     0.1025825   -0.2854457 
   0.045961481     0.0473479   -0.8512363     0.0007512   -0.0000576     0.0003071   -0.0004396     0.1026435   -0.2839958 
   0.046061506     0.0421143   -0.8590932     0.0000486   -0.0001489     0.0004707   -0.0004169     0.1016657   -0.2844420 
   0.046161531     0.0362180   -0.8577468     0.0003692   -0.0004614     0.0003934    0.0000180     0.1017285   -0.2844651 
   0.046261556     0.0349494   -0.8550526     0.0001931    0.0002557    -0.0001254    0.0000499     0.1015334   -0.2834679 
   0.046361581     0.0369730   -0.8575366     0.0008776    0.0010545     0.0003654   -0.0000840     0.1005709   -0.2829877 
   0.046461606     0.0353315   -0.8571907     0.0000421   -0.0002182     0.0005117    0.0000237     0.1008304   -0.2816027 
   0.046561631     0.0309059   -0.8569662     0.0011832   -0.0006610     0.0003666   -0.0003771     0.1001041   -0.2816752 
   0.046661656     0.0270709   -0.8552002     0.0010903   -0.0013789     0.0004083   -0.0001600     0.0989757   -0.2812545 
   0.046761681     0.0248335   -0.8578231     0.0005381   -0.0003460     0.0006222    0.0000414     0.0990155   -0.2817053 
   0.046861706     0.0287258   -0.8567464     0.0002738   -0.0014082     0.0003169   -0.0003601     0.0991219   -0.2815364 
   0.046961731     0.0287760   -0.8523886     0.0005856   -0.0009223     0.0002450   -0.0003421     0.0994514   -0.2805110 
   0.047061756     0.0195635   -0.8561870    -0.0004964   -0.0014646     0.0004385    0.0001891     0.0982323   -0.2808315 
   0.047161781     0.0177135   -0.8626395     0.0011222   -0.0000711     0.0003910   -0.0003195     0.0984306   -0.2798170 
   0.047261806     0.0121977   -0.8539544     0.0000596   -0.0005953     0.0002509   -0.0001329     0.0987704   -0.2792327 
   0.047361831     0.0189560   -0.8615935     0.0008248   -0.0003973     0.0004722   -0.0004330     0.0971507   -0.2796920 
   0.047461856     0.0167943   -0.8499865     0.0012041   -0.0003685     0.0004435   -0.0002898     0.0973953   -0.2793170 
   0.047561881     0.0250108   -0.8571826    -0.0004853   -0.0005993     0.0003762   -0.0000793     0.0973783   -0.2783662 
   0.047661906     0.0150268   -0.8466425     0.0008091    0.0001063     0.0003082    0.0000588     0.0975602   -0.2779943 
   0.047761931     0.0013807   -0.8516461     0.0015712   -0.0001118     0.0004872    0.0000425     0.0970333   -0.2772411 
   0.047861956    -0.0007627   -0.8591122     0.0003390   -0.0000741     0.0003761    0.0000434     0.0963488   -0.2767314 
   0.047961981    -0.0050343   -0.8488433     0.0003305    0.0007279     0.0003639   -0.0000969     0.0963883   -0.2759533 
   0.048062006    -0.0014687   -0.8617075    -0.0002633    0.0009651     0.0009010   -0.0000863     0.0952096   -0.2761771 
   0.048162031    -0.0054416   -0.8496441    -0.0001452   -0.0001930     0.0004534   -0.0000355     0.0957632   -0.2746221 
   0.048262056    -0.0108801   -0.8530902     0.0004269   -0.0005370     0.0005264   -0.0003140     0.0956955   -0.2756985 
   0.048362081    -0.0068323   -0.8406900     0.0009994    0.0012843     0.0003389   -0.0000672     0.0954976   -0.2756089 
   0.048462106    -0.0100666   -0.8555297     0.0004620   -0.0002865     0.0002611   -0.0001665     0.0957538   -0.2737415 
   0.048562131    -0.0184892   -0.8498070     0.0001342   -0.0009703     0.0003234   -0.0001085     0.0950405   -0.2747965 
   0.048662156    -0.0130878   -0.8466042     0.0000379    0.0001851     0.0005363   -0.0002223     0.0943755   -0.2729607 
   0.048762181    -0.0220147   -0.8419098    -0.0000177   -0.0002298     0.0003234   -0.0004939     0.0942607   -0.2735608 
   0.048862206    -0.0209051   -0.8626316    -0.0007183   -0.0006013     0.0002245   -0.0001948     0.0929593   -0.2736641 
   0.048962231    -0.0155220   -0.8489084     0.0003169    0.0005839     0.0005188   -0.0002879     0.0929897   -0.2730375 
   0.049062256    -0.0232606   -0.8443600     0.0011083   -0.0002533     0.0006062   -0.0000623     0.0928012   -0.2729280 
   0.049162281    -0.0286786   -0.8461143     0.0004621    0.0002521     0.0003444   -0.0001569     0.0929683   -0.2714816 
   0.049262306    -0.0231405   -0.8507723     0.0000610    0.0004745     0.0004110   -0.0001147     0.0922202   -0.2722467 
   0.049362331    -0.0274045   -0.8544784     0.0000853    0.0003291     0.0003736   -0.0001841     0.0940702   -0.2711774 
   0.049462356    -0.0319434   -0.8406022     0.0014100   -0.0001770     0.0001316   -0.0002919     0.0910730   -0.2710955 
   0.049562381    -0.0468671   -0.8466687     0.0003130   -0.0005167     0.0002270   -0.0001049     0.0916156   -0.2706572 
   0.049662406    -0.0416828   -0.8529052     0.0002699   -0.0003646     0.0002791   -0.0002156     0.0918351   -0.2701682 
   0.049762431    -0.0502265   -0.8457575     0.0004522    0.0001811     0.0005103   -0.0003003     0.0913712   -0.2691864 
   0.049862456    -0.0472957   -0.8481674     0.0000000   -0.0004994     0.0005503   -0.0005120     0.0906011   -0.2694841 
   0.049962481    -0.0480402   -0.8532535     0.0010877   -0.0008480     0.0003804   -0.0000992     0.0905316   -0.2693749 
   0.050062506    -0.0436728   -0.8453008     0.0009905   -0.0006155     0.0004185   -0.0001670     0.0900001   -0.2690819 
   0.050162531    -0.0515459   -0.8429413     0.0006668   -0.0004058     0.0005552   -0.0000073     0.0903555   -0.2681856 
   0.050262556    -0.0453439   -0.8435193    -0.0005302   -0.0007131     0.0004651   -0.0002964     0.0891839   -0.2681087 
   0.050362581    -0.0656084   -0.8506659     0.0009587   -0.0003116     0.0007097   -0.0000600     0.0887117   -0.2679200 
   0.050462606    -0.0669235   -0.8371993    -0.0001383    0.0003630     0.0004402   -0.0006595     0.0900767   -0.2665077 
   0.050562631    -0.0629262   -0.8366310     0.0003090    0.0003491     0.0001882   -0.0000708     0.0886965   -0.2674789 
   0.050662656    -0.0666210   -0.8405709     0.0006963    0.0001723     0.0001769   -0.0004425     0.0888040   -0.2669577 
   0.050762681    -0.0744883   -0.8235982     0.0004002   -0.0010880     0.0001304   -0.0002916     0.0888179   -0.2668875 
   0.050862706    -0.0649970   -0.8473329     0.0001123   -0.0004544     0.0004887   -0.0004020     0.0875895   -0.2662087 
   0.050962731    -0.0645794   -0.8367307     0.0016932   -0.0006029     0.0004711   -0.0003877     0.0881599   -0.2650894 
   0.051062756    -0.0704107   -0.8453561     0.0010062   -0.0004069     0.0001921   -0.0001928     0.0878795   -0.2657022 
   0.051162781    -0.0740301   -0.8448233     0.0006945   -0.0006403     0.0005656   -0.0003695     0.0877501   -0.2653637 
   0.051262806    -0.0869190   -0.8474557    -0.0001295   -0.0008243     0.0008169    0.0001804     0.0870006   -0.2647207 
   0.051362831    -0.0824858   -0.8358639     0.0005438   -0.0000672     0.0003546   -0.0005015     0.0871175   -0.2643999 
   0.051462856    -0.0830137   -0.8342496     0.0006089   -0.0005905     0.0005998   -0.0002728     0.0868558   -0.2632832 
   0.051562881    -0.0872292   -0.8363876     0.0001566   -0.0002245     0.0001699   -0.0001558     0.0865368   -0.2635513 
   0.051662906    -0.0781017   -0.8404815     0.0002736    0.0004142     0.0008803   -0.0001462     0.0862079   -0.2626672 
   0.051762931    -0.0858186   -0.8375784     0.0001097   -0.0006756     0.0003697   -0.0003251     0.0858799   -0.2634828 
   0.051862956    -0.0938390   -0.8349445     0.0016574    0.0000063     0.0006126   -0.0000488     0.0864230   -0.2624760 
   0.051962981    -0.0821236   -0.8332676     0.0006891   -0.0002848     0.0003518   -0.0001943     0.0863815   -0.2618964 
   0.052063007    -0.0851722   -0.8387325    -0.0002193   -0.0000379     0.0005306   -0.0001578     0.0855239   -0.2618654 
   0.052163032    -0.0899966   -0.8362893     0.0002594    0.0000880     0.0005642   -0.0002827     0.0847732   -0.2614021 
   0.052263057    -0.1060121   -0.8323405     0.0001169    0.0009874     0.0005850   -0.0001555     0.0849145   -0.2605003 
   0.052363082    -0.0975991   -0.8344972    -0.0003484    0.0001603     0.0006172   -0.0002471     0.0848006   -0.2613617 
   0.052463107    -0.1028912   -0.8377064     0.0015263    0.0002575     0.0004555   -0.0004836     0.0847393   -0.2597508 
   0.052563132    -0.0960721   -0.8280698     0.0006693   -0.0007638     0.0005573   -0.0003016     0.0847556   -0.2599119 
   0.052663157    -0.1009318   -0.8226203     0.0003383   -0.0008797     0.0003448   -0.0003214     0.0838700   -0.2596763 
   0.052763182    -0.0978208   -0.8264723    -0.0000927   -0.0001471     0.0000751   -0.0003602     0.0836933   -0.2592774 
   0.052863207    -0.1075753   -0.8370308     0.0000360    0.0002473     0.0005767    0.0001200     0.0843711   -0.2592618 
   0.052963232    -0.1020534   -0.8211848    -0.0007157   -0.0009932     0.0006025   -0.0003453     0.0833290   -0.2578524 
   0.053063257    -0.1174289   -0.8299877     0.0003870   -0.0002671     0.0004710   -0.0000131     0.0833058   -0.2586130 
   0.053163282    -0.1204811   -0.8206884     0.0006170   -0.0003948     0.0003787   -0.0001765     0.0833067   -0.2581309 
   0.053263307    -0.1284223   -0.8312550     0.0007564   -0.0007270     0.0002136    0.0000783     0.0831776   -0.2578025 
   0.053363332    -0.1244099   -0.8281162     0.0005883   -0.0001839     0.0001399   -0.0007873     0.0817012   -0.2565879 
   0.053463357    -0.1252360   -0.8238551    -0.0000082    0.0000909     0.0000286   -0.0005541     0.0823081   -0.2565289 
   0.053563382    -0.1180995   -0.8334951     0.0012685   -0.0005804     0.0004366   -0.0000680     0.0816038   -0.2571403 
   0.053663407    -0.1240859   -0.8177727     0.0006533   -0.0005575     0.0005423   -0.0001022     0.0817565   -0.2559344 
   0.053763432    -0.1245832   -0.8223306     0.0014586   -0.0011784     0.0003880   -0.0002892     0.0815703   -0.2564796 
   0.053863457    -0.1312993   -0.8244736     0.0002089   -0.0003536     0.0001212   -0.0002903     0.0806006   -0.2565239 
   0.053963482    -0.1329010   -0.8168433     0.0006496   -0.0013522     0.0006312   -0.0003773     0.0810525   -0.2552986 
   0.054063507    -0.1359692   -0.8232377     0.0007997   -0.0011980     0.0004249   -0.0001668     0.0812613   -0.2543021 
   0.054163532    -0.1407080   -0.8178059     0.0003144    0.0003255     0.0005512   -0.0003582     0.0811413   -0.2542224 
   0.054263557    -0.1569849   -0.8183675     0.0003037    0.0002746     0.0002635   -0.0004489     0.0799305   -0.2541440 
   0.054363582    -0.1519104   -0.8156178     0.0014156   -0.0003886     0.0005858   -0.0001416     0.0804524   -0.2538595 
   0.054463607    -0.1438434   -0.8112431     0.0002646   -0.0007404     0.0006227   -0.0008514     0.0802990   -0.2530938 
   0.054563632    -0.1451916   -0.8255979     0.0010701   -0.0006571     0.0001377   -0.0001892     0.0793489   -0.2535206 
   0.054663657    -0.1568292   -0.8135071     0.0001672   -0.0005236     0.0006444   -0.0004574     0.0801537   -0.2532022 
   0.054763682    -0.1459150   -0.8214905     0.0008810   -0.0001111     0.0004284   -0.0001878     0.0792681   -0.2523623 
   0.054863707    -0.1465265   -0.8269948     0.0006900    0.0010633     0.0001656   -0.0005348     0.0802314   -0.2527055 
   0.054963732    -0.1578863   -0.8103412     0.0003375   -0.0007255    -0.0001011   -0.0005383     0.0793022   -0.2521327 
   0.055063757    -0.1700915   -0.8191934     0.0006555   -0.0011865     0.0002347   -0.0002045     0.0790056   -0.2524374 
   0.055163782    -0.1629446   -0.8064603     0.0008936    0.0000127     0.0004545   -0.0003425     0.0783685   -0.2521944 
   0.055263807    -0.1611382   -0.8166289     0.0012303   -0.0000547     0.0004429   -0.0005327     0.0786455   -0.2512822 
   0.055363832    -0.1586190   -0.8198471     0.0004227   -0.0004786     0.0006891   -0.0004870     0.0783984   -0.2514451 
   0.055463857    -0.1670082   -0.8072821    -0.0007440   -0.0001579     0.0009327   -0.0002496     0.0778726   -0.2504623 
   0.055563882    -0.1692304   -0.7986466     0.0014694   -0.0006529    -0.0000303   -0.0001019     0.0774819   -0.2498497 
   0.055663907    -0.1599152   -0.8069133     0.0003819   -0.0005455     0.0006604   -0.0006168     0.0775856   -0.2503132 
   0.055763932    -0.1705551   -0.8137459     0.0004176   -0.0001820     0.0005616   -0.0004902     0.0786293   -0.2494767 
   0.055863957    -0.1756852   -0.8101224     0.0004816    0.0002899     0.0001795   -0.0000703     0.0770580   -0.2503398 
   0.055963982    -0.1780578   -0.8081143     0.0010011   -0.0002440     0.0001527   -0.0004466     0.0774283   -0.2497410 
   0.056064007    -0.1699564   -0.8104492     0.0007376    0.0000074     0.0003546   -0.0002778     0.0766500   -0.2490805 
   0.056164032    -0.1735623   -0.8077884     0.0003301   -0.0014005     0.0006606   -0.0004162     0.0772088   -0.2496616 
   0.056264057    -0.1762509   -0.8126194     0.0009310   -0.0017394     0.0004586   -0.0004794     0.0766445   -0.2478210 
   0.056364082    -0.1915705   -0.8081412     0.0005649   -0.0007162     0.0004522    0.0000109     0.0767938   -0.2488313 
   0.056464107    -0.1835430   -0.7991171     0.0005748   -0.0002890     0.0004168   -0.0003399     0.0752012   -0.2485454 
   0.056564132    -0.1862523   -0.7873766     0.0003352    0.0002756     0.0003728   -0.0005390     0.0755459   -0.2477915 
   0.056664157    -0.1933941   -0.7964715     0.0011631   -0.0008916     0.0003448   -0.0002937     0.0741349   -0.2470802 
   0.056764182    -0.1917965   -0.8052790     0.0007895    0.0003434     0.0001389   -0.0004766     0.0751561   -0.2470692 
   0.056864207    -0.1891917   -0.8044770     0.0004848   -0.0008172     0.0004307   -0.0002854     0.0745988   -0.2462403 
   0.056964232    -0.2011088   -0.8073851     0.0003130   -0.0002327     0.0004209   -0.0000147     0.0744965   -0.2467630 
   0.057064257    -0.1912309   -0.8014172     0.0000551   -0.0000566     0.0003375   -0.0002450     0.0741143   -0.2457528 
   0.057164282    -0.1991770   -0.8037865     0.0006335   -0.0005552     0.0003602   -0.0004588     0.0745965   -0.2464385 
   0.057264307    -0.2114932   -0.7926321     0.0008195   -0.0006205     0.0004793   -0.0007592     0.0743361   -0.2464197 
   0.057364332    -0.2039632   -0.7990511     0.0001993   -0.0006132     0.0006233   -0.0003244     0.0738823   -0.2454068 
   0.057464357    -0.2039367   -0.8077485     0.0004016   -0.0002634     0.0002758   -0.0005082     0.0739641   -0.2448764 
   0.057564382    -0.1989203   -0.7914488     0.0007189   -0.0007670     0.0004275   -0.0005871     0.0741745   -0.2452782 
   0.057664407    -0.2053926   -0.7826509     0.0003978   -0.0005472     0.0000034   -0.0003075     0.0736250   -0.2439536 
   0.057764432    -0.2046604   -0.7917296    -0.0002704   -0.0006565     0.0005119   -0.0001077     0.0738301   -0.2442207 
   0.057864457    -0.2131430   -0.8011417     0.0004592    0.0001090     0.0004710   -0.0004095     0.0736864   -0.2446371 
   0.057964482    -0.2210958   -0.7864205     0.0007956   -0.0002839     0.0005429   -0.0006002     0.0725655   -0.2435999 
   0.058064507    -0.2058137   -0.7904972     0.0008858   -0.0005003     0.0007132   -0.0005513     0.0729546   -0.2430651 
   0.058164532    -0.2175250   -0.7953656     0.0022782   -0.0004547     0.0002438   -0.0007005     0.0722684   -0.2424593 
   0.058264557    -0.2253826   -0.7908042     0.0002739   -0.0004167     0.0005120   -0.0001937     0.0720703   -0.2424514 
   0.058364582    -0.2190336   -0.7800226     0.0000583    0.0003767     0.0009704   -0.0004444     0.0726194   -0.2423505 
   0.058464607    -0.2364629   -0.7911975     0.0007341   -0.0008292     0.0004583   -0.0003646     0.0714533   -0.2423695 
   0.058564632    -0.2221427   -0.7934598     0.0004907   -0.0004323     0.0005844   -0.0000262     0.0718283   -0.2424539 
   0.058664657    -0.2322983   -0.7884556     0.0003543   -0.0001639     0.0003344   -0.0005446     0.0715961   -0.2404231 
   0.058764682    -0.2352299   -0.7802474     0.0005072   -0.0001968     0.0000407    0.0000688     0.0714108   -0.2408244 
   0.058864707    -0.2318826   -0.7760923     0.0008377   -0.0002170     0.0001622   -0.0006582     0.0717778   -0.2412823 
   0.058964732    -0.2237138   -0.7836942     0.0002001   -0.0002821     0.0003382   -0.0004519     0.0712191   -0.2411786 
   0.059064757    -0.2361627   -0.7844329    -0.0012444    0.0001853     0.0003614   -0.0006475     0.0711899   -0.2408245 
   0.059164782    -0.2257509   -0.7808501     0.0010122   -0.0014263     0.0003665   -0.0004895     0.0700136   -0.2407911 
   0.059264807    -0.2351211   -0.7832500     0.0008459   -0.0002649     0.0004821   -0.0006974     0.0706364   -0.2398618 
   0.059364832    -0.2460991   -0.7757582     0.0007698   -0.0011250     0.0003566   -0.0005390     0.0708384   -0.2410178 
   0.059464857    -0.2413604   -0.7763976     0.0004842    0.0000232     0.0007935   -0.0002978     0.0699316   -0.2395617 
   0.059564882    -0.2441803   -0.7855864     0.0000785   -0.0005727     0.0002779   -0.0005389     0.0703749   -0.2393875 
   0.059664907    -0.2489511   -0.7791593    -0.0004979   -0.0007119     0.0002430   -0.0000345     0.0690212   -0.2393562 
   0.059764932    -0.2501703   -0.7754002     0.0004550    0.0000798     0.0006512   -0.0003593     0.0692522   -0.2393022 
   0.059864957    -0.2391832   -0.7777881    -0.0001154   -0.0011925     0.0005284   -0.0008235     0.0696624   -0.2385634 
   0.059964982    -0.2629841   -0.7741402    -0.0000863   -0.0006198     0.0003917    0.0000625     0.0696254   -0.2380344 
   0.060065008    -0.2561350   -0.7758523    -0.0007038    0.0000261     0.0003151   -0.0003100     0.0688067   -0.2388566 
   0.060165033    -0.2639281   -0.7630475     0.0002302   -0.0005032     0.0002357   -0.0005954     0.0695515   -0.2377543 
   0.060265058    -0.2536345   -0.7692754     0.0007714   -0.0005107     0.0002812   -0.0003403     0.0681479   -0.2370759 
   0.060365083    -0.2655447   -0.7679472     0.0000258   -0.0003161     0.0004994   -0.0002286     0.0690506   -0.2367195 
   0.060465108    -0.2566695   -0.7729192    -0.0003372    0.0005156     0.0004047   -0.0004461     0.0696100   -0.2366746 
   0.060565133    -0.2696739   -0.7635908     0.0005144   -0.0002295     0.0001848   -0.0006120     0.0679570   -0.2369732 
   0.060665158    -0.2645366   -0.7723926     0.0002508   -0.0004610     0.0005198   -0.0005571     0.0687306   -0.2365804 
   0.060765183    -0.2672871   -0.7659629     0.0006476    0.0000668     0.0002012   -0.0003117     0.0681084   -0.2364249 
   0.060865208    -0.2562428   -0.7701096     0.0016877   -0.0010273     0.0002833   -0.0002127     0.0678480   -0.2348283 
   0.060965233    -0.2667692   -0.7594835     0.0008890   -0.0011879     0.0002651   -0.0002781     0.0669382   -0.2360370 
   0.061065258    -0.2729430   -0.7597134    -0.0001478   -0.0003748     0.0004107   -0.0005186     0.0681558   -0.2355821 
   0.061165283    -0.2687124   -0.7501898     0.0002752   -0.0004580     0.0004380   -0.0003016     0.0671909   -0.2345300 
   0.061265308    -0.2690360   -0.7557834    -0.0003101   -0.0008118     0.0001276   -0.0007329     0.0669843   -0.2348520 
   0.061365333    -0.2759726   -0.7636304     0.0002656   -0.0005190     0.0003888   -0.0002825     0.0665646   -0.2350117 
   0.061465358    -0.2802321   -0.7558222     0.0002507   -0.0004552     0.0004918   -0.0003278     0.0667499   -0.2349186 
   0.061565383    -0.2714452   -0.7566996    -0.0003707    0.0001173     0.0003469   -0.0003595     0.0671525   -0.2342384 
   0.061665408    -0.2770843   -0.7610812     0.0002983   -0.0004102     0.0001423   -0.0003191     0.0664601   -0.2337265 
   0.061765433    -0.2856230   -0.7593037     0.0010892   -0.0004848     0.0002403   -0.0004355     0.0656263   -0.2333742 
   0.061865458    -0.2844416   -0.7567837     0.0001366    0.0003434     0.0003696   -0.0009631     0.0659155   -0.2329714 
   0.061965483    -0.2895589   -0.7618889     0.0011854   -0.0005382     0.0001193   -0.0005262     0.0665861   -0.2328906 
   0.062065508    -0.2829698   -0.7505762     0.0003051   -0.0003496     0.0003543   -0.0002272     0.0660805   -0.2329451 
   0.062165533    -0.2842147   -0.7585443     0.0009462   -0.0005884     0.0002633   -0.0000962     0.0656353   -0.2320349 
   0.062265558    -0.2971907   -0.7540753     0.0002442   -0.0006500     0.0003530   -0.0004379     0.0650167   -0.2326768 
   0.062365583    -0.2985807   -0.7376254     0.0009415   -0.0007164     0.0006212   -0.0007137     0.0643898   -0.2321986 
   0.062465608    -0.2911252   -0.7490480     0.0008583   -0.0011120     0.0004206   -0.0004974     0.0650294   -0.2319251 
   0.062565633    -0.3108231   -0.7463700     0.0007003    0.0005368     0.0003120   -0.0007242     0.0642551   -0.2321809 
   0.062665658    -0.3024922   -0.7500631    -0.0002980   -0.0009593     0.0003005   -0.0004978     0.0638971   -0.2318121 
   0.062765683    -0.2971090   -0.7527710     0.0015061    0.0000606     0.0005002   -0.0005024     0.0645163   -0.2313077 
   0.062865708    -0.3040210   -0.7457322     0.0006873   -0.0009236     0.0003439   -0.0001450     0.0646266   -0.2318811 
   0.062965733    -0.2979543   -0.7446883    -0.0004620    0.0002522     0.0002127   -0.0001755     0.0640075   -0.2312056 
   0.063065758    -0.3201562   -0.7439741    -0.0001617   -0.0000829     0.0002812   -0.0006241     0.0643087   -0.2307162 
   0.063165783    -0.3038014   -0.7428390     0.0000411   -0.0006404     0.0007435   -0.0005131     0.0637280   -0.2307287 
   0.063265808    -0.3065935   -0.7403567     0.0000214   -0.0002415     0.0003439   -0.0008222     0.0635370   -0.2304413 
   0.063365833    -0.3189779   -0.7409242     0.0003823    0.0005754     0.0005424   -0.0008121     0.0635532   -0.2291093 
   0.063465858    -0.3085139   -0.7328920     0.0010216    0.0007672     0.0007762   -0.0002850     0.0637155   -0.2288856 
   0.063565883    -0.3172058   -0.7386189     0.0007252   -0.0004735     0.0003004   -0.0005390     0.0637639   -0.2294659 
   0.063665908    -0.3184826   -0.7388352     0.0004044   -0.0002129     0.0002834   -0.0004220     0.0633063   -0.2290920 
   0.063765933    -0.3151829   -0.7375470     0.0014509   -0.0001769     0.0007549   -0.0004148     0.0625782   -0.2297403 
   0.063865958    -0.3278278   -0.7358052     0.0001612   -0.0005180     0.0003097   -0.0005223     0.0634716   -0.2288775 
   0.063965983    -0.3240719   -0.7402766     0.0003609   -0.0001005     0.0004885   -0.0003038     0.0633920   -0.2280851 
   0.064066008    -0.3195741   -0.7258459    -0.0004577   -0.0002706     0.0003344   -0.0004941     0.0627778   -0.2281795 
   0.064166033    -0.3254825   -0.7315978    -0.0002506    0.0000482     0.0004617   -0.0004891     0.0619643   -0.2278360 
   0.064266058    -0.3273165   -0.7300214     0.0010266    0.0003423     0.0004814   -0.0002924     0.0615145   -0.2283537 
   0.064366083    -0.3173786   -0.7332233    -0.0001275   -0.0008129     0.0005779   -0.0001755     0.0627624   -0.2273787 
   0.064466108    -0.3313434   -0.7352437     0.0001527   -0.0006345     0.0000194   -0.0003722     0.0616853   -0.2269616 
   0.064566133    -0.3356240   -0.7378302     0.0002393   -0.0000422     0.0003651   -0.0003650     0.0622402   -0.2262033 
   0.064666158    -0.3348347   -0.7293360     0.0012647   -0.0007004     0.0000885   -0.0004994     0.0613269   -0.2272956 
   0.064766183    -0.3301987   -0.7152468     0.0000273   -0.0009632     0.0002475   -0.0004315     0.0615972   -0.2267501 
   0.064866208    -0.3423389   -0.7311669     0.0004755   -0.0002298     0.0003575   -0.0002203     0.0614582   -0.2273266 
   0.064966233    -0.3438351   -0.7222664     0.0003713   -0.0000044     0.0009221   -0.0006751     0.0611170   -0.2263230 
   0.065066258    -0.3370740   -0.7224393     0.0004781   -0.0003672     0.0003221   -0.0004317     0.0610176   -0.2264316 
   0.065166283    -0.3443483   -0.7283360     0.0003593   -0.0007057     0.0003868   -0.0007882     0.0609261   -0.2263462 
   0.065266308    -0.3400732   -0.7229038     0.0002114   -0.0008701     0.0005125   -0.0003683     0.0611923   -0.2260149 
   0.065366333    -0.3401732   -0.7229800    -0.0001015   -0.0010281     0.0005050   -0.0004952     0.0608732   -0.2257795 
   0.065466358    -0.3435386   -0.7224681     0.0002929   -0.0006828     0.0000536   -0.0005858     0.0601340   -0.2254279 
   0.065566383    -0.3496883   -0.7154577     0.0006635   -0.0001690     0.0001508   -0.0001893     0.0594890   -0.2251705 
   0.065666408    -0.3434388   -0.7036411     0.0001788   -0.0001466     0.0005597   -0.0006501     0.0594322   -0.2248304 
   0.065766433    -0.3319853   -0.7154721     0.0000589   -0.0007625     0.0001191   -0.0006527     0.0594600   -0.2244953 
   0.065866458    -0.3563118   -0.7178843     0.0002499   -0.0004841     0.0002201   -0.0003608     0.0597885   -0.2250359 
   0.065966483    -0.3497513   -0.7127230     0.0006849   -0.0001182     0.0005875   -0.0006497     0.0602578   -0.2244729 
   0.066066508    -0.3482316   -0.7138287     0.0009206   -0.0008888     0.0002948   -0.0006298     0.0590312   -0.2242654 
   0.066166533    -0.3524128   -0.7094294     0.0004408   -0.0006165     0.0004342   -0.0004886     0.0584759   -0.2239019 
   0.066266558    -0.3627258   -0.7155286     0.0013810    0.0002633     0.0003820   -0.0005057     0.0596737   -0.2229322 
   0.066366583    -0.3517986   -0.7132162     0.0001330   -0.0008370     0.0006250   -0.0003206     0.0592305   -0.2234387 
   0.066466608    -0.3553126   -0.7085552     0.0012210   -0.0005849     0.0002114   -0.0001334     0.0586368   -0.2242738 
   0.066566633    -0.3586709   -0.7028740     0.0000655    0.0002774     0.0003615   -0.0002893     0.0582428   -0.2232974 
   0.066666658    -0.3641644   -0.7060460     0.0001514   -0.0002575     0.0001073   -0.0004640     0.0593810   -0.2229600 
   0.066766683    -0.3688463   -0.7090948    -0.0002961    0.0003330     0.0002950   -0.0007318     0.0588121   -0.2228540 
   0.066866708    -0.3628626   -0.7056996     0.0002373   -0.0008957     0.0004611   -0.0000541     0.0592132   -0.2224057 
   0.066966733    -0.3733758   -0.7071186     0.0000017   -0.0004130     0.0002186   -0.0005247     0.0588209   -0.2221328 
   0.067066758    -0.3728218   -0.7118917     0.0004736   -0.0003712     0.0003213   -0.0004935     0.0582587   -0.2214566 
   0.067166783    -0.3695855   -0.7057905     0.0009637   -0.0006498     0.0003810   -0.0003620     0.0578410   -0.2215855 
   0.067266808    -0.3737814   -0.7091735     0.0011505   -0.0010877     0.0001068   -0.0004932     0.0579634   -0.2214971 
   0.067366833    -0.3676185   -0.7017151     0.0000141   -0.0004642     0.0003524   -0.0002332     0.0580444   -0.2209473 
   0.067466858    -0.3789864   -0.7002932     0.0007159   -0.0007233     0.0006157   -0.0004259     0.0575970   -0.2212233 
   0.067566883    -0.3802927   -0.6942308     0.0004649   -0.0000728     0.0001907   -0.0003011     0.0581069   -0.2201909 
   0.067666908    -0.3765688   -0.6936536    -0.0003247   -0.0003850     0.0006308   -0.0006121     0.0577048   -0.2215711 
   0.067766933    -0.3856131   -0.6896558    -0.0000190   -0.0010178     0.0004195   -0.0003232     0.0578392   -0.2211380 
   0.067866958    -0.3753433   -0.6917294     0.0006625   -0.0003619    -0.0000758   -0.0008394     0.0576329   -0.2200377 
   0.067966983    -0.3795217   -0.6981135     0.0002665   -0.0001398     0.0001890   -0.0004569     0.0565884   -0.2198145 
   0.068067009    -0.3862267   -0.6870575     0.0006274    0.0000737     0.0005461   -0.0005543     0.0564234   -0.2193689 
   0.068167034    -0.3862718   -0.6963883     0.0006888   -0.0003296     0.0000710   -0.0007833     0.0564759   -0.2203273 
   0.068267059    -0.3815787   -0.6885276     0.0004826   -0.0005654     0.0005631   -0.0005307     0.0570721   -0.2197405 
   0.068367084    -0.3933132   -0.6830923     0.0007418   -0.0007981     0.0004778   -0.0004664     0.0564132   -0.2193821 
   0.068467109    -0.3917463   -0.6827878     0.0002507   -0.0000561     0.0001151   -0.0005372     0.0557331   -0.2190269 
   0.068567134    -0.3924054   -0.6905697     0.0003990    0.0002469     0.0000301   -0.0003629     0.0558347   -0.2179034 
   0.068667159    -0.3959729   -0.6814390    -0.0004131   -0.0008437     0.0005580   -0.0006874     0.0569991   -0.2186669 
   0.068767184    -0.4012211   -0.6891519     0.0011102   -0.0010786     0.0000930   -0.0004721     0.0570409   -0.2183923 
   0.068867209    -0.3985232   -0.6762649    -0.0002245   -0.0002586     0.0003630   -0.0001853     0.0561597   -0.2192698 
   0.068967234    -0.3979114   -0.6868446     0.0002167   -0.0005762     0.0003111   -0.0007692     0.0557059   -0.2185078 
   0.069067259    -0.3942897   -0.6753134     0.0008132   -0.0004217     0.0004782   -0.0006297     0.0554021   -0.2179843 
   0.069167284    -0.4015206   -0.6818386     0.0007318   -0.0005232     0.0002706   -0.0006549     0.0554806   -0.2175786 
   0.069267309    -0.4053780   -0.6787510     0.0012538    0.0001846     0.0004223   -0.0005693     0.0550024   -0.2181570 
   0.069367334    -0.4022906   -0.6783239     0.0000558    0.0001953     0.0004607   -0.0002987     0.0554906   -0.2172538 
   0.069467359    -0.4083877   -0.6719047     0.0007794   -0.0008636     0.0003210   -0.0002335     0.0548957   -0.2175152 
   0.069567384    -0.4108241   -0.6657578    -0.0000627   -0.0001722     0.0007211   -0.0002437     0.0544733   -0.2174141 
   0.069667409    -0.4048204   -0.6618870     0.0004244   -0.0007377     0.0002302   -0.0005564     0.0538940   -0.2167534 
   0.069767434    -0.4023556   -0.6741924     0.0001450   -0.0005938     0.0003075   -0.0003067     0.0549720   -0.2159306 
   0.069867459    -0.4111839   -0.6659465     0.0005908   -0.0004172     0.0001401   -0.0007983     0.0533140   -0.2168660 
   0.069967484    -0.4182645   -0.6767641     0.0004382   -0.0004167     0.0001544   -0.0007762     0.0534149   -0.2167535 
   0.070067509    -0.4061656   -0.6630269     0.0001621    0.0007327     0.0004240   -0.0004558     0.0543981   -0.2164375 
   0.070167534    -0.4164249   -0.6743240     0.0002296   -0.0004564     0.0005234   -0.0004974     0.0535880   -0.2154268 
   0.070267559    -0.4187273   -0.6619580     0.0000027   -0.0003996     0.0003878   -0.0005146     0.0539969   -0.2154722 
   0.070367584    -0.4132811   -0.6649725     0.0004786   -0.0009846     0.0005177   -0.0005309     0.0536956   -0.2149322 
   0.070467609    -0.4164214   -0.6589473     0.0005951   -0.0005910     0.0003033   -0.0005799     0.0533827   -0.2147076 
   0.070567634    -0.4180891   -0.6601866     0.0004052   -0.0011471     0.0000647   -0.0007711     0.0533541   -0.2156589 
   0.070667659    -0.4186087   -0.6574789     0.0006639   -0.0008430     0.0000857   -0.0005425     0.0534910   -0.2145952 
   0.070767684    -0.4261732   -0.6593145     0.0003480   -0.0007905     0.0001443   -0.0004225     0.0524510   -0.2153487 
   0.070867709    -0.4277547   -0.6568621     0.0010765   -0.0001550     0.0003331   -0.0005100     0.0532298   -0.2152431 
   0.070967734    -0.4280931   -0.6611297    -0.0006105   -0.0008476     0.0003955   -0.0003065     0.0530724   -0.2151623 
   0.071067759    -0.4273157   -0.6523654     0.0002915   -0.0006311     0.0003992   -0.0005350     0.0531302   -0.2140871 
   0.071167784    -0.4286468   -0.6579745     0.0004452   -0.0004884     0.0003694   -0.0007368     0.0528058   -0.2143072 
   0.071267809    -0.4289217   -0.6624319    -0.0001438   -0.0006518     0.0002395   -0.0004458     0.0519073   -0.2135978 
   0.071367834    -0.4337246   -0.6567011    -0.0002010   -0.0007219     0.0006038   -0.0005933     0.0522829   -0.2127340 
   0.071467859    -0.4347658   -0.6538646     0.0002293   -0.0006416     0.0002108   -0.0005090     0.0528693   -0.2127336 
   0.071567884    -0.4287876   -0.6368142     0.0000283   -0.0001882     0.0002706   -0.0003108     0.0523133   -0.2132710 
   0.071667909    -0.4383960   -0.6486096    -0.0001071   -0.0004722     0.0002180   -0.0001567     0.0520866   -0.2130090 
   0.071767934    -0.4317483   -0.6464946     0.0005068   -0.0005511     0.0003961   -0.0004595     0.0515029   -0.2133652 
   0.071867959    -0.4318288   -0.6409271     0.0004359   -0.0009230     0.0001189   -0.0003990     0.0514544   -0.2129324 
   0.071967984    -0.4347347   -0.6418670    -0.0000043   -0.0012349     0.0001843   -0.0006775     0.0523336   -0.2125634 
   0.072068009    -0.4400701   -0.6452028    -0.0001481   -0.0004337    -0.0000839   -0.0004667     0.0517061   -0.2116769 
   0.072168034    -0.4357539   -0.6400760    -0.0001424   -0.0001506     0.0005032   -0.0004499     0.0517081   -0.2125805 
   0.072268059    -0.4372343   -0.6386322     0.0005785   -0.0004014     0.0001739   -0.0005746     0.0505198   -0.2114926 
   0.072368084    -0.4442870   -0.6398075    -0.0003254   -0.0008409     0.0003348   -0.0004510     0.0511068   -0.2123509 
   0.072468109    -0.4402903   -0.6433377     0.0010346   -0.0007183     0.0005109   -0.0005706     0.0516211   -0.2126515 
   0.072568134    -0.4424235   -0.6394666     0.0000897    0.0000458     0.0003370   -0.0004280     0.0514116   -0.2106234 
   0.072668159    -0.4460133   -0.6448916     0.0002950   -0.0006677     0.0000488   -0.0008626     0.0502697   -0.2108992 
   0.072768184    -0.4497355   -0.6310294    -0.0003391   -0.0011919    -0.0000013   -0.0007897     0.0503272   -0.2118825 
   0.072868209    -0.4541637   -0.6294829     0.0005411    0.0002904     0.0003677   -0.0005534     0.0505373   -0.2111119 
   0.072968234    -0.4537863   -0.6378677     0.0001261   -0.0000893     0.0001115   -0.0005145     0.0517686   -0.2114235 
   0.073068259    -0.4489997   -0.6281421    -0.0000638   -0.0005797     0.0002907   -0.0003951     0.0502800   -0.2113128 
   0.073168284    -0.4560656   -0.6290286     0.0000077   -0.0004062     0.0004794   -0.0002678     0.0494410   -0.2099924 
   0.073268309    -0.4517194   -0.6304672     0.0004332   -0.0004916     0.0001733   -0.0005501     0.0503024   -0.2106508 
   0.073368334    -0.4496194   -0.6298096     0.0008234   -0.0007736     0.0003719   -0.0006268     0.0503071   -0.2105440 
   0.073468359    -0.4535845   -0.6249000     0.0003372   -0.0002130     0.0001909   -0.0006263     0.0496586   -0.2094843 
   0.073568384    -0.4616527   -0.6263662     0.0004526   -0.0012827     0.0001507   -0.0005096     0.0493070   -0.2102061 
   0.073668409    -0.4526544   -0.6231399     0.0005443   -0.0007610     0.0004772   -0.0003254     0.0496428   -0.2091165 
   0.073768434    -0.4629133   -0.6241072     0.0000722   -0.0005484     0.0004658   -0.0007105     0.0498190   -0.2094317 
   0.073868459    -0.4667214   -0.6260002     0.0004218   -0.0009004     0.0003605   -0.0007491     0.0489194   -0.2087607 
   0.073968484    -0.4646639   -0.6225098     0.0001838   -0.0007414     0.0001727   -0.0005480     0.0494843   -0.2093425 
   0.074068509    -0.4598740   -0.6173368     0.0001210   -0.0009946     0.0003421   -0.0006663     0.0486547   -0.2089934 
   0.074168534    -0.4594051   -0.6167762     0.0007958   -0.0006064     0.0001481   -0.0005599     0.0491651   -0.2085941 
   0.074268559    -0.4677893   -0.6194192     0.0007997   -0.0013151     0.0002856   -0.0005451     0.0479322   -0.2085147 
   0.074368584    -0.4696044   -0.6223024    -0.0004989   -0.0009878     0.0004794   -0.0007139     0.0481029   -0.2091817 
   0.074468609    -0.4664624   -0.6159091    -0.0002031   -0.0008326     0.0002061   -0.0003818     0.0493280   -0.2077395 
   0.074568634    -0.4733500   -0.6113324     0.0001728   -0.0009449     0.0001816   -0.0008231     0.0483449   -0.2077643 
   0.074668659    -0.4718450   -0.6111913     0.0002575   -0.0004583     0.0002078   -0.0007054     0.0472538   -0.2082282 
   0.074768684    -0.4742364   -0.6119073     0.0006183   -0.0009285     0.0001795   -0.0003654     0.0484435   -0.2089939 
   0.074868709    -0.4756186   -0.6107051    -0.0000758   -0.0002888     0.0003880   -0.0005595     0.0485273   -0.2079352 
   0.074968734    -0.4749620   -0.6112232     0.0004861   -0.0008661     0.0002052   -0.0005833     0.0486660   -0.2078127 
   0.075068759    -0.4762392   -0.6048385     0.0002614   -0.0005074     0.0003217   -0.0005138     0.0467328   -0.2070140 
   0.075168784    -0.4754740   -0.6060541     0.0006299   -0.0006983     0.0004958   -0.0005978     0.0478495   -0.2070827 
   0.075268809    -0.4739336   -0.6049076     0.0006379   -0.0003917     0.0004542   -0.0003983     0.0475992   -0.2068390 
   0.075368834    -0.4715946   -0.6022980     0.0002831   -0.0005163     0.0003480   -0.0004738     0.0474453   -0.2074111 
   0.075468859    -0.4802844   -0.6035278     0.0002774   -0.0000485     0.0001704   -0.0004571     0.0478249   -0.2071624 
   0.075568884    -0.4768916   -0.6045323    -0.0002149   -0.0006028     0.0003859   -0.0006378     0.0480999   -0.2067864 
   0.075668909    -0.4861212   -0.5981272     0.0003870   -0.0007396     0.0000555   -0.0004566     0.0468869   -0.2065327 
   0.075768934    -0.4803247   -0.5997028    -0.0000134   -0.0006877     0.0003457   -0.0004844     0.0469967   -0.2058734 
   0.075868959    -0.4814041   -0.5958635    -0.0003009   -0.0004203     0.0004061   -0.0006353     0.0470536   -0.2062629 
   0.075968984    -0.4855831   -0.5958577     0.0002141   -0.0000136     0.0002451   -0.0005967     0.0465014   -0.2066679 
   0.076069010    -0.4874387   -0.5955018     0.0000861   -0.0007935     0.0004113   -0.0007207     0.0461952   -0.2066205 
   0.076169035    -0.4926105   -0.5971478     0.0009008   -0.0008886     0.0003652   -0.0005745     0.0459637   -0.2061141 
   0.076269060    -0.4914903   -0.5918726     0.0003338   -0.0006309     0.0002791   -0.0006310     0.0460952   -0.2057347 
   0.076369085    -0.4897859   -0.5955991     0.0006548   -0.0009729     0.0003525   -0.0005029     0.0464199   -0.2058626 
   0.076469110    -0.4912885   -0.5829750     0.0002796   -0.0008994     0.0002595   -0.0003979     0.0461865   -0.2062445 
   0.076569135    -0.4954648   -0.5865375     0.0003877   -0.0006961     0.0001135   -0.0004930     0.0460366   -0.2049615 
   0.076669160    -0.4963731   -0.5863303     0.0003272   -0.0005044     0.0000819   -0.0003222     0.0457846   -0.2052351 
   0.076769185    -0.4945973   -0.5906575     0.0007295   -0.0009950     0.0002016   -0.0005427     0.0461936   -0.2045867 
   0.076869210    -0.5008882   -0.5872438     0.0006183   -0.0005945     0.0001935   -0.0006371     0.0459130   -0.2040138 
   0.076969235    -0.4969524   -0.5847420    -0.0000096   -0.0011397     0.0001553   -0.0007133     0.0458802   -0.2042306 
   0.077069260    -0.4956651   -0.5798436     0.0007930   -0.0002811     0.0001169   -0.0007362     0.0450336   -0.2044822 
   0.077169285    -0.4985427   -0.5855505     0.0001666    0.0000475     0.0001781   -0.0006627     0.0450601   -0.2050813 
   0.077269310    -0.4979475   -0.5847751    -0.0000356   -0.0007698     0.0003233   -0.0006465     0.0445424   -0.2045796 
   0.077369335    -0.5017040   -0.5807183    -0.0003066   -0.0005688     0.0003392   -0.0005886     0.0456571   -0.2041995 
   0.077469360    -0.5032828   -0.5789721    -0.0002719   -0.0004767     0.0000474   -0.0006374     0.0444725   -0.2034796 
   0.077569385    -0.5029846   -0.5786417    -0.0000578   -0.0006681     0.0002391   -0.0006536     0.0453694   -0.2035099 
   0.077669410    -0.5077087   -0.5756397     0.0002463   -0.0008583     0.0002084   -0.0007335     0.0449598   -0.2043255 
   0.077769435    -0.5075127   -0.5742513    -0.0001946   -0.0008849     0.0002249   -0.0006351     0.0449049   -0.2029118 
   0.077869460    -0.5095829   -0.5662875     0.0001714   -0.0007873     0.0003935   -0.0006847     0.0445710   -0.2044140 
   0.077969485    -0.5108864   -0.5717461     0.0002821   -0.0007368     0.0001641   -0.0008404     0.0449762   -0.2023153 
   0.078069510    -0.5094268   -0.5656317     0.0000240   -0.0007282     0.0002080   -0.0007261     0.0443172   -0.2029609 
   0.078169535    -0.5117057   -0.5675513     0.0003960   -0.0009239     0.0002451   -0.0003547     0.0436988   -0.2032254 
   0.078269560    -0.5081791   -0.5667683     0.0002072   -0.0003717     0.0004677   -0.0007384     0.0441997   -0.2027308 
   0.078369585    -0.5153549   -0.5629346    -0.0002305   -0.0006554     0.0003026   -0.0004134     0.0440594   -0.2030355 
   0.078469610    -0.5103341   -0.5633025     0.0004568   -0.0003543     0.0002987   -0.0008238     0.0435556   -0.2028763 
   0.078569635    -0.5088053   -0.5618342     0.0000482   -0.0003784     0.0002606   -0.0006217     0.0433908   -0.2024866 
   0.078669660    -0.5099436   -0.5584017     0.0000446   -0.0007150     0.0002261   -0.0006171     0.0438918   -0.2021134 
   0.078769685    -0.5136030   -0.5591856     0.0002679   -0.0008692     0.0001395   -0.0005556     0.0439322   -0.2015491 
   0.078869710    -0.5222862   -0.5623588     0.0002207   -0.0006315     0.0001442   -0.0006015     0.0434461   -0.2018070 
   0.078969735    -0.5158983   -0.5608066     0.0003013   -0.0010989     0.0001325   -0.0003481     0.0434290   -0.2016867 
   0.079069760    -0.5162065   -0.5560901     0.0004411   -0.0007727     0.0004860   -0.0007142     0.0423597   -0.2020593 
   0.079169785    -0.5241633   -0.5557086     0.0004370    0.0000168     0.0001906   -0.0007565     0.0430101   -0.2019607 
   0.079269810    -0.5198271   -0.5583318    -0.0001112   -0.0006565     0.0001258   -0.0006036     0.0427743   -0.2021043 
   0.079369835    -0.5219761   -0.5477716     0.0001264   -0.0005018     0.0002959   -0.0005061     0.0429815   -0.2005576 
   0.079469860    -0.5248731   -0.5519841    -0.0004280   -0.0004425     0.0002795   -0.0006818     0.0425370   -0.2010505 
   0.079569885    -0.5243655   -0.5525287     0.0002531   -0.0004421     0.0002670   -0.0005155     0.0429012   -0.2001878 
   0.079669910    -0.5263661   -0.5544189    -0.0000150   -0.0008264    -0.0000101   -0.0008651     0.0428157   -0.2015930 
   0.079769935    -0.5276352   -0.5489999     0.0001735   -0.0002233     0.0003311   -0.0005165     0.0431624   -0.2010768 
   0.079869960    -0.5269986   -0.5468698     0.0002331   -0.0005538     0.0001863   -0.0006536     0.0427300   -0.2013453 
   0.079969985    -0.5303631   -0.5435163     0.0000725   -0.0009226     0.0001736   -0.0008523     0.0435238   -0.2009018 
   0.080070010    -0.5281375   -0.5442176    -0.0001078   -0.0008901     0.0002197   -0.0005864     0.0420672   -0.2007550 
   0.080170035    -0.5273359   -0.5469603     0.0002708   -0.0006287     0.0002110   -0.0004276     0.0421943   -0.2002281 
   0.080270060    -0.5292092   -0.5447524     0.0004428   -0.0006400    -0.0000693   -0.0007228     0.0412928   -0.2000473 
   0.080370085    -0.5323987   -0.5415533     0.0002049   -0.0005418     0.0002723   -0.0006322     0.0408544   -0.2003172 
   0.080470110    -0.5350730   -0.5389988     0.0001838   -0.0003981     0.0002813   -0.0008896     0.0419958   -0.1998594 
   0.080570135    -0.5348545   -0.5368086     0.0004664   -0.0005398     0.0001161   -0.0005943     0.0420406   -0.1986810 
   0.080670160    -0.5376144   -0.5356278     0.0004656   -0.0008457     0.0000655   -0.0005914     0.0418244   -0.1997017 
   0.080770185    -0.5344480   -0.5355323     0.0004526   -0.0006179     0.0001388   -0.0003993     0.0420108   -0.1995453 
   0.080870210    -0.5376527   -0.5311418     0.0000960   -0.0005463     0.0002294   -0.0006578     0.0408871   -0.1987947 
   0.080970235    -0.5406744   -0.5303290     0.0003140   -0.0004633     0.0001903   -0.0006653     0.0407966   -0.1991693 
   0.081070260    -0.5379512   -0.5351194    -0.0001231   -0.0006746     0.0002340   -0.0005995     0.0416559   -0.1995765 
   0.081170285    -0.5404698   -0.5298446     0.0000680   -0.0006714     0.0002221   -0.0005972     0.0417034   -0.1991630 
   0.081270310    -0.5427205   -0.5266318     0.0005771   -0.0009521     0.0001202   -0.0006577     0.0407854   -0.1993421 
   0.081370335    -0.5408401   -0.5311598     0.0001087   -0.0005294     0.0001643   -0.0006646     0.0398488   -0.1987599 
   0.081470360    -0.5464103   -0.5258774     0.0000242   -0.0009328     0.0000680   -0.0007424     0.0412134   -0.1986361 
   0.081570385    -0.5433660   -0.5272700    -0.0000988   -0.0005353     0.0001472   -0.0004706     0.0410877   -0.1975967 
   0.081670410    -0.5455329   -0.5267301     0.0000924   -0.0004398     0.0003388   -0.0006790     0.0401918   -0.1971067 
   0.081770435    -0.5474077   -0.5270369     0.0000457   -0.0004116     0.0002945   -0.0006103     0.0403521   -0.1973065 
   0.081870460    -0.5442575   -0.5220017     0.0000840   -0.0007609     0.0000446   -0.0006751     0.0395330   -0.1981561 
   0.081970485    -0.5477659   -0.5247651     0.0000746   -0.0005201     0.0002374   -0.0007577     0.0400155   -0.1978734 
   0.082070510    -0.5468577   -0.5187239     0.0003009   -0.0004810     0.0000763   -0.0005342     0.0407162   -0.1982330 
   0.082170535    -0.5521579   -0.5158584    -0.0000426   -0.0008285     0.0000694   -0.0005910     0.0395742   -0.1973414 
   0.082270560    -0.5519125   -0.5130614     0.0002356   -0.0007799     0.0001768   -0.0006707     0.0406193   -0.1972418 
   0.082370585    -0.5547017   -0.5130694     0.0002484   -0.0007772     0.0001598   -0.0009384     0.0396139   -0.1974850 
   0.082470610    -0.5523538   -0.5134592     0.0002931   -0.0008575     0.0000157   -0.0006936     0.0399624   -0.1962913 
   0.082570635    -0.5548575   -0.5140534     0.0000102   -0.0006344     0.0001893   -0.0005661     0.0393713   -0.1969889 
   0.082670660    -0.5512015   -0.5092832     0.0002843   -0.0003529     0.0000877   -0.0006726     0.0392038   -0.1968407 
   0.082770685    -0.5552152   -0.5107020    -0.0000173   -0.0005896     0.0000846   -0.0006139     0.0394976   -0.1964659 
   0.082870710    -0.5563826   -0.5057169     0.0003124   -0.0008829     0.0003620   -0.0006041     0.0390043   -0.1958831 
   0.082970735    -0.5572248   -0.5068781     0.0002716   -0.0008897     0.0001766   -0.0007546     0.0405851   -0.1964482 
   0.083070760    -0.5587006   -0.5064311     0.0001204   -0.0006064     0.0001065   -0.0006061     0.0384271   -0.1960303 
   0.083170785    -0.5568694   -0.5080135    -0.0002102   -0.0005863     0.0002495   -0.0007829     0.0387224   -0.1954393 
   0.083270810    -0.5581733   -0.5013179     0.0002876   -0.0006114     0.0001280   -0.0005842     0.0380853   -0.1953050 
   0.083370835    -0.5590118   -0.5047665    -0.0001704   -0.0009033     0.0001532   -0.0007105     0.0394873   -0.1958087 
   0.083470860    -0.5612744   -0.5002264     0.0005039   -0.0009149     0.0002185   -0.0006605     0.0378488   -0.1956793 
   0.083570885    -0.5605057   -0.5010974     0.0001358   -0.0008542     0.0001440   -0.0004956     0.0381606   -0.1955699 
   0.083670910    -0.5626026   -0.5023634     0.0002676   -0.0004876     0.0001797   -0.0005408     0.0383116   -0.1952577 
   0.083770935    -0.5591418   -0.4974452     0.0003586   -0.0007166     0.0001387   -0.0007676     0.0382848   -0.1953377 
   0.083870960    -0.5643747   -0.4938639     0.0001683   -0.0003876     0.0001366   -0.0006418     0.0384502   -0.1947894 
   0.083970985    -0.5639651   -0.4931816     0.0001876   -0.0000944     0.0003380   -0.0005905     0.0378254   -0.1955665 
   0.084071011    -0.5643145   -0.4945767    -0.0000121   -0.0009008     0.0001074   -0.0006293     0.0380139   -0.1953461 
   0.084171036    -0.5652213   -0.4951604     0.0000800   -0.0007698     0.0001238   -0.0008687     0.0382891   -0.1940856 
   0.084271061    -0.5657112   -0.4902350     0.0000305   -0.0007556     0.0002271   -0.0006790     0.0376765   -0.1938794 
   0.084371086    -0.5702596   -0.4904239     0.0000398   -0.0006755     0.0001779   -0.0006647     0.0376867   -0.1947521 
   0.084471111    -0.5681342   -0.4914649     0.0001063   -0.0006038     0.0001074   -0.0006030     0.0377634   -0.1948852 
   0.084571136    -0.5703336   -0.4886299     0.0001587   -0.0004453     0.0000795   -0.0005768     0.0380956   -0.1935225 
   0.084671161    -0.5693572   -0.4846924     0.0004940   -0.0006030     0.0001029   -0.0007966     0.0366906   -0.1946098 
   0.084771186    -0.5732397   -0.4822001    -0.0000024   -0.0004320     0.0001082   -0.0005821     0.0371109   -0.1945134 
   0.084871211    -0.5749233   -0.4823158     0.0001465   -0.0007061     0.0002119   -0.0006998     0.0373420   -0.1936720 
   0.084971236    -0.5694159   -0.4830654     0.0002156   -0.0004235     0.0001089   -0.0006632     0.0362173   -0.1939929 
   0.085071261    -0.5750622   -0.4807102     0.0000117   -0.0005775     0.0001204   -0.0006071     0.0364707   -0.1935391 
   0.085171286    -0.5766999   -0.4787497    -0.0000889   -0.0006972     0.0001136   -0.0006937     0.0371709   -0.1938914 
   0.085271311    -0.5774726   -0.4799485    -0.0000478   -0.0007004     0.0002791   -0.0007724     0.0368151   -0.1938357 
   0.085371336    -0.5818404   -0.4773683     0.0002449   -0.0007759     0.0000800   -0.0007961     0.0366689   -0.1932531 
   0.085471361    -0.5748514   -0.4796017    -0.0000059   -0.0006013     0.0001497   -0.0005637     0.0364183   -0.1941424 
   0.085571386    -0.5775810   -0.4729166    -0.0002025   -0.0008931     0.0002661   -0.0005749     0.0370274   -0.1929563 
   0.085671411    -0.5789621   -0.4729645     0.0001725   -0.0007745     0.0001897   -0.0007027     0.0365523   -0.1934550 
   0.085771436    -0.5819473   -0.4699515     0.0002759   -0.0006425     0.0002361   -0.0005509     0.0357412   -0.1927237 
   0.085871461    -0.5848236   -0.4710935     0.0000082   -0.0008412     0.0001133   -0.0007099     0.0362423   -0.1929003 
   0.085971486    -0.5851012   -0.4678341     0.0003129   -0.0004860     0.0001061   -0.0007202     0.0358207   -0.1926903 
   0.086071511    -0.5847535   -0.4653150     0.0002011   -0.0005703     0.0001852   -0.0007525     0.0352047   -0.1927166 
   0.086171536    -0.5828910   -0.4665585     0.0001251   -0.0004888     0.0000989   -0.0006914     0.0356255   -0.1926659 
   0.086271561    -0.5823163   -0.4623738     0.0000895   -0.0006068     0.0001490   -0.0008155     0.0359232   -0.1920763 
   0.086371586    -0.5865536   -0.4606882     0.0001179   -0.0005038     0.0000965   -0.0007208     0.0358948   -0.1927309 
   0.086471611    -0.5859290   -0.4615745    -0.0000562   -0.0004326     0.0002034   -0.0007167     0.0355804   -0.1926357 
   0.086571636    -0.5886411   -0.4608188     0.0002082   -0.0006014     0.0000211   -0.0005997     0.0353029   -0.1925830 
   0.086671661    -0.5874712   -0.4605084     0.0002142   -0.0005889     0.0000444   -0.0006718     0.0351365   -0.1924243 
   0.086771686    -0.5892361   -0.4563681     0.0003093   -0.0008935     0.0001288   -0.0006601     0.0356003   -0.1921084 
   0.086871711    -0.5897060   -0.4620023     0.0001328   -0.0005725     0.0000806   -0.0006683     0.0354440   -0.1914407 
   0.086971736    -0.5892776   -0.4553326    -0.0000332   -0.0007529     0.0002548   -0.0005864     0.0350572   -0.1918465 
   0.087071761    -0.5887444   -0.4560939     0.0001822   -0.0007415     0.0000159   -0.0006650     0.0343979   -0.1919389 
   0.087171786    -0.5910143   -0.4538627    -0.0000328   -0.0007092     0.0000931   -0.0007438     0.0348485   -0.1918567 
   0.087271811    -0.5896665   -0.4543131     0.0003181   -0.0005525     0.0000916   -0.0006857     0.0345027   -0.1914646 
   0.087371836    -0.5922822   -0.4513320     0.0003133   -0.0010063     0.0001405   -0.0005714     0.0344535   -0.1907284 
   0.087471861    -0.5969625   -0.4534239     0.0000004   -0.0008028     0.0001780   -0.0006226     0.0339875   -0.1918493 
   0.087571886    -0.5954735   -0.4484019     0.0001722   -0.0008809     0.0000971   -0.0006503     0.0348634   -0.1914154 
   0.087671911    -0.5951647   -0.4496798     0.0003617   -0.0008829     0.0001458   -0.0007535     0.0345854   -0.1910823 
   0.087771936    -0.5957868   -0.4455882     0.0003266   -0.0008063     0.0001170   -0.0007437     0.0337314   -0.1904873 
   0.087871961    -0.5968956   -0.4454288    -0.0000380   -0.0005046     0.0000989   -0.0007214     0.0343286   -0.1902782 
   0.087971986    -0.5971174   -0.4453436     0.0001323   -0.0005164     0.0000489   -0.0007661     0.0336427   -0.1903988 
   0.088072011    -0.5957366   -0.4423286     0.0003484   -0.0006478     0.0001615   -0.0005028     0.0334177   -0.1899171 
   0.088172036    -0.5989291   -0.4419989     0.0001182   -0.0006417     0.0000971   -0.0007507     0.0333361   -0.1905530 
   0.088272061    -0.5992249   -0.4404712     0.0000036   -0.0009234     0.0000336   -0.0007254     0.0338958   -0.1891918 
   0.088372086    -0.5985677   -0.4356823     0.0000307   -0.0009965     0.0001030   -0.0007134     0.0334511   -0.1907181 
   0.088472111    -0.6003090   -0.4377965    -0.0000099   -0.0005009     0.0000171   -0.0005377     0.0336418   -0.1895219 
   0.088572136    -0.6045915   -0.4379711     0.0000722   -0.0008277     0.0000914   -0.0006376     0.0335303   -0.1895494 
   0.088672161    -0.6049809   -0.4351211     0.0003393   -0.0006637     0.0001772   -0.0007170     0.0339676   -0.1893212 
   0.088772186    -0.6062114   -0.4350213    -0.0000147   -0.0005832     0.0000342   -0.0006005     0.0337062   -0.1899203 
   0.088872211    -0.6056971   -0.4320385     0.0001476   -0.0007016     0.0000698   -0.0006535     0.0332563   -0.1896346 
   0.088972236    -0.6035010   -0.4344947     0.0001719   -0.0010033     0.0000895   -0.0007497     0.0333925   -0.1892862 
   0.089072261    -0.6048825   -0.4311713     0.0001104   -0.0007461     0.0000065   -0.0006798     0.0326767   -0.1899747 
   0.089172286    -0.6081377   -0.4300623     0.0003425   -0.0009114     0.0001236   -0.0007657     0.0322462   -0.1903051 
   0.089272311    -0.6073036   -0.4282556     0.0002360   -0.0007015     0.0001045   -0.0006279     0.0323180   -0.1886006 
   0.089372336    -0.6088226   -0.4268810     0.0000865   -0.0004188    -0.0000435   -0.0007234     0.0326160   -0.1894189 
   0.089472361    -0.6090897   -0.4268729    -0.0000604   -0.0006136     0.0000852   -0.0007029     0.0327795   -0.1892681 
   0.089572386    -0.6103061   -0.4247334     0.0000567   -0.0005745     0.0001476   -0.0007025     0.0332537   -0.1884677 
   0.089672411    -0.6104890   -0.4206882     0.0001738   -0.0008822     0.0000223   -0.0006652     0.0328338   -0.1887297 
   0.089772436    -0.6095148   -0.4212983     0.0001366   -0.0007161     0.0001646   -0.0009133     0.0332022   -0.1886819 
   0.089872461    -0.6121528   -0.4220139     0.0001637   -0.0010175     0.0000971   -0.0005697     0.0319809   -0.1882396 
   0.089972486    -0.6155712   -0.4185733     0.0000062   -0.0008460     0.0000810   -0.0007753     0.0314836   -0.1886465 
   0.090072511    -0.6139774   -0.4182864     0.0002151   -0.0006593     0.0000923   -0.0008402     0.0323633   -0.1891168 
   0.090172536    -0.6131022   -0.4166402     0.0000009   -0.0006385    -0.0000544   -0.0007613     0.0320054   -0.1884088 
   0.090272561    -0.6154630   -0.4160436     0.0004717   -0.0005932     0.0001416   -0.0008209     0.0320789   -0.1889838 
   0.090372586    -0.6173493   -0.4131109     0.0002320   -0.0007164     0.0000699   -0.0006512     0.0311544   -0.1876699 
   0.090472611    -0.6169112   -0.4133425     0.0000456   -0.0006912    -0.0000354   -0.0007005     0.0323056   -0.1878791 
   0.090572636    -0.6192057   -0.4115973     0.0001723   -0.0009493     0.0000292   -0.0006603     0.0317739   -0.1876980 
   0.090672661    -0.6156946   -0.4100600     0.0001126   -0.0005637    -0.0000948   -0.0006692     0.0317009   -0.1879176 
   0.090772686    -0.6183440   -0.4096983     0.0000242   -0.0008179     0.0000099   -0.0007396     0.0312886   -0.1872134 
   0.090872711    -0.6174735   -0.4093373     0.0000443   -0.0009389     0.0000177   -0.0006832     0.0317459   -0.1875930 
   0.090972736    -0.6179528   -0.4075261     0.0000426   -0.0005667     0.0001292   -0.0006631     0.0312389   -0.1875208 
   0.091072761    -0.6183236   -0.4075819     0.0004158   -0.0007340    -0.0000067   -0.0007199     0.0308531   -0.1878084 
   0.091172786    -0.6210716   -0.4051979     0.0000839   -0.0011413     0.0001376   -0.0007814     0.0306708   -0.1882040 
   0.091272811    -0.6212475   -0.4035379     0.0001411   -0.0008074     0.0000146   -0.0006756     0.0307350   -0.1878528 
   0.091372836    -0.6216003   -0.4014201    -0.0001153   -0.0007613     0.0000431   -0.0006911     0.0309617   -0.1869791 
   0.091472861    -0.6230924   -0.4001178    -0.0000311   -0.0006453    -0.0000283   -0.0006660     0.0311152   -0.1866544 
   0.091572886    -0.6251703   -0.4012730     0.0001723   -0.0007445     0.0000674   -0.0007017     0.0314367   -0.1862463 
   0.091672911    -0.6230721   -0.3959508    -0.0001020   -0.0006455    -0.0000264   -0.0007862     0.0301648   -0.1870552 
   0.091772936    -0.6263536   -0.3958144     0.0003186   -0.0009337     0.0000135   -0.0007993     0.0306006   -0.1872800 
   0.091872961    -0.6281954   -0.3947421     0.0002465   -0.0006223     0.0000861   -0.0006900     0.0300165   -0.1874502 
   0.091972986    -0.6263741   -0.3945691     0.0001536   -0.0009697     0.0000284   -0.0007812     0.0304983   -0.1869042 
   0.092073012    -0.6260727   -0.3905289    -0.0001193   -0.0007780    -0.0000391   -0.0007371     0.0294100   -0.1874599 
   0.092173037    -0.6285211   -0.3918656    -0.0000188   -0.0005916     0.0000349   -0.0007584     0.0297808   -0.1868100 
   0.092273062    -0.6302786   -0.3884393    -0.0000170   -0.0006973     0.0000542   -0.0006141     0.0304719   -0.1869616 
   0.092373087    -0.6293523   -0.3888425     0.0003160   -0.0006827     0.0000630   -0.0007553     0.0289001   -0.1861986 
   0.092473112    -0.6286926   -0.3865431     0.0002079   -0.0008928     0.0001396   -0.0006299     0.0303871   -0.1861345 
   0.092573137    -0.6288378   -0.3861350     0.0000481   -0.0005557     0.0000973   -0.0007138     0.0291098   -0.1864779 
   0.092673162    -0.6315092   -0.3842036     0.0002701   -0.0008552    -0.0000554   -0.0006621     0.0289576   -0.1858820 
   0.092773187    -0.6325816   -0.3834204     0.0000298   -0.0005483    -0.0000562   -0.0007627     0.0297942   -0.1850148 
   0.092873212    -0.6329075   -0.3835266     0.0001283   -0.0008016     0.0000034   -0.0006774     0.0293687   -0.1859568 
   0.092973237    -0.6331471   -0.3833113    -0.0000039   -0.0008107    -0.0000120   -0.0006868     0.0284578   -0.1852438 
   0.093073262    -0.6338516   -0.3808131    -0.0001481   -0.0006366     0.0001178   -0.0008780     0.0294087   -0.1856769 
   0.093173287    -0.6331789   -0.3786303     0.0000884   -0.0007119    -0.0000143   -0.0006089     0.0281203   -0.1852779 
   0.093273312    -0.6335797   -0.3806960    -0.0000434   -0.0007084     0.0000738   -0.0007855     0.0294712   -0.1847211 
   0.093373337    -0.6340277   -0.3757803    -0.0000904   -0.0007799     0.0000705   -0.0008347     0.0290730   -0.1853464 
   0.093473362    -0.6360545   -0.3748966    -0.0001300   -0.0005074    -0.0000299   -0.0005626     0.0285179   -0.1855410 
   0.093573387    -0.6350513   -0.3731928     0.0000129   -0.0007527    -0.0000882   -0.0007405     0.0288446   -0.1851147 
   0.093673412    -0.6350246   -0.3704267    -0.0000210   -0.0008372     0.0000027   -0.0006850     0.0285228   -0.1850938 
   0.093773437    -0.6355692   -0.3740984     0.0000067   -0.0009114     0.0000750   -0.0007237     0.0283250   -0.1846499 
   0.093873462    -0.6365216   -0.3714032    -0.0001082   -0.0007035     0.0000031   -0.0006101     0.0276707   -0.1844606 
   0.093973487    -0.6374510   -0.3700149    -0.0000598   -0.0006700     0.0000485   -0.0008147     0.0279843   -0.1850018 
   0.094073512    -0.6406485   -0.3677568    -0.0000470   -0.0006665     0.0000923   -0.0007873     0.0292108   -0.1843474 
   0.094173537    -0.6375730   -0.3668311    -0.0000380   -0.0008303     0.0000539   -0.0007026     0.0278403   -0.1843328 
   0.094273562    -0.6377327   -0.3634413     0.0001070   -0.0006853    -0.0000193   -0.0006733     0.0281556   -0.1843057 
   0.094373587    -0.6372732   -0.3643266     0.0002936   -0.0007419     0.0000587   -0.0007347     0.0289687   -0.1840768 
   0.094473612    -0.6396844   -0.3626479    -0.0001329   -0.0007890    -0.0000157   -0.0007640     0.0276248   -0.1843234 
   0.094573637    -0.6422946   -0.3609077     0.0000299   -0.0006061     0.0000631   -0.0006691     0.0275336   -0.1844281 
   0.094673662    -0.6417824   -0.3593767    -0.0000515   -0.0008506     0.0000135   -0.0007172     0.0276705   -0.1837335 
   0.094773687    -0.6418634   -0.3585888    -0.0000525   -0.0007774    -0.0000013   -0.0006709     0.0276259   -0.1843226 
   0.094873712    -0.6449349   -0.3565259     0.0000583   -0.0005761    -0.0001315   -0.0007282     0.0268421   -0.1834874 
   0.094973737    -0.6446130   -0.3579417    -0.0000471   -0.0008708     0.0000071   -0.0007212     0.0280242   -0.1834104 
   0.095073762    -0.6432835   -0.3562194     0.0000698   -0.0008142    -0.0000275   -0.0007297     0.0279973   -0.1841049 
   0.095173787    -0.6452903   -0.3536620     0.0000609   -0.0008360    -0.0000833   -0.0006972     0.0276298   -0.1834661 
   0.095273812    -0.6452267   -0.3518061     0.0000464   -0.0006976    -0.0000768   -0.0006683     0.0277438   -0.1833216 
   0.095373837    -0.6436679   -0.3502888    -0.0001981   -0.0009263    -0.0000704   -0.0007791     0.0275736   -0.1841421 
   0.095473862    -0.6451647   -0.3503405     0.0000251   -0.0008145    -0.0000260   -0.0007184     0.0264006   -0.1834927 
   0.095573887    -0.6474899   -0.3501897    -0.0001415   -0.0005732     0.0000156   -0.0005775     0.0259147   -0.1834315 
   0.095673912    -0.6472701   -0.3462722    -0.0000401   -0.0009879    -0.0000960   -0.0007317     0.0264256   -0.1829365 
   0.095773937    -0.6452842   -0.3448118    -0.0002714   -0.0007036     0.0000875   -0.0008154     0.0271242   -0.1829267 
   0.095873962    -0.6491470   -0.3431129    -0.0000345   -0.0010656    -0.0001197   -0.0007056     0.0270200   -0.1825892 
   0.095973987    -0.6467047   -0.3433147    -0.0001336   -0.0009631     0.0000835   -0.0007309     0.0263732   -0.1830532 
   0.096074012    -0.6480939   -0.3424932    -0.0000501   -0.0004713     0.0000855   -0.0007489     0.0260455   -0.1833374 
   0.096174037    -0.6475465   -0.3419183     0.0000473   -0.0007217    -0.0000329   -0.0008061     0.0259932   -0.1823054 
   0.096274062    -0.6513268   -0.3371172    -0.0001303   -0.0008381     0.0000399   -0.0007855     0.0253055   -0.1824927 
   0.096374087    -0.6517017   -0.3416208    -0.0001019   -0.0007619    -0.0000293   -0.0007200     0.0260531   -0.1830920 
   0.096474112    -0.6495660   -0.3396752    -0.0000765   -0.0007232    -0.0000098   -0.0006514     0.0254734   -0.1821037 
   0.096574137    -0.6540645   -0.3345812     0.0000876   -0.0006624     0.0000116   -0.0008364     0.0259386   -0.1827392 
   0.096674162    -0.6543847   -0.3364259     0.0000058   -0.0008746    -0.0000937   -0.0006386     0.0267332   -0.1829520 
   0.096774187    -0.6518087   -0.3351817    -0.0001366   -0.0005674    -0.0000680   -0.0006505     0.0266603   -0.1829274 
   0.096874212    -0.6525534   -0.3314500     0.0000831   -0.0007972    -0.0000798   -0.0007586     0.0258954   -0.1820336 
   0.096974237    -0.6530198   -0.3312238     0.0001679   -0.0006910    -0.0000412   -0.0007280     0.0256716   -0.1821445 
   0.097074262    -0.6512651   -0.3271832    -0.0000422   -0.0007865     0.0000449   -0.0007802     0.0261177   -0.1821473 
   0.097174287    -0.6544033   -0.3302377    -0.0000773   -0.0005838    -0.0000223   -0.0006536     0.0255253   -0.1817120 
   0.097274312    -0.6549715   -0.3257091     0.0001791   -0.0008351    -0.0000110   -0.0007322     0.0261212   -0.1813310 
   0.097374337    -0.6545592   -0.3269628     0.0000959   -0.0006835    -0.0001106   -0.0007492     0.0249957   -0.1820903 
   0.097474362    -0.6549817   -0.3241375    -0.0001317   -0.0008099    -0.0001335   -0.0005536     0.0254075   -0.1816579 
   0.097574387    -0.6571633   -0.3259159     0.0000365   -0.0006661     0.0000520   -0.0008623     0.0254487   -0.1811947 
   0.097674412    -0.6562925   -0.3221122     0.0000040   -0.0006659    -0.0000507   -0.0007050     0.0247510   -0.1808283 
   0.097774437    -0.6599361   -0.3231767    -0.0003229   -0.0006380    -0.0000785   -0.0005995     0.0250738   -0.1817683 
   0.097874462    -0.6578203   -0.3192306    -0.0000969   -0.0007377     0.0000278   -0.0008320     0.0247600   -0.1811015 
   0.097974487    -0.6578901   -0.3165604    -0.0004211   -0.0009050    -0.0000154   -0.0007574     0.0240484   -0.1807791 
   0.098074512    -0.6581315   -0.3178078     0.0000380   -0.0007014     0.0000221   -0.0006954     0.0246284   -0.1813004 
   0.098174537    -0.6590929   -0.3149143    -0.0002812   -0.0008045     0.0000843   -0.0006644     0.0238699   -0.1802577 
   0.098274562    -0.6596512   -0.3149330    -0.0000259   -0.0008134    -0.0000682   -0.0006954     0.0244635   -0.1808566 
   0.098374587    -0.6610703   -0.3140758     0.0000336   -0.0007775    -0.0001138   -0.0007907     0.0250679   -0.1805668 
   0.098474612    -0.6586459   -0.3115238    -0.0000351   -0.0009727    -0.0001080   -0.0007332     0.0246959   -0.1811774 
   0.098574637    -0.6592664   -0.3113477    -0.0001343   -0.0007454    -0.0000958   -0.0007282     0.0242684   -0.1809494 
   0.098674662    -0.6604429   -0.3100106     0.0000068   -0.0009893     0.0000312   -0.0007106     0.0236119   -0.1813087 
   0.098774687    -0.6604134   -0.3086920     0.0001100   -0.0007590    -0.0001194   -0.0006834     0.0239474   -0.1805890 
   0.098874712    -0.6614059   -0.3052279    -0.0002523   -0.0007888    -0.0001976   -0.0007511     0.0242442   -0.1804029 
   0.098974737    -0.6602114   -0.3051282    -0.0002907   -0.0007887    -0.0000982   -0.0007973     0.0237939   -0.1802081 
   0.099074762    -0.6600011   -0.3073489    -0.0000075   -0.0006682    -0.0001477   -0.0006888     0.0232874   -0.1803434 
   0.099174787    -0.6627538   -0.3022439    -0.0000924   -0.0007097    -0.0000870   -0.0008141     0.0239832   -0.1796286 
   0.099274812    -0.6625556   -0.2997805     0.0000864   -0.0007365    -0.0000131   -0.0006655     0.0236856   -0.1804823 
   0.099374837    -0.6639668   -0.3003996    -0.0001300   -0.0009894    -0.0002264   -0.0008246     0.0237288   -0.1797028 
   0.099474862    -0.6657148   -0.2978658    -0.0001844   -0.0008596    -0.0000898   -0.0007231     0.0235227   -0.1793662 
   0.099574887    -0.6637737   -0.3000936    -0.0001274   -0.0007747     0.0000232   -0.0007057     0.0237032   -0.1792560 
   0.099674912    -0.6637189   -0.2951274    -0.0002013   -0.0006825    -0.0001854   -0.0007532     0.0227880   -0.1798003 
   0.099774937    -0.6653063   -0.2943907     0.0001626   -0.0008099    -0.0000607   -0.0007794     0.0231656   -0.1805663 
   0.099874962    -0.6656123   -0.2965725    -0.0000112   -0.0007465    -0.0000203   -0.0006387     0.0238459   -0.1801716 
   0.099974987    -0.6665979   -0.2950675    -0.0001673   -0.0005019    -0.0000291   -0.0007325     0.0234338   -0.1792428 
   0.100075013    -0.6674968   -0.2892386    -0.0004524   -0.0004653    -0.0000862   -0.0007940     0.0226835   -0.1798060 
   0.100175038    -0.6666269   -0.2931120    -0.0000226   -0.0006330    -0.0000160   -0.0009033     0.0229508   -0.1793004 
   0.100275063    -0.6680130   -0.2910772    -0.0002305   -0.0007649    -0.0000382   -0.0007249     0.0222585   -0.1788113 
   0.100375088    -0.6660765   -0.2867458     0.0000411   -0.0007734    -0.0000633   -0.0007054     0.0226519   -0.1795701 
   0.100475113    -0.6674524   -0.2864510    -0.0001034   -0.0008248    -0.0000115   -0.0007191     0.0219502   -0.1786113 
   0.100575138    -0.6703467   -0.2854686    -0.0002776   -0.0009117    -0.0002033   -0.0007250     0.0224624   -0.1791407 
   0.100675163    -0.6664513   -0.2849994    -0.0001612   -0.0008968    -0.0000660   -0.0007336     0.0229863   -0.1792569 
   0.100775188    -0.6675946   -0.2808508    -0.0004967   -0.0010308    -0.0000889   -0.0008527     0.0230482   -0.1782068 
   0.100875213    -0.6722695   -0.2844823    -0.0001119   -0.0008148    -0.0001982   -0.0008296     0.0227837   -0.1788728 
   0.100975238    -0.6669787   -0.2817052    -0.0003339   -0.0008186     0.0000489   -0.0008734     0.0220311   -0.1788277 
   0.101075263    -0.6705821   -0.2784837    -0.0000903   -0.0005249    -0.0000170   -0.0006824     0.0223355   -0.1788130 
   0.101175288    -0.6711422   -0.2771675    -0.0004989   -0.0009218    -0.0000400   -0.0005982     0.0215449   -0.1788363 
   0.101275313    -0.6721343   -0.2781787    -0.0000349   -0.0004535    -0.0002109   -0.0006870     0.0213180   -0.1787118 
   0.101375338    -0.6695908   -0.2772747    -0.0001910   -0.0007682    -0.0000295   -0.0008447     0.0223734   -0.1783867 
   0.101475363    -0.6739596   -0.2734605    -0.0000865   -0.0009442    -0.0001148   -0.0007615     0.0219832   -0.1783362 
   0.101575388    -0.6724583   -0.2712330     0.0000658   -0.0007751    -0.0000992   -0.0007545     0.0212482   -0.1782765 
   0.101675413    -0.6748241   -0.2732803    -0.0001417   -0.0007432    -0.0001915   -0.0005851     0.0219789   -0.1780997 
   0.101775438    -0.6737592   -0.2688507    -0.0000799   -0.0009474    -0.0002479   -0.0008148     0.0215861   -0.1790671 
   0.101875463    -0.6731098   -0.2709926    -0.0001443   -0.0010118    -0.0000945   -0.0009140     0.0216401   -0.1779695 
   0.101975488    -0.6746888   -0.2671309    -0.0001663   -0.0008969    -0.0001359   -0.0008495     0.0213594   -0.1786065 
   0.102075513    -0.6734856   -0.2657551    -0.0004727   -0.0005613    -0.0001198   -0.0007932     0.0208071   -0.1777812 
   0.102175538    -0.6729879   -0.2641838    -0.0000428   -0.0009274    -0.0000256   -0.0007264     0.0208648   -0.1782086 
   0.102275563    -0.6727934   -0.2639301    -0.0003307   -0.0007976    -0.0001260   -0.0009680     0.0207991   -0.1780583 
   0.102375588    -0.6760930   -0.2605430     0.0001286   -0.0004384    -0.0000175   -0.0006908     0.0208896   -0.1778390 
   0.102475613    -0.6723961   -0.2632776    -0.0004367   -0.0010811    -0.0003070   -0.0005691     0.0207610   -0.1782806 
   0.102575638    -0.6755263   -0.2609255    -0.0003050   -0.0010979     0.0000826   -0.0006170     0.0203872   -0.1776575 
   0.102675663    -0.6782665   -0.2593551     0.0001842   -0.0009591    -0.0000977   -0.0007854     0.0205600   -0.1779679 
   0.102775688    -0.6762319   -0.2573113     0.0000679   -0.0012429    -0.0001916   -0.0007974     0.0205581   -0.1779408 
   0.102875713    -0.6774600   -0.2577609    -0.0002325   -0.0006340    -0.0001362   -0.0005947     0.0212217   -0.1775964 
   0.102975738    -0.6792676   -0.2596497    -0.0000945   -0.0006659    -0.0000322   -0.0007432     0.0208098   -0.1778605 
   0.103075763    -0.6807344   -0.2535192    -0.0000177   -0.0009076     0.0000734   -0.0007601     0.0201141   -0.1779299 
   0.103175788    -0.6774684   -0.2519131    -0.0000590   -0.0008073    -0.0000480   -0.0007497     0.0199348   -0.1770941 
   0.103275813    -0.6768720   -0.2514229    -0.0003835   -0.0011261    -0.0000280   -0.0006829     0.0203053   -0.1766813 
   0.103375838    -0.6788709   -0.2500160     0.0000096   -0.0005709    -0.0000634   -0.0008551     0.0198878   -0.1768747 
   0.103475863    -0.6777439   -0.2484614    -0.0002405   -0.0008432    -0.0002905   -0.0006387     0.0197547   -0.1775851 
   0.103575888    -0.6763961   -0.2500938    -0.0000048   -0.0009575    -0.0001853   -0.0008345     0.0202935   -0.1771992 
   0.103675913    -0.6807872   -0.2495007     0.0000560   -0.0007892    -0.0000186   -0.0007789     0.0204183   -0.1770508 
   0.103775938    -0.6771077   -0.2452861    -0.0002627   -0.0007348    -0.0001684   -0.0008778     0.0190661   -0.1768413 
   0.103875963    -0.6786859   -0.2461814    -0.0001294   -0.0009313     0.0001019   -0.0008551     0.0198712   -0.1770917 
   0.103975988    -0.6792147   -0.2448556     0.0000793   -0.0006379    -0.0000063   -0.0009341     0.0192496   -0.1771536 
   0.104076013    -0.6798695   -0.2412516    -0.0001854   -0.0008947    -0.0001794   -0.0006728     0.0188237   -0.1764851 
   0.104176038    -0.6791337   -0.2422687    -0.0000537   -0.0010256    -0.0003535   -0.0007611     0.0196600   -0.1760911 
   0.104276063    -0.6800162   -0.2413169    -0.0000234   -0.0008899    -0.0002887   -0.0010865     0.0192436   -0.1767515 
   0.104376088    -0.6788859   -0.2396169    -0.0001224   -0.0005020    -0.0001272   -0.0006922     0.0194661   -0.1761488 
   0.104476113    -0.6811162   -0.2372574    -0.0001920   -0.0008293    -0.0001540   -0.0006444     0.0187215   -0.1763618 
   0.104576138    -0.6811034   -0.2330863    -0.0001036   -0.0005184    -0.0001094   -0.0007429     0.0188957   -0.1762777 
   0.104676163    -0.6807956   -0.2352483    -0.0001408   -0.0006712    -0.0002207   -0.0007589     0.0190206   -0.1763456 
   0.104776188    -0.6814399   -0.2322036    -0.0003287   -0.0008335    -0.0001476   -0.0007182     0.0187643   -0.1762366 
   0.104876213    -0.6836434   -0.2320015    -0.0002840   -0.0007116    -0.0000674   -0.0009263     0.0193319   -0.1761193 
   0.104976238    -0.6816441   -0.2313797    -0.0001670   -0.0007708    -0.0002254   -0.0006856     0.0188995   -0.1763804 
   0.105076263    -0.6821780   -0.2317834    -0.0000688   -0.0011852    -0.0000902   -0.0009215     0.0180696   -0.1761186 
   0.105176288    -0.6845738   -0.2311481    -0.0002160   -0.0007919     0.0000031   -0.0007972     0.0188744   -0.1759542 
   0.105276313    -0.6842707   -0.2251118    -0.0003278   -0.0009147    -0.0000735   -0.0007940     0.0184364   -0.1762718 
   0.105376338    -0.6824799   -0.2257246    -0.0003232   -0.0008772    -0.0002319   -0.0006908     0.0185437   -0.1756961 
   0.105476363    -0.6858738   -0.2240506     0.0001401   -0.0007469    -0.0000444   -0.0007802     0.0188451   -0.1758637 
   0.105576388    -0.6852255   -0.2247959    -0.0003026   -0.0009619    -0.0004006   -0.0008477     0.0182131   -0.1748602 
   0.105676413    -0.6873221   -0.2227210     0.0000199   -0.0005108    -0.0003892   -0.0008243     0.0187264   -0.1766115 
   0.105776438    -0.6846787   -0.2200446    -0.0002257   -0.0008151    -0.0002184   -0.0008272     0.0180260   -0.1757850 
   0.105876463    -0.6842760   -0.2205575    -0.0001993   -0.0005478    -0.0002431   -0.0008077     0.0179878   -0.1748816 
   0.105976488    -0.6852987   -0.2154371    -0.0000877   -0.0007844    -0.0000416   -0.0010047     0.0182443   -0.1751267 
   0.106076513    -0.6846952   -0.2178376    -0.0003080   -0.0011612    -0.0002811   -0.0008794     0.0178951   -0.1758256 
   0.106176538    -0.6870977   -0.2158187     0.0002612   -0.0007934    -0.0000812   -0.0009395     0.0180276   -0.1754033 
   0.106276563    -0.6868777   -0.2138994     0.0000743   -0.0008022    -0.0003910   -0.0008398     0.0167728   -0.1759881 
   0.106376588    -0.6843143   -0.2162889     0.0000798   -0.0009433    -0.0001969   -0.0009046     0.0174605   -0.1741735 
   0.106476613    -0.6867219   -0.2146317    -0.0002696   -0.0008492    -0.0001396   -0.0006842     0.0174644   -0.1746415 
   0.106576638    -0.6876165   -0.2110561    -0.0003712   -0.0010429    -0.0000709   -0.0007378     0.0174638   -0.1754756 
   0.106676663    -0.6910260   -0.2101039    -0.0001567   -0.0006690    -0.0001105   -0.0007275     0.0177742   -0.1742990 
   0.106776688    -0.6871193   -0.2090316     0.0002340   -0.0008925    -0.0001972   -0.0009797     0.0170910   -0.1750871 
   0.106876713    -0.6889622   -0.2075837    -0.0000987   -0.0006085    -0.0001196   -0.0007955     0.0177125   -0.1746992 
   0.106976738    -0.6929373   -0.2074672     0.0000705   -0.0012032    -0.0002239   -0.0008133     0.0178203   -0.1747698 
   0.107076763    -0.6908232   -0.2040739    -0.0004248   -0.0008419    -0.0002389   -0.0007635     0.0169764   -0.1750185 
   0.107176788    -0.6909863   -0.2056525    -0.0002358   -0.0007733    -0.0000579   -0.0008345     0.0169747   -0.1745783 
   0.107276813    -0.6899890   -0.2050380    -0.0000964   -0.0007915     0.0000137   -0.0008300     0.0161550   -0.1741026 
   0.107376838    -0.6911464   -0.2024632    -0.0001750   -0.0009693    -0.0000985   -0.0006958     0.0173360   -0.1747937 
   0.107476863    -0.6894834   -0.1977262    -0.0004433   -0.0006804    -0.0001969   -0.0007311     0.0167618   -0.1751332 
   0.107576888    -0.6905560   -0.2029794    -0.0001344   -0.0006917    -0.0001726   -0.0007056     0.0170089   -0.1745860 
   0.107676913    -0.6899449   -0.1974459    -0.0002641   -0.0006385    -0.0002075   -0.0008771     0.0165117   -0.1735990 
   0.107776938    -0.6908976   -0.1966575    -0.0002025   -0.0009818    -0.0002034   -0.0009579     0.0162521   -0.1741936 
   0.107876963    -0.6923818   -0.2000574    -0.0002780   -0.0010432    -0.0002478   -0.0008125     0.0165850   -0.1741327 
   0.107976988    -0.6901006   -0.1953090    -0.0001781   -0.0013801    -0.0000700   -0.0009063     0.0159157   -0.1744631 
   0.108077014    -0.6930138   -0.1935263    -0.0001518   -0.0008591    -0.0000531   -0.0008964     0.0163887   -0.1738556 
   0.108177039    -0.6913261   -0.1900479    -0.0001095   -0.0006289    -0.0001212   -0.0005976     0.0154294   -0.1740140 
   0.108277064    -0.6899546   -0.1898584    -0.0004115   -0.0002941    -0.0001510   -0.0006894     0.0168583   -0.1738916 
   0.108377089    -0.6895924   -0.1912319    -0.0002141   -0.0005822     0.0000981   -0.0009575     0.0153775   -0.1744929 
   0.108477114    -0.6921824   -0.1893220    -0.0002732   -0.0006243    -0.0000761   -0.0008155     0.0159996   -0.1742871 
   0.108577139    -0.6911545   -0.1864568    -0.0002626   -0.0012869    -0.0001630   -0.0009874     0.0155435   -0.1739003 
   0.108677164    -0.6913881   -0.1858217    -0.0001330   -0.0006010    -0.0003457   -0.0007408     0.0161930   -0.1739586 
   0.108777189    -0.6956310   -0.1826213    -0.0000380   -0.0009937    -0.0001660   -0.0005823     0.0160089   -0.1741943 
   0.108877214    -0.6935059   -0.1822615    -0.0002207   -0.0010401    -0.0002014   -0.0007090     0.0153972   -0.1738031 
   0.108977239    -0.6915253   -0.1801861    -0.0004724   -0.0007084    -0.0001553   -0.0005794     0.0155511   -0.1728633 
   0.109077264    -0.6934288   -0.1823923    -0.0002236   -0.0007902    -0.0001622   -0.0007957     0.0156140   -0.1733842 
   0.109177289    -0.6950570   -0.1769334    -0.0002919   -0.0006030     0.0000283   -0.0006805     0.0157618   -0.1738626 
   0.109277314    -0.6945171   -0.1810910    -0.0002818   -0.0012448    -0.0003443   -0.0006974     0.0157351   -0.1730400 
   0.109377339    -0.6893299   -0.1786204    -0.0004492   -0.0007548    -0.0004449   -0.0009090     0.0156865   -0.1731453 
   0.109477364    -0.6924489   -0.1764249    -0.0002774   -0.0008660    -0.0003747   -0.0008439     0.0152313   -0.1738319 
   0.109577389    -0.6946381   -0.1741344    -0.0002599   -0.0008324    -0.0003461   -0.0008259     0.0150635   -0.1734875 
   0.109677414    -0.6971544   -0.1731345    -0.0002214   -0.0007936    -0.0002665   -0.0006982     0.0151774   -0.1732207 
   0.109777439    -0.6957140   -0.1724498    -0.0000228   -0.0003772    -0.0002187   -0.0008285     0.0148389   -0.1728320 
   0.109877464    -0.6932415   -0.1716435    -0.0006542   -0.0006845    -0.0002502   -0.0006946     0.0146938   -0.1731173 
   0.109977489    -0.6952453   -0.1691208    -0.0005886   -0.0006493    -0.0004032   -0.0007962     0.0153246   -0.1732711 
   0.110077514    -0.6935837   -0.1708532    -0.0005185   -0.0003594    -0.0001721   -0.0008408     0.0143126   -0.1734557 
   0.110177539    -0.6931228   -0.1663904    -0.0003445   -0.0011862    -0.0001515   -0.0009190     0.0145273   -0.1725632 
   0.110277564    -0.6932666   -0.1666772    -0.0000535   -0.0006774    -0.0002270   -0.0006776     0.0144983   -0.1725802 
   0.110377589    -0.6960934   -0.1622297    -0.0002531   -0.0008608    -0.0001943   -0.0007182     0.0140014   -0.1725430 
   0.110477614    -0.6952651   -0.1644796    -0.0004833   -0.0007001    -0.0004676   -0.0007308     0.0146893   -0.1724401 
   0.110577639    -0.6939247   -0.1619885    -0.0002492   -0.0008531    -0.0002402   -0.0008720     0.0141839   -0.1725576 
   0.110677664    -0.6976989   -0.1618646    -0.0004788   -0.0008778    -0.0001947   -0.0006515     0.0136468   -0.1720614 
   0.110777689    -0.6989691   -0.1569639    -0.0003135   -0.0009380    -0.0000597   -0.0010493     0.0144502   -0.1721528 
   0.110877714    -0.6934372   -0.1604060    -0.0001189   -0.0007943    -0.0004346   -0.0007038     0.0132400   -0.1723486 
   0.110977739    -0.6976475   -0.1576656    -0.0000030   -0.0007873    -0.0000983   -0.0004675     0.0140684   -0.1723073 
   0.111077764    -0.6975695   -0.1593415    -0.0005568   -0.0003828    -0.0004837   -0.0008872     0.0136625   -0.1727035 
   0.111177789    -0.6979625   -0.1531027    -0.0003435   -0.0008857    -0.0002492   -0.0005673     0.0132750   -0.1725405 
   0.111277814    -0.6960345   -0.1582843    -0.0003448   -0.0009754    -0.0000845   -0.0006555     0.0136803   -0.1721592 
   0.111377839    -0.6998851   -0.1559699     0.0000781   -0.0010677    -0.0001791   -0.0007742     0.0126964   -0.1725245 
   0.111477864    -0.6960158   -0.1498820     0.0000737   -0.0006914    -0.0000752   -0.0005381     0.0140879   -0.1719126 
   0.111577889    -0.6981406   -0.1520095     0.0001311   -0.0006329    -0.0000531   -0.0008513     0.0136365   -0.1713205 
   0.111677914    -0.6990555   -0.1496853    -0.0004308   -0.0008482    -0.0003089   -0.0006873     0.0135822   -0.1720458 
   0.111777939    -0.6946848   -0.1479563    -0.0004922   -0.0007322    -0.0001303   -0.0009619     0.0127840   -0.1719808 
   0.111877964    -0.6981457   -0.1490569    -0.0002378   -0.0011109    -0.0003056   -0.0005895     0.0130763   -0.1717052 
   0.111977989    -0.6980534   -0.1470047    -0.0001347   -0.0006122    -0.0004475   -0.0010512     0.0135497   -0.1714063 
   0.112078014    -0.6976961   -0.1463874    -0.0002056   -0.0007798    -0.0002600   -0.0008562     0.0134659   -0.1716065 
   0.112178039    -0.6978772   -0.1477752    -0.0005530   -0.0006999    -0.0002922   -0.0009472     0.0130056   -0.1717406 
   0.112278064    -0.6992120   -0.1415689    -0.0001589   -0.0003050    -0.0003265   -0.0009220     0.0129344   -0.1722738 
   0.112378089    -0.6990667   -0.1403495    -0.0005145   -0.0008212    -0.0000596   -0.0008280     0.0126897   -0.1713315 
   0.112478114    -0.6970355   -0.1385948    -0.0005963   -0.0002545    -0.0001645   -0.0008788     0.0124393   -0.1717500 
   0.112578139    -0.6966576   -0.1348359    -0.0003191   -0.0004055    -0.0003785   -0.0006566     0.0128021   -0.1714417 
   0.112678164    -0.6997409   -0.1421635    -0.0002057   -0.0009152    -0.0002912   -0.0007638     0.0124902   -0.1714954 
   0.112778189    -0.6996211   -0.1358420    -0.0000480   -0.0006280    -0.0002295   -0.0008772     0.0129538   -0.1708081 
   0.112878214    -0.6998593   -0.1365647    -0.0004470   -0.0010095    -0.0001192   -0.0008351     0.0126499   -0.1718276 
   0.112978239    -0.6969140   -0.1387884    -0.0001760   -0.0005961    -0.0001626   -0.0006679     0.0124343   -0.1708803 
   0.113078264    -0.7001619   -0.1306214    -0.0002674   -0.0004452    -0.0002264   -0.0008975     0.0125641   -0.1710329 
   0.113178289    -0.6988869   -0.1326865    -0.0005199   -0.0010086    -0.0004492   -0.0008178     0.0123140   -0.1715714 
   0.113278314    -0.6967866   -0.1323086    -0.0000768   -0.0007195    -0.0002499   -0.0007020     0.0113529   -0.1712731 
   0.113378339    -0.7008713   -0.1312559    -0.0003392   -0.0004081    -0.0004022   -0.0008760     0.0120469   -0.1714328 
   0.113478364    -0.6998318   -0.1267915    -0.0002288   -0.0009218    -0.0002731   -0.0006864     0.0117040   -0.1711443 
   0.113578389    -0.6991926   -0.1243231     0.0000229   -0.0005183    -0.0002489   -0.0007283     0.0122584   -0.1704752 
   0.113678414    -0.6984611   -0.1263631    -0.0005261   -0.0007779    -0.0002040   -0.0007067     0.0124523   -0.1711056 
   0.113778439    -0.6979251   -0.1184711     0.0000115   -0.0009617    -0.0003894   -0.0008208     0.0115521   -0.1706095 
   0.113878464    -0.7036352   -0.1224216    -0.0004795   -0.0005332    -0.0001001   -0.0006604     0.0117758   -0.1710028 
   0.113978489    -0.7009304   -0.1235870    -0.0007973   -0.0005316    -0.0004896   -0.0009161     0.0114981   -0.1708919 
   0.114078514    -0.6980908   -0.1206587     0.0000237   -0.0014179    -0.0003635   -0.0007760     0.0119870   -0.1696248 
   0.114178539    -0.7006462   -0.1220996    -0.0002050   -0.0009617    -0.0005572   -0.0008811     0.0110508   -0.1704389 
   0.114278564    -0.6983687   -0.1206705    -0.0004557   -0.0003091    -0.0002397   -0.0010312     0.0108349   -0.1708343 
   0.114378589    -0.7022979   -0.1189061    -0.0004033   -0.0009717    -0.0003326   -0.0006714     0.0107922   -0.1707539 
   0.114478614    -0.7001375   -0.1171416    -0.0003686   -0.0008372    -0.0003513   -0.0009292     0.0105887   -0.1703733 
   0.114578639    -0.7019302   -0.1174973    -0.0004077   -0.0009421    -0.0002061   -0.0009536     0.0108182   -0.1705016 
   0.114678664    -0.6985434   -0.1130989    -0.0002004   -0.0006563    -0.0002921   -0.0009107     0.0107882   -0.1704975 
   0.114778689    -0.6989905   -0.1140208    -0.0006535   -0.0011304    -0.0002943   -0.0007599     0.0104201   -0.1702603 
   0.114878714    -0.7049785   -0.1126655    -0.0004622   -0.0011734    -0.0004263   -0.0007107     0.0103202   -0.1701888 
   0.114978739    -0.7002831   -0.1117314    -0.0003550   -0.0009855    -0.0003477   -0.0005778     0.0106114   -0.1696836 
   0.115078764    -0.7027636   -0.1124074    -0.0004684   -0.0011024    -0.0003131   -0.0007947     0.0105364   -0.1704169 
   0.115178789    -0.6990842   -0.1079939    -0.0001942   -0.0009874    -0.0001767   -0.0007779     0.0103719   -0.1701580 
   0.115278814    -0.7005888   -0.1075442    -0.0004349   -0.0005493    -0.0002192   -0.0008860     0.0104805   -0.1696945 
   0.115378839    -0.7021755   -0.1028496    -0.0003143   -0.0007869    -0.0002337   -0.0006021     0.0102806   -0.1697233 
   0.115478864    -0.7018794   -0.1079404    -0.0005732   -0.0005091    -0.0003267   -0.0007064     0.0100649   -0.1698138 
   0.115578889    -0.7048887   -0.1057082    -0.0003977   -0.0008619    -0.0002254   -0.0008449     0.0100466   -0.1691205 
   0.115678914    -0.7008193   -0.1025446    -0.0001321   -0.0009951    -0.0002082   -0.0006649     0.0104391   -0.1696681 
   0.115778939    -0.7045375   -0.1054887    -0.0000982   -0.0006447    -0.0002384   -0.0008740     0.0097345   -0.1696722 
   0.115878964    -0.7025106   -0.1059203    -0.0007257   -0.0005509    -0.0002463   -0.0007777     0.0101513   -0.1699066 
   0.115978989    -0.7012031   -0.1012431    -0.0008179   -0.0007626    -0.0004513   -0.0008726     0.0098706   -0.1693008 
   0.116079015    -0.7013590   -0.0997175    -0.0003704   -0.0003814    -0.0004419   -0.0008103     0.0101822   -0.1694472 
   0.116179040    -0.7016636   -0.0972865    -0.0004384   -0.0008216    -0.0003402   -0.0010689     0.0095938   -0.1698364 
   0.116279065    -0.6997823   -0.0992602    -0.0000772   -0.0010872    -0.0003215   -0.0009082     0.0099922   -0.1695176 
   0.116379090    -0.7034859   -0.0969402    -0.0012036   -0.0007883    -0.0003195   -0.0005478     0.0097958   -0.1694602 
   0.116479115    -0.7026745   -0.0953582    -0.0006272   -0.0005666    -0.0005028   -0.0008774     0.0096753   -0.1692049 
   0.116579140    -0.6987548   -0.0942603    -0.0005903   -0.0010704    -0.0002314   -0.0006327     0.0092464   -0.1686046 
   0.116679165    -0.6983131   -0.0903559    -0.0005568   -0.0009170    -0.0003064   -0.0008687     0.0092780   -0.1694505 
   0.116779190    -0.7017478   -0.0892405    -0.0004797   -0.0003325    -0.0003875   -0.0009131     0.0090160   -0.1696229 
   0.116879215    -0.7028880   -0.0899884    -0.0002071   -0.0009633    -0.0005945   -0.0008134     0.0086920   -0.1689683 
   0.116979240    -0.7046359   -0.0894591    -0.0004314   -0.0008143    -0.0001960   -0.0007033     0.0097946   -0.1684197 
   0.117079265    -0.7003158   -0.0866708    -0.0008529   -0.0007543    -0.0001925   -0.0006961     0.0091145   -0.1693913 
   0.117179290    -0.7031898   -0.0868795    -0.0005690   -0.0004490    -0.0003400   -0.0007921     0.0085614   -0.1685914 
   0.117279315    -0.7040606   -0.0888898    -0.0004697   -0.0012516    -0.0005446   -0.0009405     0.0093818   -0.1687741 
   0.117379340    -0.7022380   -0.0833242    -0.0002549   -0.0003088    -0.0004541   -0.0008638     0.0087801   -0.1685594 
   0.117479365    -0.7030199   -0.0828900    -0.0007710   -0.0011034    -0.0004198   -0.0007333     0.0087882   -0.1689953 
   0.117579390    -0.7004267   -0.0799236    -0.0004241   -0.0005787    -0.0002857   -0.0008463     0.0081756   -0.1682566 
   0.117679415    -0.7026297   -0.0789804    -0.0001100   -0.0006131    -0.0001850   -0.0008800     0.0083069   -0.1683685 
   0.117779440    -0.7024236   -0.0832652    -0.0004861   -0.0008565    -0.0006405   -0.0008588     0.0082680   -0.1688439 
   0.117879465    -0.7017850   -0.0780556    -0.0004764   -0.0010286    -0.0005176   -0.0004458     0.0081830   -0.1688794 
   0.117979490    -0.7013119   -0.0766325    -0.0005004   -0.0008027    -0.0005021   -0.0008603     0.0090147   -0.1685710 
   0.118079515    -0.7065482   -0.0836495     0.0005848   -0.0008376    -0.0004653   -0.0008811     0.0079918   -0.1679257 
   0.118179540    -0.7049941   -0.0716544    -0.0003991   -0.0011870    -0.0003475   -0.0010008     0.0082785   -0.1687940 
   0.118279565    -0.7026703   -0.0741132    -0.0002209   -0.0007525    -0.0003820   -0.0008281     0.0078417   -0.1681926 
   0.118379590    -0.7019791   -0.0718857    -0.0006346   -0.0005817    -0.0002650   -0.0008206     0.0075412   -0.1681822 
   0.118479615    -0.7023464   -0.0719656    -0.0005360   -0.0014193    -0.0001620   -0.0007597     0.0077612   -0.1679541 
   0.118579640    -0.6998519   -0.0711060    -0.0004039   -0.0002797    -0.0003884   -0.0007597     0.0075306   -0.1679608 
   0.118679665    -0.7024108   -0.0684149    -0.0004106   -0.0011890    -0.0004435   -0.0007409     0.0077699   -0.1677776 
   0.118779690    -0.7027506   -0.0687370    -0.0001604   -0.0008737    -0.0002846   -0.0007514     0.0076780   -0.1682693 
   0.118879715    -0.7016025   -0.0656190    -0.0003616   -0.0007331    -0.0005823   -0.0006526     0.0076872   -0.1682291 
   0.118979740    -0.6986703   -0.0672571    -0.0005549   -0.0008240    -0.0003918   -0.0008876     0.0078210   -0.1675749 
   0.119079765    -0.7057453   -0.0686490    -0.0002596   -0.0007404    -0.0005976   -0.0008187     0.0073065   -0.1673700 
   0.119179790    -0.7022505   -0.0636314    -0.0010502   -0.0011735    -0.0002698   -0.0009587     0.0075171   -0.1676739 
   0.119279815    -0.7026183   -0.0604645    -0.0010253   -0.0005871    -0.0006801   -0.0008756     0.0072314   -0.1673051 
   0.119379840    -0.7050422   -0.0598324    -0.0001218   -0.0009522    -0.0004231   -0.0007126     0.0077764   -0.1682552 
   0.119479865    -0.7009046   -0.0604922    -0.0004026   -0.0006337    -0.0006276   -0.0010909     0.0074205   -0.1679796 
   0.119579890    -0.7037081   -0.0575196    -0.0002686   -0.0006220    -0.0002492   -0.0007800     0.0072488   -0.1675645 
   0.119679915    -0.7021776   -0.0593549    -0.0005475   -0.0006858    -0.0003726   -0.0007264     0.0063488   -0.1674767 
   0.119779940    -0.7048503   -0.0544619    -0.0005287   -0.0004383    -0.0003215   -0.0006875     0.0070352   -0.1677329 
   0.119879965    -0.7035646   -0.0529646    -0.0005366   -0.0008086    -0.0002576   -0.0010003     0.0064856   -0.1668231 
   0.119979990    -0.7034401   -0.0513858    -0.0004735   -0.0006674    -0.0005425   -0.0005373     0.0070469   -0.1675737 
   0.120080015    -0.7012516   -0.0523832    -0.0003141   -0.0005452    -0.0005901   -0.0008424     0.0064567   -0.1672773 
   0.120180040    -0.7045963   -0.0538736    -0.0005392   -0.0008839    -0.0004500   -0.0006588     0.0068430   -0.1668894 
   0.120280065    -0.7006102   -0.0506456    -0.0007498   -0.0003745    -0.0002895   -0.0007884     0.0066094   -0.1676262 
   0.120380090    -0.7037482   -0.0486242    -0.0007679   -0.0009567    -0.0000442   -0.0009559     0.0065848   -0.1673291 
   0.120480115    -0.7007352   -0.0533687    -0.0002929   -0.0012101    -0.0004156   -0.0009367     0.0068059   -0.1673695 
   0.120580140    -0.7001152   -0.0484597    -0.0000962   -0.0008990    -0.0004950   -0.0008469     0.0059366   -0.1676044 
   0.120680165    -0.7013125   -0.0514390    -0.0006483   -0.0009083    -0.0004521   -0.0005529     0.0058641   -0.1676536 
   0.120780190    -0.7037241   -0.0400886    -0.0006736   -0.0006430    -0.0009849   -0.0009581     0.0062717   -0.1674187 
   0.120880215    -0.7009947   -0.0437939    -0.0006764   -0.0009291    -0.0002320   -0.0010300     0.0057991   -0.1673953 
   0.120980240    -0.7006049   -0.0416070    -0.0003021   -0.0011043    -0.0002379   -0.0008076     0.0054821   -0.1670729 
   0.121080265    -0.7035025   -0.0430529    -0.0001917   -0.0006354    -0.0003860   -0.0007899     0.0054733   -0.1670399 
   0.121180290    -0.7002407   -0.0407532    -0.0008545   -0.0001986    -0.0002290   -0.0010920     0.0055229   -0.1669860 
   0.121280315    -0.7019666   -0.0403769    -0.0001759   -0.0010239    -0.0004407   -0.0008657     0.0054126   -0.1667891 
   0.121380340    -0.7023351   -0.0429137    -0.0002697   -0.0008172    -0.0004393   -0.0008908     0.0059220   -0.1669407 
   0.121480365    -0.7021625   -0.0338139    -0.0002075   -0.0008466    -0.0004809   -0.0008295     0.0052597   -0.1669058 
   0.121580390    -0.7048153   -0.0366927    -0.0006743   -0.0003827    -0.0004567   -0.0009371     0.0051494   -0.1664161 
   0.121680415    -0.7060778   -0.0367941    -0.0006229   -0.0008157    -0.0006026   -0.0003831     0.0054116   -0.1673269 
   0.121780440    -0.7068056   -0.0337364    -0.0005026   -0.0007557    -0.0001922   -0.0005291     0.0050587   -0.1665159 
   0.121880465    -0.7040133   -0.0319602    -0.0006056   -0.0009517    -0.0006985   -0.0006320     0.0057925   -0.1657277 
   0.121980490    -0.6995324   -0.0274376    -0.0008492   -0.0005468    -0.0002192   -0.0009904     0.0049871   -0.1669815 
   0.122080515    -0.6991705   -0.0317077    -0.0003799   -0.0007580    -0.0005061   -0.0007886     0.0050994   -0.1659544 
   0.122180540    -0.7026919   -0.0312849    -0.0005617   -0.0011143    -0.0003965   -0.0007880     0.0049246   -0.1658197 
   0.122280565    -0.7014478   -0.0243585    -0.0003611   -0.0006012    -0.0003144   -0.0008033     0.0049103   -0.1666079 
   0.122380590    -0.6990925   -0.0260181    -0.0002783   -0.0012279    -0.0002735   -0.0010510     0.0048752   -0.1662361 
   0.122480615    -0.7029433   -0.0240039    -0.0002504   -0.0007860    -0.0002522   -0.0004864     0.0052254   -0.1659706 
   0.122580640    -0.7022179   -0.0264889    -0.0006290   -0.0009597    -0.0004192   -0.0010032     0.0051377   -0.1666067 
   0.122680665    -0.7022309   -0.0229366    -0.0005654   -0.0005469    -0.0002256   -0.0006049     0.0044676   -0.1659952 
   0.122780690    -0.7035257   -0.0254784    -0.0001879   -0.0007249    -0.0005601   -0.0008587     0.0044362   -0.1659647 
   0.122880715    -0.7077107   -0.0230902    -0.0007915   -0.0006504    -0.0005473   -0.0005099     0.0045391   -0.1661653 
   0.122980740    -0.7002043   -0.0185048    -0.0003288   -0.0012294    -0.0006487   -0.0005520     0.0048063   -0.1662743 
   0.123080765    -0.6984003   -0.0232940    -0.0003559   -0.0008161    -0.0003903   -0.0006885     0.0043485   -0.1662248 
   0.123180790    -0.6982453   -0.0160063    -0.0006330   -0.0008859    -0.0003103   -0.0005299     0.0043447   -0.1656842 
   0.123280815    -0.6991570   -0.0148645    -0.0007876   -0.0008642    -0.0004374   -0.0010746     0.0042738   -0.1656915 
   0.123380840    -0.7057964   -0.0157692    -0.0005265   -0.0008209    -0.0003843   -0.0008882     0.0043621   -0.1657829 
   0.123480865    -0.7056541   -0.0189062    -0.0002967   -0.0007256    -0.0003955   -0.0010852     0.0035806   -0.1653515 
   0.123580890    -0.7048642   -0.0159533    -0.0007092   -0.0011489    -0.0005998   -0.0008889     0.0036610   -0.1658842 
   0.123680915    -0.7030369   -0.0172609    -0.0006364   -0.0007238    -0.0003524   -0.0006313     0.0039087   -0.1655284 
   0.123780940    -0.7057600   -0.0101269    -0.0005259   -0.0009703    -0.0004330   -0.0010051     0.0038577   -0.1658131 
   0.123880965    -0.7030872   -0.0078560    -0.0003419   -0.0008754    -0.0004986   -0.0006612     0.0036668   -0.1660935 
   0.123980990    -0.6986918   -0.0127276    -0.0005894   -0.0004451    -0.0007414   -0.0005037     0.0034795   -0.1656119 
   0.124081016    -0.6999046   -0.0103068    -0.0008376   -0.0009238    -0.0002350   -0.0008379     0.0038976   -0.1657588 
   0.124181041    -0.7013997   -0.0101527    -0.0004695   -0.0006046    -0.0004307   -0.0009882     0.0030062   -0.1652371 
   0.124281066    -0.7016426   -0.0084066    -0.0002909   -0.0001900    -0.0005880   -0.0008561     0.0033625   -0.1653774 
   0.124381091    -0.7002078   -0.0108246    -0.0006709   -0.0010679    -0.0005638   -0.0008269     0.0037473   -0.1654653 
   0.124481116    -0.6991339   -0.0083712    -0.0003725   -0.0008619    -0.0004619   -0.0010558     0.0029627   -0.1650126 
   0.124581141    -0.6965895   -0.0016612    -0.0004237   -0.0000183    -0.0004099   -0.0009687     0.0031902   -0.1651746 
   0.124681166    -0.7021523   -0.0005026    -0.0005044   -0.0006082    -0.0004075   -0.0008622     0.0029138   -0.1651304 
   0.124781191    -0.7018693   -0.0008660    -0.0002076   -0.0005880    -0.0005835   -0.0009363     0.0027756   -0.1655189 
   0.124881216    -0.6941355   -0.0016812    -0.0006898   -0.0011166    -0.0004569   -0.0008687     0.0030614   -0.1648166 
   0.124981241    -0.7035037    0.0018805    -0.0005202   -0.0004836    -0.0005835   -0.0011092     0.0029299   -0.1648164 
   0.125081266    -0.7021859    0.0005094     0.0004153   -0.0010147    -0.0004958   -0.0011679     0.0032691   -0.1643315 
   0.125181291    -0.6965587    0.0050802    -0.0003730   -0.0009022    -0.0003551   -0.0006393     0.0028824   -0.1647473 
   0.125281316    -0.7023489    0.0046747    -0.0005322   -0.0006507    -0.0003523   -0.0007119     0.0027568   -0.1654182 
   0.125381341    -0.6973030    0.0045100    -0.0006538   -0.0004247    -0.0005091   -0.0009637     0.0028865   -0.1651302 
   0.125481366    -0.6975188    0.0039819    -0.0005665   -0.0010565    -0.0007586   -0.0008445     0.0026853   -0.1654040 
   0.125581391    -0.6991341    0.0035806    -0.0003999   -0.0001850    -0.0004313   -0.0006455     0.0018991   -0.1654227 
   0.125681416    -0.6985982    0.0095276    -0.0006458   -0.0009140    -0.0003338   -0.0004128     0.0026457   -0.1645432 
   0.125781441    -0.7012919    0.0059060    -0.0005115   -0.0003966    -0.0006171   -0.0005515     0.0020388   -0.1650834 
   0.125881466    -0.7010422    0.0098741    -0.0006929   -0.0008211    -0.0007100   -0.0010363     0.0025788   -0.1647955 
   0.125981491    -0.6988047    0.0111940    -0.0008248   -0.0010639    -0.0003876   -0.0009265     0.0019572   -0.1641669 
   0.126081516    -0.6951429    0.0085125    -0.0000669   -0.0008144    -0.0006880   -0.0004403     0.0013192   -0.1644192 
   0.126181541    -0.6979154    0.0137301    -0.0009217   -0.0006249    -0.0005822   -0.0006021     0.0018871   -0.1646628 
   0.126281566    -0.6993319    0.0155877    -0.0001013   -0.0005958    -0.0004598   -0.0006948     0.0022685   -0.1646978 
   0.126381591    -0.7015145    0.0140294    -0.0002673   -0.0008737    -0.0004403   -0.0006667     0.0013855   -0.1645854 
   0.126481616    -0.6983868    0.0175179    -0.0006599   -0.0013797    -0.0006129   -0.0005556     0.0020709   -0.1645355 
   0.126581641    -0.7002746    0.0191357    -0.0001700   -0.0010955    -0.0007130   -0.0004983     0.0017180   -0.1646812 
   0.126681666    -0.7002103    0.0204551    -0.0006530   -0.0007585    -0.0004297   -0.0007335     0.0016937   -0.1645239 
   0.126781691    -0.7012314    0.0190703    -0.0004441   -0.0009945    -0.0006674   -0.0007361     0.0017428   -0.1642845 
   0.126881716    -0.6981432    0.0196392    -0.0006237   -0.0008941    -0.0005171   -0.0012519     0.0012699   -0.1641567 
   0.126981741    -0.7010962    0.0233533    -0.0001658   -0.0008813    -0.0004127   -0.0008750     0.0010554   -0.1644081 
   0.127081766    -0.6999452    0.0250283    -0.0004695   -0.0011119    -0.0003115   -0.0006105     0.0007215   -0.1636958 
   0.127181791    -0.6993463    0.0238805    -0.0003386   -0.0012788    -0.0003832   -0.0008660     0.0009591   -0.1641244 
   0.127281816    -0.6971076    0.0263959    -0.0006224   -0.0005792    -0.0004305   -0.0008235     0.0012176   -0.1640292 
   0.127381841    -0.6969537    0.0298319    -0.0000553   -0.0010194    -0.0008010   -0.0003662     0.0004831   -0.1641795 
   0.127481866    -0.6972473    0.0251323    -0.0006082   -0.0006961    -0.0005038   -0.0005646     0.0012231   -0.1640547 
   0.127581891    -0.7018467    0.0264576    -0.0003128   -0.0009677    -0.0005898   -0.0009718     0.0008022   -0.1636216 
   0.127681916    -0.6995488    0.0308914    -0.0005763   -0.0011662    -0.0004921   -0.0009716     0.0006116   -0.1642400 
   0.127781941    -0.6990721    0.0309772    -0.0001202   -0.0006194    -0.0004579   -0.0009955     0.0007938   -0.1638709 
   0.127881966    -0.6963214    0.0267907    -0.0005446   -0.0013034    -0.0003067   -0.0006050     0.0005299   -0.1634613 
   0.127981991    -0.7006406    0.0312984    -0.0004422   -0.0008036    -0.0004464   -0.0008479     0.0005271   -0.1634624 
   0.128082016    -0.7010814    0.0320960    -0.0003112   -0.0004833    -0.0003372   -0.0003482     0.0006611   -0.1634680 
   0.128182041    -0.7042245    0.0303757    -0.0004477   -0.0006626    -0.0006457   -0.0008376     0.0005073   -0.1640882 
   0.128282066    -0.6968576    0.0370485    -0.0004950   -0.0009320    -0.0005214   -0.0005290     0.0003534   -0.1638195 
   0.128382091    -0.6979782    0.0360710    -0.0010530   -0.0013459    -0.0007986   -0.0007881    -0.0003091   -0.1635085 
   0.128482116    -0.6992142    0.0373996    -0.0007178   -0.0006108    -0.0004362   -0.0008273    -0.0003354   -0.1637582 
   0.128582141    -0.6968985    0.0392099    -0.0009048   -0.0004925    -0.0007919   -0.0011841     0.0002065   -0.1633616 
   0.128682166    -0.6953948    0.0395330    -0.0004463   -0.0008853    -0.0003270   -0.0008433     0.0001124   -0.1636023 
   0.128782191    -0.6945033    0.0395829    -0.0008428   -0.0007149    -0.0003754   -0.0008729     0.0001181   -0.1634434 
   0.128882216    -0.6970288    0.0400816    -0.0001843   -0.0007199    -0.0005983   -0.0007475    -0.0002207   -0.1636055 
   0.128982241    -0.6969779    0.0465571    -0.0006183   -0.0009587    -0.0008619   -0.0007401    -0.0006259   -0.1632704 
   0.129082266    -0.6960021    0.0435442    -0.0000289   -0.0008018    -0.0007413   -0.0007115    -0.0001958   -0.1635068 
   0.129182291    -0.6999574    0.0454088    -0.0006348   -0.0008914    -0.0005348   -0.0006822    -0.0004604   -0.1633064 
   0.129282316    -0.6944143    0.0506331    -0.0003350   -0.0009664    -0.0003669   -0.0008301    -0.0002249   -0.1631895 
   0.129382341    -0.6958100    0.0485263    -0.0008667   -0.0006194    -0.0007231   -0.0006452    -0.0012007   -0.1632569 
   0.129482366    -0.6945193    0.0493884    -0.0004254   -0.0007548    -0.0004488   -0.0006568    -0.0001579   -0.1630141 
   0.129582391    -0.6998198    0.0476074    -0.0006328   -0.0010673    -0.0007524   -0.0009281    -0.0003612   -0.1632036 
   0.129682416    -0.6951559    0.0514373    -0.0007716   -0.0006867    -0.0003964   -0.0006435    -0.0007962   -0.1623697 
   0.129782441    -0.6930444    0.0526640    -0.0003324   -0.0003781    -0.0005245   -0.0006833    -0.0003830   -0.1629622 
   0.129882466    -0.6969159    0.0527385    -0.0004028   -0.0010188    -0.0004467   -0.0010343    -0.0014021   -0.1626559 
   0.129982491    -0.6968912    0.0552586    -0.0005847   -0.0004279    -0.0004484   -0.0007610    -0.0005114   -0.1626051 
   0.130082516    -0.6997840    0.0548146    -0.0010640   -0.0008547    -0.0006111   -0.0007652    -0.0011507   -0.1627741 
   0.130182541    -0.6963286    0.0542449    -0.0006364   -0.0009118    -0.0007634   -0.0007585    -0.0013023   -0.1628956 
   0.130282566    -0.6933567    0.0569370    -0.0004161   -0.0004547    -0.0009300   -0.0007619    -0.0014678   -0.1632281 
   0.130382591    -0.6912968    0.0535875    -0.0004679   -0.0005369    -0.0004385   -0.0005384    -0.0015262   -0.1624565 
   0.130482616    -0.6931286    0.0579191    -0.0002514   -0.0010493    -0.0007434   -0.0009129    -0.0020025   -0.1624471 
   0.130582641    -0.6960348    0.0607275    -0.0000391   -0.0002068    -0.0004018   -0.0004914    -0.0016716   -0.1621225 
   0.130682666    -0.6929127    0.0620142    -0.0001190   -0.0009257    -0.0005784   -0.0006813    -0.0017592   -0.1623279 
   0.130782691    -0.6976005    0.0602030    -0.0007142   -0.0005848    -0.0007120   -0.0006526    -0.0017765   -0.1621051 
   0.130882716    -0.6907293    0.0654742    -0.0003510   -0.0010639    -0.0007444   -0.0012153    -0.0020297   -0.1620185 
   0.130982741    -0.6966314    0.0628872    -0.0002597   -0.0004710    -0.0006313   -0.0010890    -0.0020192   -0.1624073 
   0.131082766    -0.6963621    0.0591250    -0.0005527   -0.0010953    -0.0007011   -0.0007092    -0.0016932   -0.1622316 
   0.131182791    -0.6892431    0.0615589    -0.0004649   -0.0010753    -0.0005903   -0.0007289    -0.0018678   -0.1622486 
   0.131282816    -0.6924151    0.0693236    -0.0007743   -0.0001029    -0.0003080   -0.0007065    -0.0018386   -0.1618680 
   0.131382841    -0.6932396    0.0654497    -0.0006297   -0.0002750    -0.0005895   -0.0011038    -0.0018766   -0.1626558 
   0.131482866    -0.6924785    0.0714684    -0.0003502   -0.0011000    -0.0005699   -0.0008293    -0.0021575   -0.1622788 
   0.131582891    -0.6935689    0.0699453    -0.0002919   -0.0007567    -0.0007630   -0.0009095    -0.0026856   -0.1619484 
   0.131682916    -0.6938584    0.0693824    -0.0004470   -0.0011597    -0.0006195   -0.0009631    -0.0024914   -0.1617465 
   0.131782941    -0.6897463    0.0690470    -0.0010336   -0.0010753    -0.0006182   -0.0009026    -0.0024329   -0.1622046 
   0.131882966    -0.6922416    0.0732473    -0.0005588   -0.0007038    -0.0005463   -0.0006196    -0.0021916   -0.1619363 
   0.131982991    -0.6897017    0.0718893    -0.0007991   -0.0004690    -0.0003273   -0.0010300    -0.0030239   -0.1618964 
   0.132083017    -0.6869731    0.0754993    -0.0004851   -0.0008799    -0.0007893   -0.0007522    -0.0030958   -0.1615387 
   0.132183042    -0.6935402    0.0793496    -0.0003181   -0.0007687    -0.0007257   -0.0008890    -0.0033280   -0.1617029 
   0.132283067    -0.6896195    0.0785094    -0.0010231   -0.0006016    -0.0004272   -0.0005768    -0.0030291   -0.1618661 
   0.132383092    -0.6891458    0.0804510    -0.0008450   -0.0005831    -0.0008146   -0.0008172    -0.0030118   -0.1622353 
   0.132483117    -0.6908444    0.0804697    -0.0003986   -0.0006168    -0.0006539   -0.0007918    -0.0034425   -0.1612895 
   0.132583142    -0.6882082    0.0833915    -0.0008622   -0.0007729    -0.0006545   -0.0006207    -0.0033126   -0.1612081 
   0.132683167    -0.6913710    0.0833841    -0.0005474   -0.0003694    -0.0005822   -0.0005724    -0.0029596   -0.1616165 
   0.132783192    -0.6884313    0.0818088    -0.0002377   -0.0006870    -0.0007036   -0.0008264    -0.0038324   -0.1616961 
   0.132883217    -0.6885655    0.0895772    -0.0007346   -0.0008813    -0.0006793   -0.0008496    -0.0032243   -0.1616016 
   0.132983242    -0.6896263    0.0837722    -0.0007654   -0.0008621    -0.0005486   -0.0006279    -0.0033135   -0.1615525 
   0.133083267    -0.6897435    0.0883571    -0.0008372   -0.0009722    -0.0008314   -0.0007853    -0.0035714   -0.1615603 
   0.133183292    -0.6913394    0.0857853    -0.0008677   -0.0004764    -0.0004998   -0.0007868    -0.0033519   -0.1611104 
   0.133283317    -0.6881803    0.0837129    -0.0003712   -0.0005471    -0.0003004   -0.0008560    -0.0040773   -0.1610134 
   0.133383342    -0.6914669    0.0887837    -0.0006809   -0.0011091    -0.0005933   -0.0005326    -0.0038164   -0.1614523 
   0.133483367    -0.6891198    0.0884958    -0.0005477   -0.0009499    -0.0007768   -0.0003670    -0.0039218   -0.1613472 
   0.133583392    -0.6879064    0.0889606    -0.0006098   -0.0004493    -0.0005942   -0.0008243    -0.0038178   -0.1614632 
   0.133683417    -0.6863251    0.0924637    -0.0007234   -0.0002720    -0.0005550   -0.0008129    -0.0040722   -0.1615788 
   0.133783442    -0.6896396    0.0915002    -0.0007182   -0.0011653    -0.0007501   -0.0005130    -0.0043596   -0.1614750 
   0.133883467    -0.6869570    0.0905391    -0.0008581   -0.0006540    -0.0007493   -0.0010391    -0.0037216   -0.1613138 
   0.133983492    -0.6859789    0.0898341    -0.0007940   -0.0002287    -0.0007349   -0.0009305    -0.0045926   -0.1610084 
   0.134083517    -0.6838144    0.0933283    -0.0002881   -0.0004643    -0.0008363   -0.0007447    -0.0046102   -0.1604342 
   0.134183542    -0.6881229    0.0920853    -0.0011025   -0.0005977    -0.0004273   -0.0010144    -0.0043087   -0.1609902 
   0.134283567    -0.6888329    0.0998111    -0.0004343   -0.0008820    -0.0006913   -0.0008506    -0.0041954   -0.1610347 
   0.134383592    -0.6890274    0.1010101    -0.0004747   -0.0004869    -0.0007948   -0.0007401    -0.0045131   -0.1608065 
   0.134483617    -0.6847275    0.0975172    -0.0003858   -0.0009902    -0.0007156   -0.0009427    -0.0045010   -0.1607604 
   0.134583642    -0.6872560    0.1031193    -0.0009536   -0.0008991    -0.0007288   -0.0007855    -0.0046157   -0.1607315 
   0.134683667    -0.6856076    0.0983100    -0.0004712   -0.0005123    -0.0006658   -0.0005587    -0.0042480   -0.1607649 
   0.134783692    -0.6844467    0.1028231    -0.0007279   -0.0011000    -0.0004966   -0.0007635    -0.0049568   -0.1604450 
   0.134883717    -0.6845626    0.1050621    -0.0005435   -0.0005941    -0.0006514   -0.0007970    -0.0049546   -0.1604252 
   0.134983742    -0.6848180    0.1033549    -0.0005984   -0.0005183    -0.0002673   -0.0009652    -0.0054917   -0.1604473 
   0.135083767    -0.6837932    0.1039776    -0.0009939   -0.0003870    -0.0006299   -0.0007653    -0.0049891   -0.1606417 
   0.135183792    -0.6879779    0.1060963    -0.0001433   -0.0008751    -0.0008595   -0.0006062    -0.0053363   -0.1601330 
   0.135283817    -0.6863037    0.1027359    -0.0006446   -0.0005547    -0.0007346   -0.0007387    -0.0054047   -0.1606641 
   0.135383842    -0.6803214    0.1069841    -0.0003884   -0.0011946    -0.0002088   -0.0006833    -0.0056372   -0.1603040 
   0.135483867    -0.6820268    0.1059543    -0.0010097   -0.0005087    -0.0007641   -0.0004817    -0.0051533   -0.1607433 
   0.135583892    -0.6833026    0.1098365    -0.0005201   -0.0012594    -0.0005783   -0.0007017    -0.0047121   -0.1607016 
   0.135683917    -0.6852888    0.1131856    -0.0005078   -0.0007931    -0.0005309   -0.0006154    -0.0055717   -0.1606024 
   0.135783942    -0.6877749    0.1136694    -0.0003070   -0.0011314    -0.0005748   -0.0004545    -0.0056872   -0.1604592 
   0.135883967    -0.6824777    0.1121655    -0.0005298   -0.0008409    -0.0006342   -0.0006076    -0.0055778   -0.1600068 
   0.135983992    -0.6842806    0.1169843    -0.0006113   -0.0008849    -0.0007556   -0.0008241    -0.0055395   -0.1605748 
   0.136084017    -0.6807118    0.1160707    -0.0003861   -0.0008781    -0.0007752   -0.0006908    -0.0056388   -0.1604320 
   0.136184042    -0.6830512    0.1168146    -0.0000537   -0.0006700    -0.0006562   -0.0008559    -0.0058216   -0.1604115 
   0.136284067    -0.6814682    0.1123628    -0.0009995   -0.0009091    -0.0006390   -0.0005712    -0.0059213   -0.1598668 
   0.136384092    -0.6864753    0.1176159    -0.0006866   -0.0004866    -0.0006720   -0.0007853    -0.0066733   -0.1597628 
   0.136484117    -0.6807328    0.1169120    -0.0002431   -0.0006676    -0.0008510   -0.0005961    -0.0062770   -0.1603346 
   0.136584142    -0.6814927    0.1213276    -0.0009557   -0.0005557    -0.0005949   -0.0007258    -0.0060019   -0.1599224 
   0.136684167    -0.6844339    0.1203377    -0.0012302   -0.0010723    -0.0007947   -0.0005766    -0.0063472   -0.1600884 
   0.136784192    -0.6770201    0.1236328    -0.0009432   -0.0008078    -0.0005981   -0.0008343    -0.0061656   -0.1594871 
   0.136884217    -0.6806988    0.1234591    -0.0005633   -0.0006253    -0.0007407   -0.0008435    -0.0069288   -0.1599829 
   0.136984242    -0.6824109    0.1259523    -0.0008218   -0.0007589    -0.0006655   -0.0006281    -0.0070908   -0.1598221 
   0.137084267    -0.6818723    0.1246165    -0.0009783   -0.0014182    -0.0006992   -0.0004820    -0.0071791   -0.1598680 
   0.137184292    -0.6789998    0.1306318    -0.0008025   -0.0007539    -0.0006566   -0.0008389    -0.0074140   -0.1596171 
   0.137284317    -0.6799331    0.1279955    -0.0007677   -0.0001071    -0.0006938   -0.0007299    -0.0069948   -0.1591240 
   0.137384342    -0.6766650    0.1302802    -0.0009229   -0.0008341    -0.0007057   -0.0006005    -0.0066022   -0.1597063 
   0.137484367    -0.6787195    0.1340986    -0.0007862   -0.0003846    -0.0006256   -0.0006915    -0.0070695   -0.1598341 
   0.137584392    -0.6832302    0.1286899    -0.0005431   -0.0008293    -0.0005066   -0.0006524    -0.0067038   -0.1594789 
   0.137684417    -0.6813676    0.1310389    -0.0007647   -0.0006022    -0.0005946   -0.0006328    -0.0070056   -0.1592855 
   0.137784442    -0.6794074    0.1332250    -0.0003876   -0.0008920    -0.0009160   -0.0007426    -0.0070081   -0.1594384 
   0.137884467    -0.6765770    0.1296404    -0.0004942   -0.0008336    -0.0007044   -0.0009116    -0.0073795   -0.1601845 
   0.137984492    -0.6772007    0.1329642    -0.0003947   -0.0013129    -0.0005525   -0.0008981    -0.0075398   -0.1593124 
   0.138084517    -0.6788948    0.1379565    -0.0004589   -0.0008750    -0.0006755   -0.0007448    -0.0071130   -0.1591777 
   0.138184542    -0.6749395    0.1380888    -0.0011530   -0.0005985    -0.0007295   -0.0006499    -0.0074395   -0.1593323 
   0.138284567    -0.6758732    0.1364051    -0.0008644   -0.0005234    -0.0008233   -0.0005035    -0.0076667   -0.1589516 
   0.138384592    -0.6764618    0.1404120    -0.0010734   -0.0009558    -0.0008788   -0.0008058    -0.0078172   -0.1589768 
   0.138484617    -0.6774449    0.1395445    -0.0005805   -0.0007159    -0.0006248   -0.0009092    -0.0073769   -0.1591112 
   0.138584642    -0.6754740    0.1406567    -0.0002437   -0.0008530    -0.0005950   -0.0005708    -0.0078969   -0.1592072 
   0.138684667    -0.6810670    0.1402260    -0.0003851   -0.0002854    -0.0003941   -0.0009238    -0.0078861   -0.1588559 
   0.138784692    -0.6775292    0.1405791    -0.0006043   -0.0006624    -0.0008132   -0.0005986    -0.0081965   -0.1594009 
   0.138884717    -0.6758883    0.1423258    -0.0002331   -0.0007485    -0.0008358   -0.0007642    -0.0078063   -0.1590063 
   0.138984742    -0.6733098    0.1431595    -0.0007313   -0.0010294    -0.0009785   -0.0006780    -0.0081117   -0.1586842 
   0.139084767    -0.6773612    0.1438226    -0.0006590   -0.0005151    -0.0006116   -0.0007540    -0.0082813   -0.1588928 
   0.139184792    -0.6734467    0.1431143    -0.0008352   -0.0005304    -0.0007431   -0.0007832    -0.0085228   -0.1588298 
   0.139284817    -0.6761530    0.1477679    -0.0004152   -0.0011159    -0.0009250   -0.0008848    -0.0081220   -0.1587473 
   0.139384842    -0.6778008    0.1461586    -0.0008017   -0.0004307    -0.0008642   -0.0006160    -0.0085895   -0.1588069 
   0.139484867    -0.6767328    0.1497674    -0.0009555   -0.0008558    -0.0007716   -0.0008522    -0.0086116   -0.1585597 
   0.139584892    -0.6733429    0.1496938    -0.0006401   -0.0004296    -0.0005325   -0.0005495    -0.0079143   -0.1583467 
   0.139684917    -0.6719806    0.1511070    -0.0005871   -0.0011401    -0.0008706   -0.0008073    -0.0089487   -0.1592652 
   0.139784942    -0.6747385    0.1512773    -0.0008572   -0.0006828    -0.0006142   -0.0007713    -0.0087472   -0.1591090 
   0.139884967    -0.6756648    0.1512335    -0.0006841   -0.0007223    -0.0005228   -0.0006223    -0.0088598   -0.1587274 
   0.139984992    -0.6722830    0.1577610    -0.0011130   -0.0006958    -0.0006793   -0.0005144    -0.0087717   -0.1587662 
   0.140085018    -0.6722120    0.1516411    -0.0002156   -0.0010936    -0.0008571   -0.0006432    -0.0085037   -0.1582757 
   0.140185043    -0.6730579    0.1520208    -0.0009306   -0.0010060    -0.0008318   -0.0007282    -0.0092798   -0.1582920 
   0.140285068    -0.6729144    0.1540043    -0.0004532   -0.0004303    -0.0008041   -0.0006815    -0.0087810   -0.1582845 
   0.140385093    -0.6740981    0.1561453    -0.0007807   -0.0005035    -0.0006322   -0.0007145    -0.0088499   -0.1584856 
   0.140485118    -0.6714487    0.1580682    -0.0008007   -0.0010716    -0.0005867   -0.0009444    -0.0095156   -0.1576889 
   0.140585143    -0.6763598    0.1628575    -0.0010994   -0.0008514    -0.0006226   -0.0006210    -0.0090898   -0.1584245 
   0.140685168    -0.6708198    0.1551109    -0.0006767   -0.0009419    -0.0006620   -0.0008878    -0.0094750   -0.1583209 
   0.140785193    -0.6692703    0.1597993    -0.0005135   -0.0004707    -0.0004916   -0.0008463    -0.0093680   -0.1577258 
   0.140885218    -0.6725506    0.1625055    -0.0003666   -0.0004199    -0.0007749   -0.0006883    -0.0094234   -0.1579129 
   0.140985243    -0.6680695    0.1570786    -0.0006542   -0.0006245    -0.0008386   -0.0009465    -0.0098406   -0.1583945 
   0.141085268    -0.6738253    0.1626954    -0.0008594   -0.0006827    -0.0005031   -0.0006556    -0.0095454   -0.1583410 
   0.141185293    -0.6677197    0.1663240    -0.0006490   -0.0006994    -0.0007210   -0.0005455    -0.0097382   -0.1575308 
   0.141285318    -0.6672668    0.1641455    -0.0008954   -0.0009598    -0.0007108   -0.0005817    -0.0100216   -0.1578690 
   0.141385343    -0.6708066    0.1709155    -0.0009150   -0.0010725    -0.0006156   -0.0008259    -0.0102346   -0.1578329 
   0.141485368    -0.6685939    0.1685706    -0.0005836   -0.0010940    -0.0007183   -0.0006829    -0.0100080   -0.1581310 
   0.141585393    -0.6688609    0.1672399    -0.0008582   -0.0008506    -0.0008025   -0.0005740    -0.0101020   -0.1579947 
   0.141685418    -0.6705788    0.1698665    -0.0007860   -0.0005382    -0.0006026   -0.0007205    -0.0102189   -0.1577075 
   0.141785443    -0.6671936    0.1729734    -0.0003579   -0.0006732    -0.0009178   -0.0005606    -0.0103093   -0.1572838 
   0.141885468    -0.6670029    0.1707797    -0.0004569   -0.0008593    -0.0008495   -0.0005460    -0.0100635   -0.1575625 
   0.141985493    -0.6688811    0.1712583    -0.0008269   -0.0012700    -0.0004051   -0.0006744    -0.0107663   -0.1578251 
   0.142085518    -0.6694561    0.1706799    -0.0008360   -0.0011241    -0.0010080   -0.0007846    -0.0109878   -0.1576316 
   0.142185543    -0.6633778    0.1765608    -0.0008700   -0.0009742    -0.0006013   -0.0005905    -0.0107973   -0.1577416 
   0.142285568    -0.6674114    0.1735117    -0.0012538   -0.0005797    -0.0005927   -0.0007172    -0.0109978   -0.1577569 
   0.142385593    -0.6665996    0.1751442    -0.0010910   -0.0005870    -0.0008080   -0.0008546    -0.0110729   -0.1574594 
   0.142485618    -0.6650866    0.1794212    -0.0008078   -0.0008605    -0.0007797   -0.0006973    -0.0110886   -0.1575009 
   0.142585643    -0.6661564    0.1752639    -0.0007703   -0.0003284    -0.0007559   -0.0006805    -0.0108861   -0.1573604 
   0.142685668    -0.6626366    0.1748310    -0.0008648   -0.0009456    -0.0007012   -0.0008441    -0.0111090   -0.1574263 
   0.142785693    -0.6648536    0.1787339    -0.0012514   -0.0010409    -0.0006511   -0.0008651    -0.0110214   -0.1572405 
   0.142885718    -0.6650732    0.1785075    -0.0008512   -0.0008235    -0.0008219   -0.0006606    -0.0114858   -0.1573390 
   0.142985743    -0.6638312    0.1834878    -0.0006156   -0.0006401    -0.0009077   -0.0006925    -0.0112890   -0.1575038 
   0.143085768    -0.6682218    0.1777384    -0.0003890   -0.0007577    -0.0008081   -0.0006322    -0.0115369   -0.1572510 
   0.143185793    -0.6572472    0.1822818    -0.0003933   -0.0007250    -0.0006132   -0.0007413    -0.0115741   -0.1574033 
   0.143285818    -0.6638439    0.1816359    -0.0010534   -0.0006923    -0.0007407   -0.0003905    -0.0117405   -0.1571522 
   0.143385843    -0.6632852    0.1810241    -0.0006322   -0.0007598    -0.0008220   -0.0007344    -0.0117046   -0.1570156 
   0.143485868    -0.6655290    0.1855330    -0.0008996   -0.0005883    -0.0010487   -0.0007584    -0.0113780   -0.1567302 
   0.143585893    -0.6628086    0.1878282    -0.0010023   -0.0008571    -0.0006941   -0.0007418    -0.0124804   -0.1568897 
   0.143685918    -0.6605067    0.1885749    -0.0011278   -0.0006794    -0.0007428   -0.0008524    -0.0122916   -0.1568065 
   0.143785943    -0.6612557    0.1871303    -0.0009838   -0.0005277    -0.0008894   -0.0007863    -0.0121556   -0.1572422 
   0.143885968    -0.6662967    0.1868705    -0.0005116   -0.0004963    -0.0005835   -0.0007954    -0.0118164   -0.1572423 
   0.143985993    -0.6632758    0.1902926    -0.0006289   -0.0006491    -0.0007429   -0.0005958    -0.0120110   -0.1570399 
   0.144086018    -0.6627713    0.1928730    -0.0007099   -0.0006937    -0.0009343   -0.0006716    -0.0119143   -0.1567476 
   0.144186043    -0.6606848    0.1939393    -0.0007305   -0.0006447    -0.0007803   -0.0005394    -0.0131047   -0.1566993 
   0.144286068    -0.6584086    0.1939473    -0.0008579   -0.0005588    -0.0008781   -0.0007371    -0.0123143   -0.1566943 
   0.144386093    -0.6568806    0.1919549    -0.0012341   -0.0010494    -0.0006961   -0.0009029    -0.0119354   -0.1571608 
   0.144486118    -0.6603897    0.1952163    -0.0005801   -0.0002794    -0.0008939   -0.0006871    -0.0125596   -0.1569724 
   0.144586143    -0.6612669    0.1956461    -0.0011736   -0.0001316    -0.0009362   -0.0008520    -0.0128587   -0.1563765 
   0.144686168    -0.6564761    0.1946070    -0.0008586   -0.0006841    -0.0010078   -0.0007457    -0.0121388   -0.1561438 
   0.144786193    -0.6597653    0.1993053    -0.0009847   -0.0004927    -0.0008970   -0.0005905    -0.0130585   -0.1563229 
   0.144886218    -0.6586187    0.1959843    -0.0008841   -0.0008923    -0.0010608   -0.0007330    -0.0124489   -0.1563729 
   0.144986243    -0.6600136    0.1978483    -0.0004337   -0.0008983    -0.0008220   -0.0007226    -0.0125399   -0.1564540 
   0.145086268    -0.6543407    0.2002144    -0.0007619   -0.0006008    -0.0007226   -0.0009050    -0.0128004   -0.1565749 
   0.145186293    -0.6560508    0.2019106    -0.0006511   -0.0004213    -0.0009948   -0.0005482    -0.0128072   -0.1568303 
   0.145286318    -0.6559168    0.2033307    -0.0007604   -0.0008457    -0.0007521   -0.0007224    -0.0124972   -0.1562569 
   0.145386343    -0.6546223    0.2051446    -0.0009149   -0.0007303    -0.0007813   -0.0006160    -0.0132265   -0.1561906 
   0.145486368    -0.6559548    0.2038534    -0.0007478   -0.0006653    -0.0008599   -0.0005893    -0.0132440   -0.1556711 
   0.145586393    -0.6561137    0.2032175    -0.0008386   -0.0007120    -0.0008110   -0.0006107    -0.0133722   -0.1565160 
   0.145686418    -0.6583883    0.2060265    -0.0010288   -0.0005040    -0.0006721   -0.0004990    -0.0135555   -0.1563531 
   0.145786443    -0.6557890    0.2052455    -0.0011580   -0.0006295    -0.0007238   -0.0007722    -0.0136497   -0.1559225 
   0.145886468    -0.6547350    0.2060898    -0.0010764   -0.0004087    -0.0007761   -0.0008389    -0.0141465   -0.1565175 
   0.145986493    -0.6569632    0.2079972    -0.0007358   -0.0007501    -0.0007374   -0.0006203    -0.0136737   -0.1554430 
   0.146086518    -0.6558049    0.2100961    -0.0008352   -0.0005941    -0.0008763   -0.0006440    -0.0135432   -0.1560827 
   0.146186543    -0.6538678    0.2146085    -0.0014100   -0.0009125    -0.0009242   -0.0006421    -0.0135254   -0.1559442 
   0.146286568    -0.6535287    0.2119163    -0.0008396   -0.0008519    -0.0009388   -0.0008281    -0.0139492   -0.1560958 
   0.146386593    -0.6574485    0.2129161    -0.0010799   -0.0006723    -0.0007565   -0.0006314    -0.0141486   -0.1560989 
   0.146486618    -0.6531928    0.2131691    -0.0009620   -0.0004343    -0.0010081   -0.0007009    -0.0140956   -0.1564126 
   0.146586643    -0.6514490    0.2138008    -0.0006347   -0.0007654    -0.0008148   -0.0007912    -0.0143514   -0.1556349 
   0.146686668    -0.6552785    0.2115884    -0.0009684   -0.0007064    -0.0008761   -0.0008059    -0.0146317   -0.1558660 
   0.146786693    -0.6531914    0.2152381    -0.0010546   -0.0004495    -0.0008684   -0.0006654    -0.0139216   -0.1556258 
   0.146886718    -0.6539168    0.2164924    -0.0007528   -0.0008255    -0.0008968   -0.0006556    -0.0141204   -0.1552280 
   0.146986743    -0.6488727    0.2185334    -0.0013130   -0.0003270    -0.0007476   -0.0005521    -0.0143374   -0.1557751 
   0.147086768    -0.6526956    0.2185594    -0.0010073   -0.0006605    -0.0009262   -0.0006022    -0.0146657   -0.1559770 
   0.147186793    -0.6510421    0.2172029    -0.0008162   -0.0004820    -0.0006811   -0.0004505    -0.0152895   -0.1560000 
   0.147286818    -0.6504148    0.2193063    -0.0008721   -0.0007048    -0.0008643   -0.0004986    -0.0149437   -0.1554109 
   0.147386843    -0.6498781    0.2240070    -0.0009124   -0.0007171    -0.0010015   -0.0008377    -0.0149693   -0.1561487 
   0.147486868    -0.6513278    0.2212166    -0.0008610   -0.0006675    -0.0007713   -0.0006800    -0.0146873   -0.1558602 
   0.147586893    -0.6495963    0.2248772    -0.0008104   -0.0008075    -0.0008965   -0.0007592    -0.0151566   -0.1548943 
   0.147686918    -0.6483650    0.2226914    -0.0012197   -0.0005521    -0.0009327   -0.0005006    -0.0149472   -0.1556407 
   0.147786943    -0.6462551    0.2237479    -0.0010266   -0.0008453    -0.0008780   -0.0007826    -0.0147354   -0.1552217 
   0.147886968    -0.6469288    0.2255664    -0.0008032   -0.0008079    -0.0010201   -0.0006573    -0.0149839   -0.1553559 
   0.147986993    -0.6494969    0.2281099    -0.0011112   -0.0006306    -0.0011200   -0.0008398    -0.0156542   -0.1549745 
   0.148087019    -0.6496589    0.2260039    -0.0007622   -0.0008425    -0.0009101   -0.0004351    -0.0151616   -0.1552280 
   0.148187044    -0.6470003    0.2278557    -0.0009109   -0.0003908    -0.0008978   -0.0007707    -0.0155389   -0.1552026 
   0.148287069    -0.6484942    0.2313701    -0.0007458   -0.0007545    -0.0010173   -0.0007046    -0.0159392   -0.1548778 
   0.148387094    -0.6481152    0.2316364    -0.0007922   -0.0004686    -0.0009100   -0.0006657    -0.0158248   -0.1547799 
   0.148487119    -0.6463761    0.2312365    -0.0010463   -0.0009186    -0.0008096   -0.0008044    -0.0158192   -0.1551822 
   0.148587144    -0.6490677    0.2322306    -0.0007453   -0.0004808    -0.0009495   -0.0007444    -0.0155123   -0.1553327 
   0.148687169    -0.6477718    0.2309576    -0.0008795   -0.0005730    -0.0010162   -0.0008377    -0.0160888   -0.1548283 
   0.148787194    -0.6403852    0.2318485    -0.0008287   -0.0006188    -0.0009536   -0.0007153    -0.0159240   -0.1549818 
   0.148887219    -0.6469811    0.2352163    -0.0006600   -0.0006392    -0.0006966   -0.0007285    -0.0159097   -0.1546566 
   0.148987244    -0.6437643    0.2349437    -0.0010360   -0.0007578    -0.0007919   -0.0007410    -0.0158185   -0.1554935 
   0.149087269    -0.6452953    0.2360434    -0.0009202   -0.0007232    -0.0009183   -0.0006099    -0.0160001   -0.1544303 
   0.149187294    -0.6444286    0.2370378    -0.0008979   -0.0005258    -0.0007963   -0.0006099    -0.0159568   -0.1549995 
   0.149287319    -0.6430781    0.2339402    -0.0006093   -0.0005675    -0.0008777   -0.0008206    -0.0167197   -0.1548751 
   0.149387344    -0.6447054    0.2379478    -0.0008492   -0.0007733    -0.0009880   -0.0005871    -0.0162851   -0.1547561 
   0.149487369    -0.6408324    0.2405930    -0.0009905   -0.0010273    -0.0009707   -0.0005870    -0.0164543   -0.1553258 
   0.149587394    -0.6426364    0.2425774    -0.0008155   -0.0006542    -0.0008020   -0.0006654    -0.0165717   -0.1552049 
   0.149687419    -0.6418290    0.2423698    -0.0006980   -0.0003905    -0.0008761   -0.0005522    -0.0166269   -0.1549096 
   0.149787444    -0.6410618    0.2414670    -0.0008588   -0.0005265    -0.0008891   -0.0006252    -0.0167303   -0.1542450 
   0.149887469    -0.6426874    0.2442884    -0.0008127   -0.0006353    -0.0008454   -0.0006210    -0.0164205   -0.1544230 
   0.149987494    -0.6417635    0.2451153    -0.0009898   -0.0005560    -0.0008125   -0.0007134    -0.0166936   -0.1545829 
   0.150087519    -0.6389428    0.2465751    -0.0007408   -0.0004590    -0.0009171   -0.0006131    -0.0166496   -0.1545002 
   0.150187544    -0.6414516    0.2441015    -0.0009595   -0.0007340    -0.0009846   -0.0006735    -0.0168171   -0.1546554 
   0.150287569    -0.6390842    0.2495518    -0.0010207   -0.0006384    -0.0008812   -0.0008212    -0.0169982   -0.1540494 
   0.150387594    -0.6432852    0.2507139    -0.0008947   -0.0007615    -0.0008986   -0.0007859    -0.0166389   -0.1546080 
   0.150487619    -0.6405290    0.2468488    -0.0007754   -0.0005073    -0.0009238   -0.0008226    -0.0172749   -0.1546093 
   0.150587644    -0.6398274    0.2505616    -0.0011545   -0.0007588    -0.0009595   -0.0007211    -0.0171712   -0.1544347 
   0.150687669    -0.6410083    0.2534913    -0.0010304   -0.0008884    -0.0008911   -0.0004952    -0.0171631   -0.1545686 
   0.150787694    -0.6384933    0.2506540    -0.0005997   -0.0008506    -0.0009838   -0.0004214    -0.0173583   -0.1545076 
   0.150887719    -0.6376951    0.2521192    -0.0007197   -0.0006240    -0.0008870   -0.0004673    -0.0177441   -0.1540459 
   0.150987744    -0.6396696    0.2525644    -0.0008558   -0.0010469    -0.0008360   -0.0006328    -0.0175379   -0.1544116 
   0.151087769    -0.6360266    0.2545969    -0.0007380   -0.0007586    -0.0009296   -0.0006260    -0.0177866   -0.1542874 
   0.151187794    -0.6378775    0.2565555    -0.0009900   -0.0006726    -0.0008664   -0.0005787    -0.0179240   -0.1543722 
   0.151287819    -0.6356455    0.2562191    -0.0010716   -0.0007074    -0.0010033   -0.0007095    -0.0174873   -0.1541147 
   0.151387844    -0.6359703    0.2582601    -0.0005372   -0.0004077    -0.0008381   -0.0007687    -0.0178526   -0.1539617 
   0.151487869    -0.6352666    0.2564645    -0.0006945   -0.0005026    -0.0009182   -0.0007400    -0.0178437   -0.1537814 
   0.151587894    -0.6376135    0.2587405    -0.0007773   -0.0006042    -0.0007705   -0.0007908    -0.0179927   -0.1541583 
   0.151687919    -0.6343800    0.2597993    -0.0009588   -0.0005925    -0.0009048   -0.0005500    -0.0175846   -0.1535441 
   0.151787944    -0.6372401    0.2595409    -0.0010580   -0.0005184    -0.0008438   -0.0005799    -0.0177243   -0.1533068 
   0.151887969    -0.6338117    0.2605265    -0.0009644   -0.0006829    -0.0009866   -0.0005878    -0.0179045   -0.1540262 
   0.151987994    -0.6352903    0.2626696    -0.0011720   -0.0004550    -0.0011422   -0.0007099    -0.0182197   -0.1533219 
   0.152088019    -0.6320257    0.2638674    -0.0009644   -0.0007232    -0.0008543   -0.0006176    -0.0182961   -0.1536061 
   0.152188044    -0.6323106    0.2631252    -0.0010331   -0.0007014    -0.0009190   -0.0006105    -0.0181236   -0.1535237 
   0.152288069    -0.6335260    0.2628747    -0.0008954   -0.0007893    -0.0009290   -0.0004763    -0.0185469   -0.1535407 
   0.152388094    -0.6343466    0.2657550    -0.0009534   -0.0005036    -0.0009540   -0.0005525    -0.0185365   -0.1531762 
   0.152488119    -0.6323285    0.2657059    -0.0012108   -0.0004479    -0.0008670   -0.0006976    -0.0188801   -0.1534781 
   0.152588144    -0.6329774    0.2653112    -0.0007678   -0.0006626    -0.0008173   -0.0005387    -0.0186782   -0.1534392 
   0.152688169    -0.6299543    0.2685110    -0.0011143   -0.0009168    -0.0009221   -0.0006432    -0.0187255   -0.1540769 
   0.152788194    -0.6305827    0.2697422    -0.0010285   -0.0008926    -0.0011336   -0.0005384    -0.0189318   -0.1530575 
   0.152888219    -0.6315117    0.2694883    -0.0009320   -0.0004188    -0.0009735   -0.0005000    -0.0191065   -0.1530563 
   0.152988244    -0.6299809    0.2686390    -0.0008164   -0.0005596    -0.0009651   -0.0005729    -0.0193311   -0.1536346 
   0.153088269    -0.6301090    0.2713680    -0.0011137   -0.0005411    -0.0009174   -0.0007324    -0.0186267   -0.1532161 
   0.153188294    -0.6289736    0.2725289    -0.0009795   -0.0006053    -0.0008090   -0.0005106    -0.0190489   -0.1532443 
   0.153288319    -0.6312856    0.2747746    -0.0008364   -0.0006452    -0.0010003   -0.0007391    -0.0188903   -0.1527534 
   0.153388344    -0.6280037    0.2744229    -0.0008947   -0.0003751    -0.0010462   -0.0006363    -0.0190299   -0.1528446 
   0.153488369    -0.6265712    0.2710008    -0.0006879   -0.0005598    -0.0011031   -0.0006697    -0.0189041   -0.1527743 
   0.153588394    -0.6259453    0.2750020    -0.0010518   -0.0003742    -0.0011102   -0.0006202    -0.0194780   -0.1527409 
   0.153688419    -0.6257375    0.2764097    -0.0006882   -0.0004141    -0.0009412   -0.0005806    -0.0198410   -0.1526676 
   0.153788444    -0.6245101    0.2774122    -0.0008880   -0.0005357    -0.0008637   -0.0005892    -0.0196922   -0.1526198 
   0.153888469    -0.6280703    0.2794767    -0.0007035   -0.0007328    -0.0009379   -0.0005136    -0.0198304   -0.1525833 
   0.153988494    -0.6282185    0.2793994    -0.0008515   -0.0003400    -0.0009255   -0.0006174    -0.0195960   -0.1522599 
   0.154088519    -0.6280011    0.2778443    -0.0006789   -0.0005765    -0.0010855   -0.0005788    -0.0201376   -0.1526548 
   0.154188544    -0.6235541    0.2804617    -0.0009395   -0.0005418    -0.0010748   -0.0005012    -0.0197271   -0.1529785 
   0.154288569    -0.6254881    0.2819506    -0.0007816   -0.0004448    -0.0009772   -0.0007225    -0.0202792   -0.1527668 
   0.154388594    -0.6216202    0.2832190    -0.0010400   -0.0007460    -0.0008297   -0.0005974    -0.0202509   -0.1525523 
   0.154488619    -0.6253970    0.2813275    -0.0008925   -0.0003085    -0.0009775   -0.0006443    -0.0199860   -0.1521480 
   0.154588644    -0.6253228    0.2843636    -0.0008968   -0.0005008    -0.0009295   -0.0006011    -0.0195031   -0.1527735 
   0.154688669    -0.6243208    0.2841725    -0.0007874   -0.0006429    -0.0010378   -0.0006792    -0.0199598   -0.1526457 
   0.154788694    -0.6223594    0.2843216    -0.0010566   -0.0005311    -0.0008718   -0.0006054    -0.0203137   -0.1521606 
   0.154888719    -0.6200629    0.2870934    -0.0010205   -0.0007573    -0.0008550   -0.0004254    -0.0201380   -0.1524553 
   0.154988744    -0.6202738    0.2846480    -0.0010985   -0.0003706    -0.0009252   -0.0003926    -0.0210455   -0.1523849 
   0.155088769    -0.6214578    0.2866715    -0.0009630   -0.0005540    -0.0011086   -0.0006419    -0.0210831   -0.1525817 
   0.155188794    -0.6209177    0.2890023    -0.0009549   -0.0006907    -0.0009047   -0.0005884    -0.0207182   -0.1519969 
   0.155288819    -0.6205078    0.2871761    -0.0011520   -0.0006598    -0.0008908   -0.0006488    -0.0208300   -0.1523220 
   0.155388844    -0.6217796    0.2879152    -0.0009219   -0.0004422    -0.0009639   -0.0005732    -0.0212677   -0.1524162 
   0.155488869    -0.6189476    0.2912705    -0.0010956   -0.0006423    -0.0010527   -0.0004717    -0.0207086   -0.1523160 
   0.155588894    -0.6197537    0.2929628    -0.0009782   -0.0006788    -0.0009491   -0.0006526    -0.0207147   -0.1520062 
   0.155688919    -0.6222556    0.2927287    -0.0009887   -0.0005585    -0.0009843   -0.0005902    -0.0211041   -0.1518194 
   0.155788944    -0.6160328    0.2941476    -0.0011562   -0.0005471    -0.0009718   -0.0005667    -0.0206281   -0.1518707 
   0.155888969    -0.6173639    0.2943164    -0.0011117   -0.0005483    -0.0009975   -0.0005691    -0.0210953   -0.1519871 
   0.155988994    -0.6192659    0.2932369    -0.0008545   -0.0005856    -0.0009502   -0.0005274    -0.0212625   -0.1518637 
   0.156089020    -0.6165360    0.2959266    -0.0010217   -0.0007159    -0.0009885   -0.0005806    -0.0213975   -0.1519128 
   0.156189045    -0.6161796    0.2959421    -0.0009431   -0.0008509    -0.0009108   -0.0006525    -0.0209378   -0.1519630 
   0.156289070    -0.6162787    0.2956410    -0.0008029   -0.0005562    -0.0010804   -0.0004686    -0.0212702   -0.1513047 
   0.156389095    -0.6186828    0.2952702    -0.0009766   -0.0006594    -0.0009940   -0.0006174    -0.0214726   -0.1522932 
   0.156489120    -0.6161425    0.2990742    -0.0010413   -0.0007628    -0.0009553   -0.0006332    -0.0211772   -0.1511980 
   0.156589145    -0.6148521    0.2996129    -0.0009220   -0.0006919    -0.0009337   -0.0005158    -0.0214188   -0.1515878 
   0.156689170    -0.6124934    0.3033063    -0.0012407   -0.0005303    -0.0010134   -0.0006519    -0.0218881   -0.1510739 
   0.156789195    -0.6115432    0.3002682    -0.0010170   -0.0006593    -0.0010026   -0.0006096    -0.0217525   -0.1513468 
   0.156889220    -0.6125048    0.3013501    -0.0011012   -0.0006444    -0.0010604   -0.0005234    -0.0215811   -0.1520300 
   0.156989245    -0.6120483    0.3024295    -0.0009642   -0.0005309    -0.0010071   -0.0006123    -0.0217834   -0.1513823 
   0.157089270    -0.6126463    0.3011658    -0.0010348   -0.0005004    -0.0010988   -0.0005939    -0.0220202   -0.1516316 
   0.157189295    -0.6107470    0.3024930    -0.0009790   -0.0007880    -0.0010444   -0.0006029    -0.0221368   -0.1513527 
   0.157289320    -0.6127019    0.3042636    -0.0009296   -0.0004546    -0.0010547   -0.0005546    -0.0222494   -0.1518421 
   0.157389345    -0.6103036    0.3035900    -0.0011037   -0.0006211    -0.0010291   -0.0005439    -0.0227319   -0.1511602 
   0.157489370    -0.6104943    0.3077530    -0.0009013   -0.0005771    -0.0010705   -0.0006163    -0.0217847   -0.1512284 
   0.157589395    -0.6101621    0.3066016    -0.0011145   -0.0006762    -0.0010710   -0.0005175    -0.0219549   -0.1516640 
   0.157689420    -0.6106409    0.3075710    -0.0009925   -0.0001339    -0.0011324   -0.0005532    -0.0223688   -0.1514110 
   0.157789445    -0.6083722    0.3068829    -0.0008285   -0.0005312    -0.0010200   -0.0006996    -0.0223145   -0.1511339 
   0.157889470    -0.6085484    0.3078968    -0.0008931   -0.0005041    -0.0009997   -0.0005776    -0.0228173   -0.1513835 
   0.157989495    -0.6095189    0.3077623    -0.0010646   -0.0004675    -0.0009605   -0.0007010    -0.0229265   -0.1514417 
   0.158089520    -0.6078168    0.3106754    -0.0008852   -0.0003591    -0.0009949   -0.0004103    -0.0224524   -0.1516001 
   0.158189545    -0.6072941    0.3131408    -0.0009008   -0.0005089    -0.0011577   -0.0005189    -0.0228390   -0.1507831 
   0.158289570    -0.6064894    0.3139022    -0.0009958   -0.0006562    -0.0009828   -0.0005431    -0.0227555   -0.1514071 
   0.158389595    -0.6069908    0.3128227    -0.0009306   -0.0006680    -0.0009822   -0.0004882    -0.0227969   -0.1508614 
   0.158489620    -0.6069593    0.3168166    -0.0009977   -0.0004180    -0.0009606   -0.0006595    -0.0232578   -0.1508178 
   0.158589645    -0.6071821    0.3163958    -0.0011295   -0.0007102    -0.0009947   -0.0007209    -0.0234821   -0.1506983 
   0.158689670    -0.6062000    0.3145196    -0.0009805   -0.0004753    -0.0009291   -0.0003565    -0.0229340   -0.1506008 
   0.158789695    -0.6057026    0.3166904    -0.0009717   -0.0003843    -0.0009578   -0.0004889    -0.0233087   -0.1508120 
   0.158889720    -0.6042192    0.3133406    -0.0010547   -0.0006705    -0.0009883   -0.0005674    -0.0230094   -0.1510625 
   0.158989745    -0.6048541    0.3175689    -0.0010059   -0.0004147    -0.0010314   -0.0005358    -0.0232692   -0.1505393 
   0.159089770    -0.6038389    0.3186945    -0.0011690   -0.0006348    -0.0011200   -0.0005759    -0.0233197   -0.1501610 
   0.159189795    -0.6024985    0.3199793    -0.0010668   -0.0006388    -0.0010029   -0.0004698    -0.0235029   -0.1502477 
   0.159289820    -0.6025719    0.3205643    -0.0008465   -0.0005182    -0.0010411   -0.0005419    -0.0239129   -0.1509541 
   0.159389845    -0.6033514    0.3220997    -0.0010697   -0.0007901    -0.0011143   -0.0004516    -0.0232707   -0.1510170 
   0.159489870    -0.6026794    0.3238248    -0.0009175   -0.0005545    -0.0010579   -0.0007318    -0.0236820   -0.1511931 
   0.159589895    -0.6014414    0.3240071    -0.0009994   -0.0007577    -0.0010316   -0.0004923    -0.0238184   -0.1507880 
   0.159689920    -0.6013858    0.3233318    -0.0011131   -0.0004138    -0.0010742   -0.0004731    -0.0241642   -0.1506955 
   0.159789945    -0.5998859    0.3226182    -0.0009986   -0.0006409    -0.0009598   -0.0005307    -0.0236952   -0.1506218 
   0.159889970    -0.6007523    0.3232341    -0.0010219   -0.0005903    -0.0008700   -0.0005721    -0.0242067   -0.1503176 
   0.159989995    -0.6014370    0.3255914    -0.0011373   -0.0004836    -0.0009663   -0.0006087    -0.0250760   -0.1500513 
   0.160090020    -0.6008935    0.3276127    -0.0008783   -0.0005663    -0.0009701   -0.0004377    -0.0241808   -0.1500759 
   0.160190045    -0.5986013    0.3265707    -0.0011232   -0.0006286    -0.0010425   -0.0005781    -0.0244161   -0.1502766 
   0.160290070    -0.5987560    0.3304728    -0.0009139   -0.0006051    -0.0010472   -0.0003730    -0.0245228   -0.1501587 
   0.160390095    -0.5972465    0.3288062    -0.0011799   -0.0003104    -0.0010645   -0.0004869    -0.0243149   -0.1500441 
   0.160490120    -0.5959010    0.3296369    -0.0010933   -0.0004416    -0.0008954   -0.0005045    -0.0247908   -0.1501198 
   0.160590145    -0.5964805    0.3301580    -0.0011618   -0.0005363    -0.0009707   -0.0004520    -0.0243711   -0.1495920 
   0.160690170    -0.5968593    0.3306158    -0.0008612   -0.0004962    -0.0009788   -0.0004632    -0.0249996   -0.1504303 
   0.160790195    -0.5947527    0.3333347    -0.0010384   -0.0006543    -0.0010637   -0.0005082    -0.0245362   -0.1500585 
   0.160890220    -0.5937839    0.3344604    -0.0011686   -0.0004266    -0.0010140   -0.0005269    -0.0249464   -0.1501851 
   0.160990245    -0.5949868    0.3343918    -0.0010802   -0.0004241    -0.0010723   -0.0004840    -0.0250677   -0.1494277 
   0.161090270    -0.5980958    0.3333304    -0.0010211   -0.0005719    -0.0010361   -0.0005194    -0.0247704   -0.1494865 
   0.161190295    -0.5930073    0.3354622    -0.0010340   -0.0003447    -0.0010369   -0.0005451    -0.0251987   -0.1492483 
   0.161290320    -0.5926920    0.3343767    -0.0012086   -0.0004015    -0.0009312   -0.0005196    -0.0256649   -0.1501930 
   0.161390345    -0.5952757    0.3366928    -0.0011050   -0.0005486    -0.0011470   -0.0005300    -0.0252854   -0.1495116 
   0.161490370    -0.5920952    0.3373129    -0.0011492   -0.0005755    -0.0010312   -0.0004456    -0.0250936   -0.1494995 
   0.161590395    -0.5928836    0.3374968    -0.0009453   -0.0004178    -0.0010355   -0.0006108    -0.0249329   -0.1498656 
   0.161690420    -0.5907952    0.3398506    -0.0010203   -0.0002895    -0.0011069   -0.0004328    -0.0252539   -0.1496682 
   0.161790445    -0.5920801    0.3379899    -0.0009006   -0.0003400    -0.0010950   -0.0004475    -0.0252943   -0.1496615 
   0.161890470    -0.5919536    0.3394066    -0.0009651   -0.0003582    -0.0010556   -0.0004982    -0.0255943   -0.1496011 
   0.161990495    -0.5912162    0.3436999    -0.0010075   -0.0004677    -0.0010199   -0.0004921    -0.0257068   -0.1496820 
   0.162090520    -0.5911596    0.3419262    -0.0011494   -0.0002481    -0.0011096   -0.0004445    -0.0253680   -0.1490970 
   0.162190545    -0.5896999    0.3433867    -0.0012639   -0.0004477    -0.0010459   -0.0005118    -0.0262224   -0.1488824 
   0.162290570    -0.5876213    0.3410077    -0.0009936   -0.0003903    -0.0011414   -0.0004543    -0.0260378   -0.1500014 
   0.162390595    -0.5886627    0.3440603    -0.0009036   -0.0004605    -0.0011618   -0.0004739    -0.0260731   -0.1496705 
   0.162490620    -0.5882389    0.3438779    -0.0010808   -0.0004096    -0.0010066   -0.0004207    -0.0262543   -0.1496957 
   0.162590645    -0.5857596    0.3464800    -0.0012261   -0.0006258    -0.0011724   -0.0004294    -0.0263755   -0.1490766 
   0.162690670    -0.5873907    0.3448087    -0.0012383   -0.0004889    -0.0010468   -0.0003921    -0.0261453   -0.1489714 
   0.162790695    -0.5879569    0.3469666    -0.0011771   -0.0004450    -0.0011098   -0.0003777    -0.0263121   -0.1493002 
   0.162890720    -0.5855663    0.3463835    -0.0010715   -0.0004999    -0.0010253   -0.0004990    -0.0267140   -0.1491981 
   0.162990745    -0.5856711    0.3461965    -0.0012179   -0.0003389    -0.0010206   -0.0003866    -0.0263405   -0.1493096 
   0.163090770    -0.5846969    0.3499829    -0.0013574   -0.0004443    -0.0011292   -0.0004353    -0.0265236   -0.1490349 
   0.163190795    -0.5855400    0.3496442    -0.0010042   -0.0004812    -0.0009710   -0.0004729    -0.0260500   -0.1488665 
   0.163290820    -0.5855281    0.3516670    -0.0010691   -0.0006560    -0.0010289   -0.0004669    -0.0266491   -0.1493305 
   0.163390845    -0.5832139    0.3539425    -0.0009288   -0.0005231    -0.0011026   -0.0003532    -0.0268645   -0.1490468 
   0.163490870    -0.5850238    0.3531871    -0.0009580   -0.0004996    -0.0010805   -0.0003182    -0.0263473   -0.1486545 
   0.163590895    -0.5824080    0.3542315    -0.0009983   -0.0004393    -0.0010703   -0.0004795    -0.0264280   -0.1488120 
   0.163690920    -0.5822239    0.3545826    -0.0011958   -0.0005214    -0.0011437   -0.0004764    -0.0272801   -0.1484571 
   0.163790945    -0.5822136    0.3552876    -0.0011329   -0.0004294    -0.0010717   -0.0005374    -0.0264103   -0.1484338 
   0.163890970    -0.5819082    0.3559237    -0.0010869   -0.0004782    -0.0011611   -0.0005049    -0.0272022   -0.1484073 
   0.163990995    -0.5811649    0.3563194    -0.0011739   -0.0006230    -0.0010753   -0.0004545    -0.0273331   -0.1486234 
   0.164091021    -0.5815673    0.3566534    -0.0009456   -0.0003304    -0.0010828   -0.0004636    -0.0274860   -0.1485627 
   0.164191046    -0.5815859    0.3576004    -0.0011372   -0.0003306    -0.0009697   -0.0004729    -0.0272403   -0.1481378 
   0.164291071    -0.5798142    0.3574398    -0.0012697   -0.0003276    -0.0011563   -0.0003506    -0.0273009   -0.1482454 
   0.164391096    -0.5783872    0.3584314    -0.0010171   -0.0004334    -0.0011381   -0.0005315    -0.0282195   -0.1480701 
   0.164491121    -0.5805558    0.3596584    -0.0011451   -0.0005493    -0.0012227   -0.0004128    -0.0273194   -0.1486358 
   0.164591146    -0.5781465    0.3591318    -0.0010414   -0.0005697    -0.0010700   -0.0003495    -0.0275388   -0.1486795 
   0.164691171    -0.5771760    0.3618181    -0.0011500   -0.0006549    -0.0010891   -0.0005523    -0.0275574   -0.1486108 
   0.164791196    -0.5756252    0.3610727    -0.0010083   -0.0004248    -0.0011447   -0.0003979    -0.0281987   -0.1476335 
   0.164891221    -0.5783899    0.3644864    -0.0010495   -0.0005451    -0.0009061   -0.0003907    -0.0278749   -0.1483088 
   0.164991246    -0.5752578    0.3639714    -0.0010847   -0.0003606    -0.0011579   -0.0003672    -0.0277752   -0.1475431 
   0.165091271    -0.5750505    0.3616055    -0.0010363   -0.0005513    -0.0010017   -0.0003457    -0.0276221   -0.1478066 
   0.165191296    -0.5751424    0.3645227    -0.0011956   -0.0006836    -0.0010700   -0.0003684    -0.0278636   -0.1479146 
   0.165291321    -0.5743851    0.3652712    -0.0010779   -0.0003942    -0.0011213   -0.0005198    -0.0278471   -0.1481258 
   0.165391346    -0.5745416    0.3642716    -0.0013247   -0.0003771    -0.0011223   -0.0004413    -0.0283805   -0.1478391 
   0.165491371    -0.5732804    0.3659914    -0.0011011   -0.0003918    -0.0010522   -0.0003506    -0.0282283   -0.1476200 
   0.165591396    -0.5736483    0.3672806    -0.0013792   -0.0003713    -0.0010303   -0.0005122    -0.0288586   -0.1476351 
   0.165691421    -0.5741067    0.3686596    -0.0010888   -0.0005134    -0.0010502   -0.0004261    -0.0288134   -0.1469859 
   0.165791446    -0.5702927    0.3691430    -0.0009314   -0.0004526    -0.0010311   -0.0004418    -0.0290804   -0.1475472 
   0.165891471    -0.5704195    0.3692236    -0.0011274   -0.0005390    -0.0010111   -0.0002616    -0.0281977   -0.1478395 
   0.165991496    -0.5716086    0.3697799    -0.0010981   -0.0005830    -0.0010809   -0.0004915    -0.0282560   -0.1472635 
   0.166091521    -0.5699057    0.3710892    -0.0009299   -0.0005736    -0.0010194   -0.0003525    -0.0287132   -0.1474170 
   0.166191546    -0.5706100    0.3706431    -0.0011445   -0.0005724    -0.0011212   -0.0005047    -0.0290273   -0.1470137 
   0.166291571    -0.5700285    0.3716821    -0.0011145   -0.0002543    -0.0010507   -0.0002743    -0.0292953   -0.1475509 
   0.166391596    -0.5686570    0.3762306    -0.0010699   -0.0006239    -0.0010886   -0.0003521    -0.0287700   -0.1466787 
   0.166491621    -0.5676708    0.3738084    -0.0012872   -0.0004924    -0.0010776   -0.0004446    -0.0285938   -0.1481449 
   0.166591646    -0.5697265    0.3755853    -0.0012416   -0.0005075    -0.0010061   -0.0004573    -0.0288881   -0.1467842 
   0.166691671    -0.5679227    0.3738718    -0.0011372   -0.0005541    -0.0010421   -0.0003689    -0.0296441   -0.1471367 
   0.166791696    -0.5662674    0.3756848    -0.0011778   -0.0005699    -0.0011252   -0.0003640    -0.0292832   -0.1468185 
   0.166891721    -0.5654429    0.3764356    -0.0009579   -0.0005288    -0.0009849   -0.0003404    -0.0288700   -0.1472559 
   0.166991746    -0.5638437    0.3803758    -0.0010356   -0.0004030    -0.0011471   -0.0004425    -0.0291634   -0.1476002 
   0.167091771    -0.5660483    0.3799592    -0.0012329   -0.0005506    -0.0009918   -0.0004066    -0.0292077   -0.1478186 
   0.167191796    -0.5642831    0.3773385    -0.0012418   -0.0004662    -0.0011617   -0.0002844    -0.0293720   -0.1472290 
   0.167291821    -0.5667897    0.3799004    -0.0011773   -0.0003170    -0.0011257   -0.0005034    -0.0296803   -0.1467040 
   0.167391846    -0.5627613    0.3796415    -0.0011939   -0.0003880    -0.0011277   -0.0004016    -0.0296314   -0.1471706 
   0.167491871    -0.5622780    0.3810168    -0.0011714   -0.0003972    -0.0011760   -0.0003753    -0.0297829   -0.1478685 
   0.167591896    -0.5652057    0.3819018    -0.0009312   -0.0005151    -0.0011460   -0.0003892    -0.0304509   -0.1466702 
   0.167691921    -0.5624879    0.3838440    -0.0013345   -0.0003727    -0.0011499   -0.0002939    -0.0302022   -0.1473733 
   0.167791946    -0.5619117    0.3827215    -0.0010558   -0.0004360    -0.0010979   -0.0003667    -0.0296822   -0.1470778 
   0.167891971    -0.5628416    0.3831780    -0.0010327   -0.0005080    -0.0011522   -0.0003118    -0.0293484   -0.1466142 
   0.167991996    -0.5602296    0.3835659    -0.0011471   -0.0004972    -0.0012610   -0.0005132    -0.0297500   -0.1466059 
   0.168092021    -0.5587252    0.3854872    -0.0011932   -0.0003637    -0.0011760   -0.0002657    -0.0301961   -0.1462580 
   0.168192046    -0.5616597    0.3837734    -0.0011763   -0.0002694    -0.0011332   -0.0004073    -0.0302891   -0.1467033 
   0.168292071    -0.5588477    0.3869605    -0.0012085   -0.0001013    -0.0011092   -0.0004273    -0.0298957   -0.1464546 
   0.168392096    -0.5578465    0.3885093    -0.0010552   -0.0004327    -0.0010999   -0.0004214    -0.0303583   -0.1471424 
   0.168492121    -0.5577898    0.3858688    -0.0012568   -0.0003062    -0.0010279   -0.0004174    -0.0303164   -0.1464860 
   0.168592146    -0.5571002    0.3904487    -0.0012837   -0.0004073    -0.0012365   -0.0003468    -0.0303275   -0.1467340 
   0.168692171    -0.5550038    0.3890139    -0.0012160   -0.0003987    -0.0011121   -0.0004578    -0.0311273   -0.1463092 
   0.168792196    -0.5560382    0.3874336    -0.0011803   -0.0004632    -0.0011809   -0.0002417    -0.0306001   -0.1463281 
   0.168892221    -0.5557324    0.3889725    -0.0010289   -0.0003045    -0.0011691   -0.0004977    -0.0309570   -0.1461248 
   0.168992246    -0.5549079    0.3903088    -0.0011145   -0.0005431    -0.0012906   -0.0002441    -0.0309826   -0.1460908 
   0.169092271    -0.5555262    0.3916091    -0.0010087   -0.0004664    -0.0010910   -0.0002995    -0.0311011   -0.1458744 
   0.169192296    -0.5541660    0.3911043    -0.0010315   -0.0005055    -0.0011378   -0.0003776    -0.0317048   -0.1461346 
   0.169292321    -0.5526370    0.3941623    -0.0011677   -0.0005564    -0.0011271   -0.0004507    -0.0307608   -0.1459990 
   0.169392346    -0.5519591    0.3951619    -0.0011183   -0.0004533    -0.0010569   -0.0003856    -0.0307713   -0.1465791 
   0.169492371    -0.5517054    0.3949109    -0.0010484   -0.0004985    -0.0011608   -0.0003467    -0.0320444   -0.1455738 
   0.169592396    -0.5489831    0.3943131    -0.0009902   -0.0006164    -0.0011497   -0.0003742    -0.0310845   -0.1457930 
   0.169692421    -0.5494719    0.3945313    -0.0012922   -0.0005623    -0.0010426   -0.0003854    -0.0317842   -0.1466769 
   0.169792446    -0.5501765    0.3975496    -0.0011976   -0.0004143    -0.0010715   -0.0004002    -0.0316959   -0.1457632 
   0.169892471    -0.5491592    0.3965198    -0.0010776   -0.0005158    -0.0011342   -0.0003349    -0.0320688   -0.1457122 
   0.169992496    -0.5506169    0.3958931    -0.0011044   -0.0003518    -0.0010732   -0.0004002    -0.0308972   -0.1456881 
   0.170092521    -0.5473832    0.3989402    -0.0014491   -0.0003796    -0.0011271   -0.0003588    -0.0315567   -0.1457659 
   0.170192546    -0.5467952    0.3976781    -0.0010930   -0.0004636    -0.0011374   -0.0003471    -0.0321331   -0.1451900 
   0.170292571    -0.5470206    0.4003789    -0.0011123   -0.0002663    -0.0011955   -0.0004056    -0.0324396   -0.1458741 
   0.170392596    -0.5483973    0.4001629    -0.0013083   -0.0005594    -0.0009802   -0.0005016    -0.0316433   -0.1451860 
   0.170492621    -0.5454302    0.4002040    -0.0011800   -0.0005299    -0.0010711   -0.0003543    -0.0325443   -0.1452081 
   0.170592646    -0.5460896    0.3995395    -0.0011221   -0.0003500    -0.0009710   -0.0003802    -0.0325782   -0.1450854 
   0.170692671    -0.5442465    0.4023223    -0.0011894   -0.0003468    -0.0011441   -0.0004158    -0.0328831   -0.1453471 
   0.170792696    -0.5457430    0.4029845    -0.0011898   -0.0004183    -0.0010994   -0.0003821    -0.0320167   -0.1456057 
   0.170892721    -0.5449264    0.4033581    -0.0010242   -0.0004323    -0.0011302   -0.0002942    -0.0322306   -0.1452894 
   0.170992746    -0.5462925    0.4029759    -0.0010692   -0.0001944    -0.0011553   -0.0004518    -0.0326062   -0.1454340 
   0.171092771    -0.5435059    0.4023170    -0.0012582   -0.0003821    -0.0011205   -0.0004344    -0.0324872   -0.1451089 
   0.171192796    -0.5430142    0.4067417    -0.0012351   -0.0002535    -0.0010577   -0.0004859    -0.0328004   -0.1448692 
   0.171292821    -0.5413904    0.4048837    -0.0009962   -0.0004314    -0.0009913   -0.0003521    -0.0328529   -0.1449895 
   0.171392846    -0.5425369    0.4081541    -0.0012339   -0.0003911    -0.0011758   -0.0002272    -0.0319959   -0.1453681 
   0.171492871    -0.5411075    0.4070911    -0.0009823   -0.0003363    -0.0010971   -0.0003811    -0.0328340   -0.1445906 
   0.171592896    -0.5396081    0.4069200    -0.0011979   -0.0004876    -0.0010798   -0.0003377    -0.0334162   -0.1454136 
   0.171692921    -0.5396705    0.4085292    -0.0010349   -0.0002153    -0.0011697   -0.0004825    -0.0329663   -0.1454330 
   0.171792946    -0.5379224    0.4068837    -0.0010640   -0.0004326    -0.0011437   -0.0002405    -0.0337813   -0.1451604 
   0.171892971    -0.5382889    0.4111813    -0.0012204   -0.0002348    -0.0010956   -0.0001151    -0.0330990   -0.1453620 
   0.171992996    -0.5392586    0.4108440    -0.0012302   -0.0003493    -0.0010877   -0.0003867    -0.0336740   -0.1447567 
   0.172093022    -0.5378272    0.4104937    -0.0007853   -0.0005397    -0.0011507   -0.0002903    -0.0335409   -0.1445989 
   0.172193047    -0.5374445    0.4123771    -0.0013734   -0.0002924    -0.0011001   -0.0003511    -0.0330167   -0.1449737 
   0.172293072    -0.5371178    0.4117470    -0.0012073   -0.0005187    -0.0009678   -0.0003247    -0.0334539   -0.1446702 
   0.172393097    -0.5363918    0.4141506    -0.0012923   -0.0006357    -0.0011773   -0.0002773    -0.0333955   -0.1443304 
   0.172493122    -0.5370642    0.4136795    -0.0010545   -0.0005424    -0.0011914   -0.0002365    -0.0341743   -0.1448868 
   0.172593147    -0.5363612    0.4150905    -0.0013156   -0.0004081    -0.0009734   -0.0004015    -0.0337726   -0.1446737 
   0.172693172    -0.5345027    0.4136026    -0.0012988   -0.0004865    -0.0010844   -0.0005257    -0.0337545   -0.1448079 
   0.172793197    -0.5348082    0.4147926    -0.0010977   -0.0001416    -0.0009377   -0.0003185    -0.0336831   -0.1448738 
   0.172893222    -0.5347649    0.4182296    -0.0013014   -0.0003608    -0.0010768   -0.0003227    -0.0342194   -0.1443688 
   0.172993247    -0.5318693    0.4185080    -0.0011712   -0.0003144    -0.0012438   -0.0002741    -0.0344440   -0.1447099 
   0.173093272    -0.5321767    0.4188533    -0.0011836   -0.0003719    -0.0011983   -0.0003449    -0.0342770   -0.1442005 
   0.173193297    -0.5296634    0.4203907    -0.0011996   -0.0001591    -0.0011131   -0.0003810    -0.0341489   -0.1446253 
   0.173293322    -0.5303886    0.4194626    -0.0011771   -0.0000896    -0.0012850   -0.0004668    -0.0345438   -0.1441520 
   0.173393347    -0.5321265    0.4189886    -0.0010755   -0.0003809    -0.0011232   -0.0004599    -0.0339477   -0.1442025 
   0.173493372    -0.5311344    0.4205319    -0.0011133   -0.0001505    -0.0010389   -0.0004315    -0.0343407   -0.1449728 
   0.173593397    -0.5292343    0.4229608    -0.0012545   -0.0002454    -0.0011583   -0.0003651    -0.0344826   -0.1440395 
   0.173693422    -0.5284244    0.4216945    -0.0009351   -0.0000746    -0.0010403   -0.0004145    -0.0352350   -0.1442185 
   0.173793447    -0.5294216    0.4203068    -0.0015083   -0.0002117    -0.0010908   -0.0003382    -0.0348610   -0.1438183 
   0.173893472    -0.5282120    0.4219130    -0.0013088   -0.0001436    -0.0010810   -0.0002442    -0.0347318   -0.1438491 
   0.173993497    -0.5251755    0.4242344    -0.0012851   -0.0004682    -0.0010738   -0.0003233    -0.0345434   -0.1439095 
   0.174093522    -0.5286632    0.4238716    -0.0010318   -0.0005141    -0.0010515   -0.0004657    -0.0344171   -0.1444538 
   0.174193547    -0.5283200    0.4250393    -0.0013742   -0.0005356    -0.0012154   -0.0003876    -0.0353556   -0.1436498 
   0.174293572    -0.5243827    0.4255930    -0.0012147   -0.0002683    -0.0010556   -0.0004696    -0.0348174   -0.1436000 
   0.174393597    -0.5250035    0.4242734    -0.0013131   -0.0002993    -0.0010985   -0.0003640    -0.0351818   -0.1428805 
   0.174493622    -0.5253353    0.4271665    -0.0012887   -0.0001047    -0.0012072   -0.0003318    -0.0347001   -0.1440381 
   0.174593647    -0.5268160    0.4265998    -0.0013261   -0.0001630    -0.0010847   -0.0004140    -0.0348664   -0.1437001 
   0.174693672    -0.5216854    0.4276245    -0.0013307   -0.0001599    -0.0011486   -0.0004243    -0.0358624   -0.1436769 
   0.174793697    -0.5237193    0.4302547    -0.0011321   -0.0002968    -0.0012356   -0.0002322    -0.0353471   -0.1434966 
   0.174893722    -0.5228094    0.4280078    -0.0012319   -0.0002879    -0.0011228   -0.0003361    -0.0353799   -0.1437771 
   0.174993747    -0.5231656    0.4304133    -0.0012476   -0.0006455    -0.0011217   -0.0004480    -0.0351635   -0.1438868 
   0.175093772    -0.5226128    0.4319272    -0.0012608   -0.0005378    -0.0013442   -0.0004733    -0.0350810   -0.1438958 
   0.175193797    -0.5211114    0.4328013    -0.0013408   -0.0004828    -0.0013752   -0.0001576    -0.0359417   -0.1431593 
   0.175293822    -0.5202479    0.4335912    -0.0012421   -0.0003247    -0.0011040   -0.0002994    -0.0356780   -0.1431699 
   0.175393847    -0.5213940    0.4314032    -0.0012825   -0.0002307    -0.0011760   -0.0003536    -0.0350744   -0.1433733 
   0.175493872    -0.5189783    0.4343328    -0.0012445   -0.0001069    -0.0011935   -0.0004300    -0.0367465   -0.1433179 
   0.175593897    -0.5170079    0.4335926    -0.0015512   -0.0003338    -0.0012002   -0.0004193    -0.0356883   -0.1431766 
   0.175693922    -0.5196392    0.4338867    -0.0013597   -0.0007091    -0.0011327   -0.0002994    -0.0354892   -0.1437903 
   0.175793947    -0.5187513    0.4359588    -0.0012367   -0.0000791    -0.0011751   -0.0003713    -0.0364636   -0.1428410 
   0.175893972    -0.5161456    0.4358924    -0.0011265   -0.0001793    -0.0012930   -0.0001285    -0.0360674   -0.1427368 
   0.175993997    -0.5151178    0.4357411    -0.0010419   -0.0002889    -0.0011245   -0.0004548    -0.0361370   -0.1432588 
   0.176094022    -0.5152792    0.4378706    -0.0014904   -0.0002731    -0.0011789   -0.0000220    -0.0362773   -0.1427514 
   0.176194047    -0.5177875    0.4389388    -0.0012359   -0.0002730    -0.0009902   -0.0003603    -0.0365762   -0.1425097 
   0.176294072    -0.5184379    0.4397713    -0.0013495   -0.0004177    -0.0010772   -0.0003216    -0.0367798   -0.1425851 
   0.176394097    -0.5160925    0.4387128    -0.0010975   -0.0001151    -0.0013267   -0.0004778    -0.0372212   -0.1427229 
   0.176494122    -0.5149295    0.4417214    -0.0012625   -0.0005397    -0.0010943   -0.0005154    -0.0368454   -0.1423361 
   0.176594147    -0.5129593    0.4405751    -0.0010259   -0.0001662    -0.0010639   -0.0004021    -0.0363438   -0.1421907 
   0.176694172    -0.5125560    0.4385267    -0.0010726   -0.0006385    -0.0012622   -0.0001922    -0.0364267   -0.1421447 
   0.176794197    -0.5141615    0.4426125    -0.0010496   -0.0001410    -0.0011141   -0.0001581    -0.0374198   -0.1432533 
   0.176894222    -0.5123686    0.4432421    -0.0014487   -0.0004902    -0.0013429   -0.0003222    -0.0372451   -0.1422306 
   0.176994247    -0.5138665    0.4435776    -0.0009920   -0.0004072    -0.0010021   -0.0003496    -0.0370866   -0.1421016 
   0.177094272    -0.5080702    0.4444227    -0.0012228   -0.0002088    -0.0012071   -0.0003864    -0.0368979   -0.1421934 
   0.177194297    -0.5102435    0.4412912    -0.0011284   -0.0003061    -0.0011532   -0.0003524    -0.0378528   -0.1423140 
   0.177294322    -0.5095763    0.4444379    -0.0014446   -0.0003586    -0.0013097   -0.0002965    -0.0368147   -0.1424415 
   0.177394347    -0.5112492    0.4457208    -0.0011533   -0.0002854    -0.0013672   -0.0003635    -0.0370972   -0.1424385 
   0.177494372    -0.5069230    0.4449901    -0.0011381   -0.0002642    -0.0009953   -0.0000785    -0.0376038   -0.1424024 
   0.177594397    -0.5058916    0.4493894    -0.0012684   -0.0001626    -0.0013397   -0.0002827    -0.0373122   -0.1422957 
   0.177694422    -0.5059460    0.4469488    -0.0010351   -0.0002096    -0.0011257   -0.0002103    -0.0372334   -0.1422120 
   0.177794447    -0.5057945    0.4482148    -0.0014924   -0.0004334    -0.0012335   -0.0002553    -0.0376917   -0.1419506 
   0.177894472    -0.5051768    0.4509680    -0.0014036   -0.0004028    -0.0013151   -0.0004436    -0.0379930   -0.1420363 
   0.177994497    -0.5059828    0.4513537    -0.0015238   -0.0003967    -0.0012093   -0.0001655    -0.0381723   -0.1418746 
   0.178094522    -0.5056567    0.4511578    -0.0010266   -0.0003917    -0.0013135   -0.0002407    -0.0374499   -0.1417796 
   0.178194547    -0.5042433    0.4527099    -0.0014552   -0.0002086    -0.0011629   -0.0003212    -0.0373075   -0.1419871 
   0.178294572    -0.5019562    0.4503223    -0.0012857   -0.0002914    -0.0011125   -0.0002248    -0.0379725   -0.1420758 
   0.178394597    -0.5047722    0.4519990    -0.0012293   -0.0006746    -0.0011990   -0.0003717    -0.0386879   -0.1417052 
   0.178494622    -0.5029353    0.4534450    -0.0011174   -0.0003259    -0.0011069   -0.0002451    -0.0377992   -0.1422860 
   0.178594647    -0.5025715    0.4541123    -0.0011054    0.0001066    -0.0013163   -0.0003343    -0.0383809   -0.1415188 
   0.178694672    -0.5021794    0.4552247    -0.0009578   -0.0005646    -0.0012227   -0.0000544    -0.0385551   -0.1414220 
   0.178794697    -0.5029830    0.4549358    -0.0010742   -0.0001931    -0.0014177   -0.0001367    -0.0376686   -0.1421045 
   0.178894722    -0.5028921    0.4558485    -0.0011021   -0.0002519    -0.0010632   -0.0003397    -0.0382996   -0.1410829 
   0.178994747    -0.5016900    0.4564026    -0.0015009    0.0000414    -0.0012681   -0.0003050    -0.0385199   -0.1408287 
   0.179094772    -0.4997751    0.4569148    -0.0013855   -0.0003075    -0.0010917   -0.0003674    -0.0386751   -0.1416361 
   0.179194797    -0.4998952    0.4570276    -0.0013287   -0.0002823    -0.0013501   -0.0003575    -0.0387977   -0.1409840 
   0.179294822    -0.5004702    0.4571700    -0.0014672   -0.0001726    -0.0012594   -0.0002825    -0.0384877   -0.1417478 
   0.179394847    -0.4959983    0.4576121    -0.0012625   -0.0003746    -0.0013313   -0.0002039    -0.0389188   -0.1410535 
   0.179494872    -0.4960878    0.4603226    -0.0008982   -0.0004266    -0.0011895   -0.0003840    -0.0388546   -0.1417089 
   0.179594897    -0.4995054    0.4610186    -0.0012217    0.0000530    -0.0014251   -0.0004233    -0.0387143   -0.1414030 
   0.179694922    -0.4970254    0.4578031    -0.0014144   -0.0004174    -0.0012879   -0.0003610    -0.0390418   -0.1408911 
   0.179794947    -0.4947662    0.4613954    -0.0016442   -0.0001394    -0.0012318   -0.0003359    -0.0390538   -0.1411739 
   0.179894972    -0.4968522    0.4588516    -0.0014295    0.0001234    -0.0012208   -0.0002266    -0.0388722   -0.1415031 
   0.179994997    -0.4939067    0.4610299    -0.0010706   -0.0005896    -0.0011569   -0.0003291    -0.0385162   -0.1411203 
   0.180095023    -0.4939155    0.4623235    -0.0014180   -0.0001890    -0.0013751   -0.0000488    -0.0400505   -0.1418896 
   0.180195048    -0.4930415    0.4609906    -0.0012801   -0.0002529    -0.0012536   -0.0003035    -0.0392423   -0.1418919 
   0.180295073    -0.4928561    0.4645663    -0.0013593   -0.0002054    -0.0010978   -0.0004034    -0.0394829   -0.1408528 
   0.180395098    -0.4939373    0.4658346    -0.0016156   -0.0001867    -0.0014293   -0.0002022    -0.0393998   -0.1415635 
   0.180495123    -0.4906734    0.4627054    -0.0014556   -0.0004695    -0.0013196   -0.0003393    -0.0401508   -0.1411910 
   0.180595148    -0.4924568    0.4655118    -0.0010933   -0.0003063    -0.0011945   -0.0001303    -0.0396887   -0.1408042 
   0.180695173    -0.4919133    0.4657067    -0.0012969   -0.0003150    -0.0013088   -0.0004745    -0.0403263   -0.1408838 
   0.180795198    -0.4900120    0.4654437    -0.0013999   -0.0000484    -0.0011382   -0.0003805    -0.0403290   -0.1405628 
   0.180895223    -0.4878536    0.4662045    -0.0011521   -0.0002335    -0.0011516   -0.0003163    -0.0402359   -0.1405210 
   0.180995248    -0.4880950    0.4681414    -0.0009928   -0.0006959    -0.0012585   -0.0003870    -0.0401801   -0.1404795 
   0.181095273    -0.4918922    0.4678372    -0.0011088   -0.0002190    -0.0014120   -0.0002181    -0.0397229   -0.1409262 
   0.181195298    -0.4877135    0.4701215    -0.0012336   -0.0003240    -0.0013653   -0.0002505    -0.0407876   -0.1396060 
   0.181295323    -0.4859164    0.4716053    -0.0011797   -0.0000054    -0.0013690   -0.0004125    -0.0406457   -0.1403119 
   0.181395348    -0.4882554    0.4678717    -0.0012844   -0.0002274    -0.0011385   -0.0003121    -0.0401328   -0.1406766 
   0.181495373    -0.4870668    0.4724981    -0.0015987   -0.0003534    -0.0013254   -0.0003056    -0.0395947   -0.1400861 
   0.181595398    -0.4873045    0.4741434    -0.0012095   -0.0003088    -0.0012665   -0.0000446    -0.0406736   -0.1408671 
   0.181695423    -0.4849406    0.4732724    -0.0012494   -0.0005979    -0.0010834   -0.0003575    -0.0407311   -0.1403394 
   0.181795448    -0.4831844    0.4749146    -0.0013176   -0.0001400    -0.0016030   -0.0001195    -0.0413110   -0.1397045 
   0.181895473    -0.4838021    0.4735028    -0.0015415    0.0001876    -0.0012112   -0.0004935    -0.0410539   -0.1403490 
   0.181995498    -0.4817353    0.4719779    -0.0010602   -0.0004510    -0.0014227   -0.0001739    -0.0408105   -0.1403167 
   0.182095523    -0.4817773    0.4744793    -0.0014825   -0.0003879    -0.0012138   -0.0002384    -0.0402151   -0.1398311 
   0.182195548    -0.4852658    0.4769080    -0.0012911   -0.0004854    -0.0011872   -0.0001210    -0.0410408   -0.1397706 
   0.182295573    -0.4843569    0.4762222    -0.0015365   -0.0003679    -0.0010217   -0.0002673    -0.0411382   -0.1401371 
   0.182395598    -0.4806318    0.4774710    -0.0012625   -0.0003416    -0.0011224   -0.0003102    -0.0406230   -0.1405269 
   0.182495623    -0.4802135    0.4772683    -0.0010697   -0.0001203    -0.0013758   -0.0003902    -0.0417773   -0.1403975 
   0.182595648    -0.4807790    0.4780388    -0.0017192   -0.0002514    -0.0012994   -0.0002618    -0.0409048   -0.1403536 
   0.182695673    -0.4802659    0.4800178    -0.0016544   -0.0001469    -0.0009066   -0.0001165    -0.0423528   -0.1398337 
   0.182795698    -0.4790975    0.4768640    -0.0010405    0.0000263    -0.0012996   -0.0002086    -0.0417283   -0.1397070 
   0.182895723    -0.4786265    0.4794669    -0.0012491   -0.0002196    -0.0011457   -0.0002535    -0.0415031   -0.1399851 
   0.182995748    -0.4783126    0.4778021    -0.0012218   -0.0001358    -0.0011018   -0.0002880    -0.0416969   -0.1398316 
   0.183095773    -0.4771544    0.4802427    -0.0009287    0.0000816    -0.0013305   -0.0003500    -0.0417497   -0.1390270 
   0.183195798    -0.4746922    0.4848982    -0.0014915   -0.0002795    -0.0011435   -0.0001053    -0.0422993   -0.1388657 
   0.183295823    -0.4736511    0.4832030    -0.0011479    0.0000382    -0.0013026   -0.0001209    -0.0420764   -0.1399343 
   0.183395848    -0.4776362    0.4794169    -0.0012190    0.0000235    -0.0012879    0.0000552    -0.0415814   -0.1386622 
   0.183495873    -0.4752428    0.4815685    -0.0015291   -0.0002296    -0.0014597   -0.0001161    -0.0423898   -0.1390464 
   0.183595898    -0.4739008    0.4846858    -0.0014940    0.0000227    -0.0012615   -0.0001447    -0.0421219   -0.1392672 
   0.183695923    -0.4764369    0.4868935    -0.0015575   -0.0002007    -0.0014435   -0.0001109    -0.0420843   -0.1392401 
   0.183795948    -0.4727011    0.4835005    -0.0013605    0.0002087    -0.0012604   -0.0005592    -0.0427724   -0.1387673 
   0.183895973    -0.4702846    0.4867687    -0.0009412   -0.0002198    -0.0011575   -0.0001280    -0.0430287   -0.1395698 
   0.183995998    -0.4732248    0.4859280    -0.0010146   -0.0002790    -0.0012556    0.0000100    -0.0426805   -0.1391723 
   0.184096023    -0.4701815    0.4843740    -0.0008363   -0.0000575    -0.0013725   -0.0005487    -0.0429285   -0.1392267 
   0.184196048    -0.4689905    0.4863278    -0.0014698   -0.0002252    -0.0013916   -0.0000393    -0.0424747   -0.1389113 
   0.184296073    -0.4707659    0.4884785    -0.0014465   -0.0001675    -0.0010641   -0.0003054    -0.0431407   -0.1392401 
   0.184396098    -0.4674729    0.4900549    -0.0013695   -0.0002258    -0.0014661   -0.0002892    -0.0429276   -0.1392475 
   0.184496123    -0.4678338    0.4903641    -0.0011587    0.0000646    -0.0014729   -0.0003086    -0.0424492   -0.1396141 
   0.184596148    -0.4687794    0.4886368    -0.0011110   -0.0002515    -0.0014204   -0.0001547    -0.0430646   -0.1383370 
   0.184696173    -0.4680043    0.4884103    -0.0010952   -0.0001718    -0.0013096    0.0000653    -0.0430966   -0.1380889 
   0.184796198    -0.4680313    0.4891868    -0.0012597    0.0000606    -0.0012602   -0.0001206    -0.0427906   -0.1383730 
   0.184896223    -0.4643981    0.4908425    -0.0013840   -0.0003677    -0.0012269   -0.0002596    -0.0437451   -0.1387088 
   0.184996248    -0.4700570    0.4908204    -0.0015147    0.0000293    -0.0013897   -0.0002301    -0.0433349   -0.1385514 
   0.185096273    -0.4646932    0.4940706    -0.0013456   -0.0003690    -0.0014624   -0.0002402    -0.0435857   -0.1379132 
   0.185196298    -0.4657676    0.4933707    -0.0013140   -0.0003970    -0.0011010   -0.0002662    -0.0435506   -0.1380737 
   0.185296323    -0.4652469    0.4893708    -0.0014025   -0.0000883    -0.0014459   -0.0002078    -0.0438479   -0.1378859 
   0.185396348    -0.4635729    0.4946444    -0.0013229   -0.0000331    -0.0013657   -0.0003030    -0.0442346   -0.1384280 
   0.185496373    -0.4618219    0.4953023    -0.0010834    0.0001045    -0.0014986   -0.0001224    -0.0435191   -0.1382685 
   0.185596398    -0.4623429    0.4917376    -0.0015118   -0.0000042    -0.0011245   -0.0001895    -0.0434368   -0.1385206 
   0.185696423    -0.4628893    0.4976750    -0.0017669   -0.0003046    -0.0012714   -0.0001110    -0.0441328   -0.1387188 
   0.185796448    -0.4609340    0.4946836    -0.0012418    0.0001158    -0.0011424   -0.0002757    -0.0439480   -0.1376309 
   0.185896473    -0.4596643    0.4968717    -0.0010540    0.0001268    -0.0014036   -0.0001067    -0.0440108   -0.1378397 
   0.185996498    -0.4612836    0.4937789    -0.0013138   -0.0004451    -0.0012962   -0.0001298    -0.0446097   -0.1383526 
   0.186096523    -0.4617763    0.4932971    -0.0010533   -0.0003355    -0.0013892   -0.0002872    -0.0432347   -0.1385826 
   0.186196548    -0.4598593    0.4987094    -0.0011675   -0.0000363    -0.0011186   -0.0000904    -0.0447424   -0.1371590 
   0.186296573    -0.4594525    0.4977126    -0.0013481   -0.0003279    -0.0013815   -0.0003266    -0.0438011   -0.1378786 
   0.186396598    -0.4573040    0.5027611    -0.0015271    0.0000692    -0.0012983    0.0001377    -0.0444946   -0.1380320 
   0.186496623    -0.4572704    0.5004103    -0.0016719    0.0001372    -0.0013565    0.0000261    -0.0444200   -0.1374049 
   0.186596648    -0.4597779    0.4986254    -0.0013126    0.0001385    -0.0012808    0.0001207    -0.0447454   -0.1372629 
   0.186696673    -0.4520033    0.5023291    -0.0017210   -0.0003099    -0.0012932   -0.0003062    -0.0436331   -0.1369965 
   0.186796698    -0.4549316    0.5027182    -0.0013479   -0.0001714    -0.0012351   -0.0001715    -0.0451510   -0.1377715 
   0.186896723    -0.4570590    0.5002475    -0.0013447   -0.0004926    -0.0011499   -0.0000082    -0.0438611   -0.1378821 
   0.186996748    -0.4524167    0.4995845    -0.0014137   -0.0000132    -0.0013232   -0.0001280    -0.0457658   -0.1371114 
   0.187096773    -0.4528760    0.5026323    -0.0014838   -0.0000824    -0.0012080   -0.0002563    -0.0453324   -0.1372328 
   0.187196798    -0.4537039    0.5032636    -0.0014500   -0.0001879    -0.0013976   -0.0001271    -0.0450229   -0.1375747 
   0.187296823    -0.4520024    0.5037499    -0.0010935    0.0002060    -0.0013442    0.0000534    -0.0457251   -0.1371533 
   0.187396848    -0.4504781    0.5031845    -0.0014664   -0.0001975    -0.0010864   -0.0001852    -0.0442740   -0.1376523 
   0.187496873    -0.4533260    0.5088023    -0.0012591   -0.0003346    -0.0014596   -0.0003430    -0.0456745   -0.1374368 
   0.187596898    -0.4498285    0.5021817    -0.0009305    0.0001711    -0.0013854   -0.0002729    -0.0452860   -0.1368380 
   0.187696923    -0.4506031    0.5069300    -0.0012199   -0.0001769    -0.0015052   -0.0002172    -0.0452776   -0.1366763 
   0.187796948    -0.4506871    0.5065380    -0.0011606   -0.0003993    -0.0011863   -0.0000952    -0.0458111   -0.1373495 
   0.187896973    -0.4514790    0.5070287    -0.0013464    0.0002395    -0.0013019   -0.0003451    -0.0459915   -0.1371552 
   0.187996998    -0.4472966    0.5063055    -0.0011750   -0.0001606    -0.0011156   -0.0001769    -0.0454942   -0.1368086 
   0.188097024    -0.4461860    0.5102915    -0.0016995    0.0000590    -0.0011519   -0.0002929    -0.0454501   -0.1371621 
   0.188197049    -0.4471554    0.5106707    -0.0011824    0.0000882    -0.0012474   -0.0001626    -0.0458111   -0.1367545 
   0.188297074    -0.4457366    0.5095426    -0.0011933   -0.0001719    -0.0014809    0.0000487    -0.0459726   -0.1370685 
   0.188397099    -0.4450724    0.5087584    -0.0010238   -0.0002268    -0.0013123   -0.0002688    -0.0467907   -0.1365669 
   0.188497124    -0.4444188    0.5110393    -0.0015966   -0.0002888    -0.0014548   -0.0002736    -0.0458621   -0.1368829 
   0.188597149    -0.4440306    0.5100941    -0.0015397    0.0000561    -0.0012089   -0.0001782    -0.0457622   -0.1367154 
   0.188697174    -0.4460670    0.5110170    -0.0010038    0.0002876    -0.0010414   -0.0001354    -0.0459668   -0.1359647 
   0.188797199    -0.4421412    0.5105089    -0.0012310    0.0001227    -0.0011480   -0.0000685    -0.0468521   -0.1370922 
   0.188897224    -0.4389467    0.5097216    -0.0010047   -0.0000931    -0.0013264   -0.0002098    -0.0462530   -0.1362935 
   0.188997249    -0.4442951    0.5141187    -0.0014707   -0.0002464    -0.0013409   -0.0001493    -0.0467843   -0.1362920 
   0.189097274    -0.4434294    0.5154036    -0.0011075   -0.0000611    -0.0015054    0.0000216    -0.0473128   -0.1363665 
   0.189197299    -0.4411794    0.5153262    -0.0011738   -0.0002338    -0.0012681   -0.0001545    -0.0466630   -0.1362876 
   0.189297324    -0.4418649    0.5147253    -0.0017120   -0.0001911    -0.0012993   -0.0000453    -0.0474516   -0.1367616 
   0.189397349    -0.4424129    0.5150486    -0.0010717   -0.0003455    -0.0012684   -0.0001732    -0.0466322   -0.1353544 
   0.189497374    -0.4380389    0.5146658    -0.0010849    0.0000000    -0.0011873    0.0001968    -0.0472122   -0.1360203 
   0.189597399    -0.4388835    0.5152586    -0.0010953   -0.0003276    -0.0013712   -0.0002937    -0.0472088   -0.1361974 
   0.189697424    -0.4366557    0.5183251    -0.0012995   -0.0001603    -0.0013868   -0.0002366    -0.0470161   -0.1363677 
   0.189797449    -0.4371878    0.5172473    -0.0010965    0.0000064    -0.0011952   -0.0001567    -0.0472133   -0.1370909 
   0.189897474    -0.4374614    0.5180426    -0.0010354   -0.0002065    -0.0013267   -0.0002558    -0.0472135   -0.1363206 
   0.189997499    -0.4373857    0.5200060    -0.0014929   -0.0000044    -0.0013127    0.0000713    -0.0476416   -0.1358442 
   0.190097524    -0.4361434    0.5200931    -0.0015131   -0.0001374    -0.0012318   -0.0001055    -0.0472304   -0.1359645 
   0.190197549    -0.4308933    0.5201932    -0.0011743   -0.0000772    -0.0012796   -0.0000606    -0.0469742   -0.1356114 
   0.190297574    -0.4364061    0.5202852    -0.0013011   -0.0002502    -0.0011915   -0.0000068    -0.0473601   -0.1357586 
   0.190397599    -0.4360158    0.5225255    -0.0010164   -0.0000549    -0.0013733   -0.0000137    -0.0476104   -0.1355658 
   0.190497624    -0.4315520    0.5213474    -0.0015201    0.0003749    -0.0012169    0.0000653    -0.0480375   -0.1354531 
   0.190597649    -0.4304377    0.5223524    -0.0015757    0.0001251    -0.0013297   -0.0001586    -0.0486558   -0.1357156 
   0.190697674    -0.4324109    0.5221130    -0.0013525   -0.0000444    -0.0013847   -0.0000535    -0.0474864   -0.1358399 
   0.190797699    -0.4328097    0.5218291    -0.0013011    0.0003631    -0.0014740   -0.0002627    -0.0483508   -0.1357594 
   0.190897724    -0.4292566    0.5196934    -0.0014928   -0.0001710    -0.0015422   -0.0002392    -0.0479676   -0.1349154 
   0.190997749    -0.4282357    0.5256236    -0.0012670   -0.0001004    -0.0015387   -0.0000573    -0.0481055   -0.1353586 
   0.191097774    -0.4329360    0.5226933    -0.0012256   -0.0001092    -0.0012938    0.0002333    -0.0480926   -0.1352980 
   0.191197799    -0.4299365    0.5259901    -0.0016474   -0.0002526    -0.0011491   -0.0001406    -0.0481577   -0.1350403 
   0.191297824    -0.4321880    0.5255758    -0.0013987   -0.0000126    -0.0014096    0.0001888    -0.0484262   -0.1351187 
   0.191397849    -0.4279813    0.5264587    -0.0012205   -0.0001284    -0.0013475   -0.0001454    -0.0481369   -0.1348607 
   0.191497874    -0.4277225    0.5250036    -0.0011808   -0.0000981    -0.0014180   -0.0004054    -0.0482143   -0.1350223 
   0.191597899    -0.4271497    0.5264726    -0.0014843    0.0003524    -0.0012381   -0.0000368    -0.0490006   -0.1352911 
   0.191697924    -0.4264519    0.5256774    -0.0013406   -0.0002117    -0.0011871   -0.0003334    -0.0489817   -0.1349309 
   0.191797949    -0.4264899    0.5227851    -0.0012527   -0.0002666    -0.0012947   -0.0001066    -0.0496721   -0.1350152 
   0.191897974    -0.4271505    0.5269062    -0.0012038   -0.0002565    -0.0014713    0.0000252    -0.0481633   -0.1354254 
   0.191997999    -0.4208753    0.5285401    -0.0010279   -0.0002941    -0.0013354   -0.0001444    -0.0495461   -0.1344969 
   0.192098024    -0.4237858    0.5275018    -0.0013629   -0.0001512    -0.0016428   -0.0001191    -0.0488913   -0.1344168 
   0.192198049    -0.4249744    0.5295559    -0.0012947    0.0001977    -0.0012948    0.0000678    -0.0496873   -0.1352836 
   0.192298074    -0.4238182    0.5304964    -0.0010205   -0.0003352    -0.0014293   -0.0001917    -0.0493143   -0.1340424 
   0.192398099    -0.4216368    0.5300784    -0.0013099    0.0001078    -0.0016067    0.0000237    -0.0500367   -0.1345864 
   0.192498124    -0.4214569    0.5303514    -0.0015598    0.0001683    -0.0013660   -0.0000730    -0.0491988   -0.1339189 
   0.192598149    -0.4224817    0.5335443    -0.0015742   -0.0001563    -0.0013484   -0.0002957    -0.0492166   -0.1346944 
   0.192698174    -0.4186507    0.5318218    -0.0016469   -0.0001873    -0.0013040   -0.0001070    -0.0497469   -0.1340169 
   0.192798199    -0.4192820    0.5316973    -0.0015017    0.0001920    -0.0014960   -0.0003523    -0.0497381   -0.1345461 
   0.192898224    -0.4185898    0.5317479    -0.0014570    0.0001316    -0.0016090   -0.0001026    -0.0499084   -0.1335056 
   0.192998249    -0.4176984    0.5313045    -0.0012921   -0.0005363    -0.0012979   -0.0001304    -0.0501723   -0.1341240 
   0.193098274    -0.4202509    0.5332159    -0.0013422   -0.0001586    -0.0015368    0.0000564    -0.0502525   -0.1341575 
   0.193198299    -0.4159619    0.5318860    -0.0017967    0.0000752    -0.0013027    0.0000461    -0.0507116   -0.1344739 
   0.193298324    -0.4180241    0.5349571    -0.0014344    0.0001154    -0.0012811   -0.0000208    -0.0495636   -0.1340583 
   0.193398349    -0.4173149    0.5323788    -0.0013639   -0.0001636    -0.0014223   -0.0001985    -0.0502540   -0.1341081 
   0.193498374    -0.4149262    0.5322075    -0.0016003    0.0003812    -0.0011833    0.0001998    -0.0504920   -0.1343552 
   0.193598399    -0.4169313    0.5355962    -0.0015158    0.0000170    -0.0013905   -0.0001350    -0.0509155   -0.1333611 
   0.193698424    -0.4167938    0.5363816    -0.0014169    0.0000917    -0.0014355   -0.0001526    -0.0504941   -0.1342252 
   0.193798449    -0.4153319    0.5413990    -0.0016077   -0.0001731    -0.0012890    0.0000275    -0.0504988   -0.1348636 
   0.193898474    -0.4129200    0.5365617    -0.0013142    0.0005421    -0.0016247    0.0004534    -0.0501087   -0.1344083 
   0.193998499    -0.4113765    0.5394887    -0.0015027   -0.0000256    -0.0013282    0.0001233    -0.0510984   -0.1341525 
   0.194098524    -0.4081447    0.5415394    -0.0012849   -0.0000132    -0.0014858    0.0000598    -0.0510419   -0.1336251 
   0.194198549    -0.4092847    0.5382049    -0.0012415   -0.0000609    -0.0012966   -0.0002897    -0.0505684   -0.1335500 
   0.194298574    -0.4108758    0.5381096    -0.0015991    0.0000258    -0.0015237    0.0001559    -0.0512242   -0.1336139 
   0.194398599    -0.4087380    0.5415983    -0.0015108   -0.0000911    -0.0013825    0.0000081    -0.0508914   -0.1344023 
   0.194498624    -0.4073130    0.5363739    -0.0012632   -0.0000939    -0.0013651    0.0001786    -0.0509802   -0.1329570 
   0.194598649    -0.4072598    0.5383953    -0.0011839    0.0000615    -0.0016677    0.0000808    -0.0510399   -0.1331740 
   0.194698674    -0.4072747    0.5440558    -0.0014856   -0.0000269    -0.0014124   -0.0000587    -0.0514772   -0.1333037 
   0.194798699    -0.4059184    0.5427056    -0.0014914    0.0000972    -0.0015011   -0.0000986    -0.0516491   -0.1329447 
   0.194898724    -0.4059426    0.5428384    -0.0012943    0.0001603    -0.0014225   -0.0000970    -0.0506885   -0.1342132 
   0.194998749    -0.4078491    0.5458649    -0.0012176    0.0003788    -0.0011737    0.0002324    -0.0514096   -0.1332403 
   0.195098774    -0.4064053    0.5423912    -0.0015371   -0.0002306    -0.0015433    0.0000498    -0.0511985   -0.1332932 
   0.195198799    -0.4040529    0.5431648    -0.0011581   -0.0000023    -0.0013999   -0.0002883    -0.0520234   -0.1335298 
   0.195298824    -0.4053463    0.5480317    -0.0013405   -0.0000233    -0.0014454    0.0000578    -0.0513320   -0.1326828 
   0.195398849    -0.4024877    0.5461804    -0.0014938   -0.0002455    -0.0014027    0.0001700    -0.0518643   -0.1330093 
   0.195498874    -0.4005228    0.5455298    -0.0013400   -0.0000640    -0.0014727   -0.0000628    -0.0516702   -0.1335803 
   0.195598899    -0.4011662    0.5454866    -0.0016425    0.0001204    -0.0014068    0.0003059    -0.0512148   -0.1332168 
   0.195698924    -0.4011704    0.5474778    -0.0015093   -0.0003937    -0.0016601   -0.0003506    -0.0521373   -0.1339549 
   0.195798949    -0.3991156    0.5454617    -0.0014957    0.0001085    -0.0015088   -0.0001096    -0.0522314   -0.1334633 
   0.195898974    -0.3992417    0.5487634    -0.0013972   -0.0000453    -0.0013764   -0.0002464    -0.0523232   -0.1324467 
   0.195998999    -0.3983159    0.5483054    -0.0016480    0.0001685    -0.0015714    0.0002066    -0.0517969   -0.1330056 
   0.196099025    -0.4008571    0.5476374    -0.0015204    0.0000696    -0.0014559    0.0000522    -0.0522943   -0.1329091 
   0.196199050    -0.3989629    0.5478524    -0.0017402    0.0001214    -0.0012905   -0.0000662    -0.0523909   -0.1327569 
   0.196299075    -0.3975193    0.5499369    -0.0016462   -0.0003289    -0.0014452    0.0003584    -0.0524434   -0.1325049 
   0.196399100    -0.3947811    0.5497381    -0.0016190    0.0003380    -0.0014874   -0.0000880    -0.0524025   -0.1319256 
   0.196499125    -0.3963140    0.5508335    -0.0011516    0.0001265    -0.0013719    0.0000360    -0.0524892   -0.1331427 
   0.196599150    -0.3930295    0.5533059    -0.0011784    0.0000215    -0.0013196   -0.0000893    -0.0531279   -0.1333395 
   0.196699175    -0.3931154    0.5517835    -0.0013656    0.0000171    -0.0016667    0.0000100    -0.0534058   -0.1319205 
   0.196799200    -0.3949208    0.5517405    -0.0011713   -0.0000986    -0.0018180   -0.0000931    -0.0527028   -0.1326202 
   0.196899225    -0.3922609    0.5506354    -0.0017347    0.0001330    -0.0015723    0.0001888    -0.0529954   -0.1321679 
   0.196999250    -0.3901853    0.5470465    -0.0012728    0.0003482    -0.0015328    0.0001871    -0.0535432   -0.1323653 
   0.197099275    -0.3929556    0.5535198    -0.0012077    0.0000240    -0.0012527   -0.0000743    -0.0531253   -0.1328209 
   0.197199300    -0.3918161    0.5528431    -0.0014257    0.0001880    -0.0011272    0.0003803    -0.0527262   -0.1319924 
   0.197299325    -0.3898170    0.5531498    -0.0016294    0.0001269    -0.0012919    0.0000375    -0.0533191   -0.1321438 
   0.197399350    -0.3898019    0.5538672    -0.0013782    0.0000869    -0.0013645    0.0003746    -0.0531476   -0.1316684 
   0.197499375    -0.3906007    0.5536271    -0.0014402    0.0002339    -0.0013390   -0.0000711    -0.0534993   -0.1320142 
   0.197599400    -0.3853434    0.5546435    -0.0012624   -0.0001842    -0.0013910   -0.0000329    -0.0531987   -0.1322951 
   0.197699425    -0.3890365    0.5531114    -0.0017129   -0.0000541    -0.0012442   -0.0000114    -0.0537507   -0.1319004 
   0.197799450    -0.3875273    0.5538045    -0.0011568    0.0001569    -0.0012195    0.0001343    -0.0541247   -0.1315394 
   0.197899475    -0.3840985    0.5573240    -0.0010053    0.0002612    -0.0014663   -0.0000315    -0.0536048   -0.1316688 
   0.197999500    -0.3863196    0.5569450    -0.0011233   -0.0001113    -0.0013468    0.0000545    -0.0538469   -0.1316414 
   0.198099525    -0.3854009    0.5550727    -0.0013645    0.0000952    -0.0012537    0.0000138    -0.0533716   -0.1315083 
   0.198199550    -0.3862581    0.5551432    -0.0013237    0.0000219    -0.0012936    0.0000265    -0.0539823   -0.1316211 
   0.198299575    -0.3841269    0.5577235    -0.0015949   -0.0003186    -0.0013833   -0.0001127    -0.0539026   -0.1310786 
   0.198399600    -0.3849951    0.5596648    -0.0009170    0.0000761    -0.0014712   -0.0000147    -0.0538027   -0.1310751 
   0.198499625    -0.3820705    0.5602878    -0.0010108   -0.0000326    -0.0013799    0.0001789    -0.0546880   -0.1311618 
   0.198599650    -0.3815519    0.5578297    -0.0016409    0.0000276    -0.0011533    0.0000515    -0.0543642   -0.1313994 
   0.198699675    -0.3790395    0.5631137    -0.0013495    0.0002604    -0.0015670    0.0000839    -0.0545828   -0.1314235 
   0.198799700    -0.3819522    0.5578183    -0.0014930    0.0001853    -0.0011560    0.0001133    -0.0536546   -0.1317395 
   0.198899725    -0.3796299    0.5594298    -0.0013671    0.0002925    -0.0013075    0.0001145    -0.0549848   -0.1313999 
   0.198999750    -0.3803630    0.5614339    -0.0012585   -0.0000442    -0.0015461    0.0000081    -0.0544703   -0.1309773 
   0.199099775    -0.3786453    0.5620974    -0.0015406   -0.0002370    -0.0012170    0.0001495    -0.0546161   -0.1309598 
   0.199199800    -0.3791362    0.5596836    -0.0014190   -0.0000064    -0.0011585   -0.0001430    -0.0546911   -0.1311986 
   0.199299825    -0.3755567    0.5627357    -0.0016417   -0.0001476    -0.0014199    0.0002769    -0.0557921   -0.1308941 
   0.199399850    -0.3797636    0.5619033    -0.0011797   -0.0001938    -0.0008943   -0.0002148    -0.0551805   -0.1309940 
   0.199499875    -0.3753206    0.5656908    -0.0013975    0.0002469    -0.0014627    0.0002155    -0.0550421   -0.1316972 
   0.199599900    -0.3765759    0.5616152    -0.0016253    0.0002555    -0.0014367    0.0003265    -0.0552155   -0.1312023 
   0.199699925    -0.3751322    0.5626339    -0.0017203    0.0000338    -0.0016003    0.0000127    -0.0553356   -0.1303396 
   0.199799950    -0.3738158    0.5621120    -0.0016877    0.0000925    -0.0014000    0.0001617    -0.0552868   -0.1308860 
   0.199899975    -0.3753730    0.5651847    -0.0013909    0.0001322    -0.0012696    0.0000148    -0.0551550   -0.1299713 
   0.200000000    -0.3730009    0.5663252    -0.0014313   -0.0000618    -0.0014557    0.0001696    -0.0557027   -0.1302883 
