! 27-Aug-26 2:19:44 PM
! E:\20260827_VNA\T1T1E8_OPEN_0.S2P
! CHANNEL.1
! TR.MEASUREMENT
! CORRECTED.DATA
# GHZ S RI R 50.0
! FREQ.GHZ         S11RE         S11IM         S21RE         S21IM         S12RE         S12IM         S22RE         S22IM         
!; PortSelection: Port_12
   0.000050000     0.1304985    0.5251493    -0.3208041   -0.0183400    -0.0005368    0.0027677     1.0399390    0.0550910 
   0.000150025    -0.0550448    0.1129565     0.0300007    0.3898410     0.0004384    0.0006076     1.0172360    0.0041981 
   0.000250050     0.1450824    0.0015657     0.0010666    0.0023992     0.0002772   -0.0005976     1.0114320   -0.0156368 
   0.000350075     1.0230380   -0.0510502    -0.0072919   -0.0082219     0.0005712    0.0020554     0.9960361   -0.0345129 
   0.000450100     0.9743574   -0.0037338    -0.0018269   -0.0127021    -0.0013515   -0.0002015     0.9935842   -0.0256008 
   0.000550125     1.0121050   -0.0593977    -0.0073984   -0.0093882    -0.0011147    0.0004539     0.9911621   -0.0366326 
   0.000650150     0.9749481   -0.0162138    -0.0067873   -0.0086741     0.0004059   -0.0006880     0.9994160   -0.0557157 
   0.000750175     0.9848657   -0.0300581    -0.0022391   -0.0101971     0.0001825    0.0003484     0.9978194   -0.0574043 
   0.000850200     0.9877834   -0.0613742    -0.0112655   -0.0077817    -0.0003379    0.0002345     0.9971856   -0.0617486 
   0.000950225     0.9834434   -0.0356490    -0.0101452   -0.0042570    -0.0001089   -0.0006368     0.9897306   -0.0615110 
   0.001050250     0.9676545   -0.0454462    -0.0106971   -0.0075665     0.0004272   -0.0017059     0.9923751   -0.0728464 
   0.001150275     1.0378100   -0.0486615    -0.0089227   -0.0038278    -0.0013711    0.0004482     0.9878020   -0.0796960 
   0.001250300     0.9641972   -0.0254951    -0.0095608   -0.0049088     0.0009251    0.0004883     0.9979694   -0.0954777 
   0.001350325     0.9756436   -0.0385686    -0.0132409   -0.0055432     0.0007071   -0.0007211     0.9892109   -0.1067988 
   0.001450350     0.9997423   -0.0568601    -0.0113173   -0.0028689     0.0000457    0.0000754     0.9870856   -0.1029514 
   0.001550375     0.9232460   -0.0242375    -0.0106955   -0.0020773     0.0005078   -0.0000780     0.9899123   -0.1081471 
   0.001650400     0.9691571    0.0133997    -0.0078981    0.0014658     0.0002304    0.0007802     0.9848103   -0.1131123 
   0.001750425     0.9522808   -0.0260474    -0.0065254    0.0028038    -0.0007206    0.0005487     0.9816761   -0.1236242 
   0.001850450     0.9439815   -0.0283199    -0.0105292    0.0011478     0.0004812    0.0009794     0.9763483   -0.1249344 
   0.001950475     0.9850620    0.0361423    -0.0078070    0.0031263    -0.0008398   -0.0005773     0.9841426   -0.1365425 
   0.002050500     0.9544387   -0.0231682    -0.0061812    0.0034436    -0.0001708    0.0009267     0.9815251   -0.1503065 
   0.002150525     0.9710437   -0.0265637    -0.0061813    0.0006706     0.0003499   -0.0002996     0.9775078   -0.1612310 
   0.002250550     0.9570130   -0.0146547    -0.0056348    0.0015261    -0.0006320   -0.0005588     0.9746488   -0.1611027 
   0.002350575     0.9634350   -0.0881642    -0.0054778    0.0011799    -0.0000143    0.0010095     0.9699463   -0.1619364 
   0.002450600     0.9949612   -0.0229115    -0.0040091    0.0043929     0.0001771   -0.0005268     0.9726968   -0.1761318 
   0.002550625     0.9832260   -0.0359211    -0.0029220    0.0014844     0.0001140    0.0000918     0.9705557   -0.1768532 
   0.002650650     1.0023180   -0.0316545    -0.0077441    0.0019450     0.0003171   -0.0005639     0.9659033   -0.1931732 
   0.002750675     0.9687052    0.0462553    -0.0045961   -0.0005324     0.0002278    0.0002226     0.9603986   -0.1956238 
   0.002850700     0.9916479   -0.0568782    -0.0048494    0.0050530    -0.0005572    0.0000262     0.9566600   -0.2051544 
   0.002950725     0.9154529   -0.0175217    -0.0052292    0.0063082     0.0002214    0.0000371     0.9613888   -0.2081857 
   0.003050750     0.9867770   -0.0013869    -0.0018440    0.0046756     0.0002651   -0.0008109     0.9524192   -0.2149309 
   0.003150775     0.9565200   -0.0486964    -0.0040620    0.0017626    -0.0000551   -0.0001564     0.9492781   -0.2172865 
   0.003250800     0.9853527   -0.0075279    -0.0049332   -0.0016464     0.0003105    0.0002861     0.9474126   -0.2212676 
   0.003350825     0.9523202   -0.0155879    -0.0036857    0.0028640     0.0003990   -0.0006746     0.9401698   -0.2308473 
   0.003450850     0.9894447   -0.0506236    -0.0028645   -0.0003663     0.0005284   -0.0007152     0.9421227   -0.2337797 
   0.003550875     0.9383418   -0.0366059    -0.0014014    0.0007685     0.0000426   -0.0003469     0.9375650   -0.2500685 
   0.003650900     0.9802646   -0.0112459    -0.0000688    0.0028914    -0.0009703    0.0011224     0.9328585   -0.2535123 
   0.003750925     0.9754294   -0.0211696    -0.0015555    0.0029056     0.0005004   -0.0000966     0.9236183   -0.2635948 
   0.003850950     0.9609871   -0.0617531    -0.0021771    0.0016849    -0.0001416    0.0007632     0.9312389   -0.2610060 
   0.003950975     0.9786305   -0.0042341     0.0005867    0.0011799     0.0000558   -0.0000358     0.9212659   -0.2664058 
   0.004051001     0.9593447   -0.0779246     0.0006420    0.0030375    -0.0002652    0.0000022     0.9148681   -0.2723052 
   0.004151026     1.0191150   -0.0440979    -0.0018130    0.0007728    -0.0000643    0.0002072     0.9170924   -0.2767465 
   0.004251051     0.9729124   -0.0096201    -0.0043863    0.0023678    -0.0003066   -0.0002235     0.9097726   -0.2868669 
   0.004351076     0.9724880   -0.0137385    -0.0003765   -0.0006203     0.0004332   -0.0000279     0.9046887   -0.2914739 
   0.004451101     0.9799749   -0.0602826    -0.0011407    0.0015268    -0.0006125    0.0003865     0.9027801   -0.2898609 
   0.004551126     0.9956506   -0.0402608     0.0005121    0.0036425     0.0001654   -0.0001656     0.8977434   -0.2951631 
   0.004651151     0.9644676   -0.0186260    -0.0010486    0.0039050     0.0000495    0.0002458     0.9008007   -0.3058656 
   0.004751176     0.9691592   -0.0719511    -0.0008181    0.0033229    -0.0004093    0.0000458     0.8935661   -0.3121409 
   0.004851201     0.9495991   -0.0410299    -0.0008094    0.0005685     0.0003706    0.0000073     0.8877288   -0.3164771 
   0.004951226     0.9541631   -0.0290930     0.0001214    0.0014430    -0.0007062   -0.0000257     0.8839692   -0.3211329 
   0.005051251     0.9795228   -0.0353825    -0.0002493    0.0009482     0.0000917    0.0003911     0.8812163   -0.3244866 
   0.005151276     0.9529570   -0.0352550    -0.0028154    0.0017506     0.0005827    0.0000695     0.8730342   -0.3333141 
   0.005251301     0.9483185   -0.0229223    -0.0007061    0.0036703     0.0003930    0.0004303     0.8732517   -0.3342043 
   0.005351326     0.9489055   -0.0105433     0.0012474    0.0007620    -0.0003880    0.0006234     0.8675507   -0.3359009 
   0.005451351     0.9690713   -0.0337369     0.0013642    0.0002482    -0.0007962   -0.0006485     0.8626373   -0.3477643 
   0.005551376     0.9993502   -0.0491269    -0.0013207    0.0007893    -0.0002826    0.0000555     0.8565071   -0.3500086 
   0.005651401     0.9624560   -0.0121662    -0.0019979    0.0008374    -0.0012097   -0.0006320     0.8542864   -0.3574562 
   0.005751426     0.9436314   -0.0388292    -0.0018219   -0.0012927     0.0000400   -0.0005701     0.8488719   -0.3575345 
   0.005851451     0.9474627   -0.0505397    -0.0010987    0.0029311     0.0001770    0.0003012     0.8433104   -0.3655256 
   0.005951476     0.9454166   -0.0432729    -0.0013323   -0.0008871    -0.0000617   -0.0005396     0.8452412   -0.3622789 
   0.006051501     0.9700570   -0.0407953    -0.0007144    0.0003647     0.0001127   -0.0001771     0.8392111   -0.3678941 
   0.006151526     0.9594376   -0.0717140     0.0009265   -0.0013862     0.0000883    0.0002674     0.8332597   -0.3719935 
   0.006251551     0.9606004   -0.0336752     0.0004533    0.0019936     0.0004431   -0.0002161     0.8263786   -0.3791455 
   0.006351576     0.9686226   -0.0658098    -0.0017335    0.0005541    -0.0003768    0.0003779     0.8249125   -0.3805935 
   0.006451601     0.9652253   -0.0608681     0.0001679   -0.0014533     0.0000669    0.0003539     0.8140678   -0.3870179 
   0.006551626     0.9497406   -0.0583297     0.0010091    0.0003459     0.0002923   -0.0000055     0.8138985   -0.3895407 
   0.006651651     0.9579104   -0.0394792    -0.0015016   -0.0014115     0.0000472   -0.0000630     0.8076780   -0.3960175 
   0.006751676     0.9543915   -0.0711987    -0.0012341    0.0004913    -0.0001079   -0.0000240     0.8039438   -0.3944109 
   0.006851701     0.9800763   -0.0789904    -0.0005446   -0.0004164     0.0001635   -0.0002108     0.7957363   -0.4007282 
   0.006951726     0.9483595   -0.0746690     0.0002419    0.0000661     0.0001178    0.0006332     0.7956172   -0.4036916 
   0.007051751     0.9493746   -0.0494735    -0.0012928    0.0003119    -0.0004379    0.0004221     0.7835337   -0.4050481 
   0.007151776     0.9430473   -0.0491807     0.0001386    0.0012223    -0.0000366   -0.0001426     0.7766814   -0.4102157 
   0.007251801     0.9935813   -0.0270056    -0.0008354    0.0022674     0.0005907   -0.0000373     0.7759742   -0.4104201 
   0.007351826     0.9880170   -0.0560069     0.0012466    0.0023854     0.0005786    0.0002231     0.7727913   -0.4239205 
   0.007451851     0.9647002   -0.0674991     0.0008171   -0.0006844     0.0000702   -0.0004035     0.7671666   -0.4173226 
   0.007551876     0.9542049   -0.0643655    -0.0018039    0.0004708    -0.0000870    0.0002433     0.7653261   -0.4220110 
   0.007651901     0.9651992   -0.0674246     0.0001733    0.0007270     0.0000347    0.0008068     0.7617233   -0.4256102 
   0.007751926     0.9472502   -0.0463795     0.0001528    0.0003429    -0.0004147    0.0002402     0.7504050   -0.4290846 
   0.007851951     0.9541917   -0.0504828    -0.0004431   -0.0002695     0.0003061    0.0000861     0.7498381   -0.4297920 
   0.007951976     0.9667165   -0.0801853     0.0009610    0.0011611    -0.0000902    0.0006304     0.7437328   -0.4328416 
   0.008052001     0.9515659   -0.0647823    -0.0005445    0.0013619    -0.0002177    0.0003037     0.7396093   -0.4346455 
   0.008152026     0.9842349   -0.0679408     0.0004277    0.0001530    -0.0002166   -0.0000839     0.7373962   -0.4405157 
   0.008252051     0.9413310   -0.0578749    -0.0002828    0.0001573    -0.0003334    0.0000383     0.7267953   -0.4401267 
   0.008352076     0.9748214   -0.0768601     0.0003866    0.0016714    -0.0000354    0.0001157     0.7249105   -0.4409274 
   0.008452101     0.9579447   -0.0736218     0.0007667    0.0004570     0.0002453    0.0002964     0.7225610   -0.4446596 
   0.008552126     0.9506369   -0.0647717     0.0001635    0.0015389    -0.0003856    0.0003234     0.7153897   -0.4469183 
   0.008652151     0.9624208   -0.0480179     0.0002614    0.0010477    -0.0001342   -0.0001297     0.7109314   -0.4485614 
   0.008752176     0.9762295   -0.0487048     0.0013340   -0.0002773    -0.0001099    0.0001290     0.7068808   -0.4551878 
   0.008852201     0.9324998   -0.0584151    -0.0009577    0.0002982     0.0001629    0.0002381     0.7004421   -0.4519389 
   0.008952226     0.9608373   -0.0607860    -0.0014633   -0.0002407    -0.0002122   -0.0000168     0.6971643   -0.4527700 
   0.009052251     0.9778451   -0.0470467    -0.0004421    0.0012991    -0.0000096    0.0003374     0.6903247   -0.4587091 
   0.009152276     0.9636259   -0.0648623    -0.0003410    0.0008313     0.0001617    0.0004477     0.6844572   -0.4615232 
   0.009252301     0.9594553   -0.0606092    -0.0004574    0.0017533    -0.0000950    0.0001810     0.6802357   -0.4610186 
   0.009352326     0.9782920   -0.0642792     0.0000905    0.0001159     0.0001939    0.0000239     0.6776677   -0.4647394 
   0.009452351     0.9661912   -0.0690461    -0.0004568    0.0009687     0.0005377    0.0003056     0.6738251   -0.4650400 
   0.009552376     0.9541320   -0.0779017     0.0002423    0.0005147    -0.0000173    0.0004371     0.6705120   -0.4670786 
   0.009652401     0.9490082   -0.0655862    -0.0007579    0.0005768    -0.0002373   -0.0001164     0.6625122   -0.4667356 
   0.009752426     0.9621696   -0.0585386     0.0000955   -0.0005738    -0.0001401    0.0003378     0.6602216   -0.4652899 
   0.009852451     0.9573345   -0.0684131    -0.0001709    0.0007022     0.0000598   -0.0000825     0.6538797   -0.4687936 
   0.009952476     0.9715346   -0.0742348    -0.0007624   -0.0003895     0.0001204    0.0003477     0.6496878   -0.4694989 
   0.010052501     0.9625896   -0.0686425     0.0003709    0.0004196     0.0002839   -0.0001243     0.6449504   -0.4715475 
   0.010152526     0.9483855   -0.0559773    -0.0006677    0.0005489    -0.0005968   -0.0000886     0.6416634   -0.4719855 
   0.010252551     0.9486185   -0.0606106    -0.0005528    0.0006832     0.0001446    0.0005280     0.6366241   -0.4789407 
   0.010352576     0.9620532   -0.0715130    -0.0004192   -0.0002396     0.0001492    0.0001617     0.6325050   -0.4765239 
   0.010452601     0.9614000   -0.0546876     0.0005951   -0.0007329     0.0000988    0.0003236     0.6283838   -0.4796498 
   0.010552626     0.9447375   -0.0834666     0.0005795   -0.0001018    -0.0002926    0.0005186     0.6237552   -0.4792100 
   0.010652651     0.9544081   -0.0740129     0.0009718   -0.0003099    -0.0005354   -0.0001899     0.6191146   -0.4788811 
   0.010752676     0.9711732   -0.0727115     0.0001701    0.0008063     0.0000412    0.0003936     0.6156028   -0.4802547 
   0.010852701     0.9579594   -0.0574466     0.0001049    0.0012803     0.0000843    0.0005042     0.6116127   -0.4818699 
   0.010952726     0.9638131   -0.0734244    -0.0002885    0.0015953    -0.0002825    0.0005415     0.6070490   -0.4836711 
   0.011052751     0.9619276   -0.0758517     0.0015722    0.0005055    -0.0003320    0.0005375     0.6011183   -0.4833512 
   0.011152776     0.9708173   -0.0759953     0.0017117    0.0005261     0.0001822    0.0001657     0.6001577   -0.4838926 
   0.011252801     0.9603098   -0.0871217    -0.0003068    0.0004732    -0.0002495    0.0001648     0.5921750   -0.4851992 
   0.011352826     0.9624857   -0.0862150     0.0011590    0.0002748     0.0002063    0.0003874     0.5920661   -0.4849159 
   0.011452851     0.9626876   -0.0884240     0.0012546   -0.0001617     0.0001569    0.0004246     0.5847299   -0.4860370 
   0.011552876     0.9492447   -0.0844974     0.0004340    0.0016046    -0.0000467    0.0001571     0.5809729   -0.4913596 
   0.011652901     0.9488893   -0.0851471     0.0002328    0.0006410    -0.0002593    0.0002382     0.5776908   -0.4880973 
   0.011752926     0.9394062   -0.0854649     0.0003468   -0.0008782    -0.0003921    0.0004509     0.5761787   -0.4869771 
   0.011852951     0.9735881   -0.0976381     0.0001135    0.0009770     0.0000037    0.0003141     0.5708829   -0.4896771 
   0.011952976     0.9453958   -0.0782111    -0.0005139    0.0011490     0.0002023    0.0003369     0.5640721   -0.4901249 
   0.012053002     0.9625320   -0.0970420    -0.0001182    0.0004116    -0.0003613    0.0005886     0.5615610   -0.4879822 
   0.012153027     0.9511160   -0.0937147    -0.0006818    0.0000280    -0.0002920    0.0007384     0.5556984   -0.4898004 
   0.012253052     0.9402573   -0.0855850    -0.0000875    0.0006635     0.0000445    0.0001234     0.5557287   -0.4905823 
   0.012353077     0.9674709   -0.0831748    -0.0002053    0.0009932     0.0000603    0.0002128     0.5513254   -0.4904633 
   0.012453102     0.9699814   -0.0750880     0.0005323   -0.0013561     0.0000573    0.0005121     0.5457255   -0.4928409 
   0.012553127     0.9592909   -0.1098795     0.0000673    0.0013303    -0.0000452    0.0004107     0.5387816   -0.4899088 
   0.012653152     0.9562172   -0.0661319    -0.0000880    0.0008960     0.0000553    0.0005042     0.5378441   -0.4900158 
   0.012753177     0.9496832   -0.0840451     0.0004234    0.0007861     0.0001553    0.0001998     0.5360205   -0.4922230 
   0.012853202     0.9551330   -0.0666624    -0.0001224    0.0008833     0.0004942    0.0004434     0.5284271   -0.4902497 
   0.012953227     0.9608365   -0.0769603    -0.0001164   -0.0002845     0.0000805    0.0001976     0.5264967   -0.4938446 
   0.013053252     0.9473801   -0.0904479     0.0002280    0.0001553     0.0000712    0.0005375     0.5228550   -0.4914143 
   0.013153277     0.9692557   -0.0811052    -0.0005782    0.0010581     0.0002013    0.0002695     0.5199021   -0.4937654 
   0.013253302     0.9616148   -0.0747790    -0.0010650    0.0009164    -0.0001428    0.0008817     0.5169424   -0.4913721 
   0.013353327     0.9581020   -0.0709780    -0.0010550    0.0006008    -0.0000769    0.0002045     0.5140861   -0.4910252 
   0.013453352     0.9552483   -0.0668529    -0.0006877    0.0005963    -0.0001157    0.0002610     0.5083100   -0.4956554 
   0.013553377     0.9437850   -0.0832520     0.0006351    0.0002624     0.0001604    0.0001239     0.5049022   -0.4932564 
   0.013653402     0.9423217   -0.0869592     0.0001652    0.0004081    -0.0001677    0.0003093     0.5004708   -0.4939190 
   0.013753427     0.9649328   -0.0994098     0.0013764   -0.0002010     0.0001420    0.0003968     0.4968155   -0.4922219 
   0.013853452     0.9621512   -0.0918220    -0.0008057    0.0005338     0.0000523    0.0009068     0.4981859   -0.4921831 
   0.013953477     0.9459066   -0.0835482    -0.0002269    0.0008863     0.0003086    0.0003019     0.4919693   -0.4943544 
   0.014053502     0.9545071   -0.0894303     0.0008595    0.0008582     0.0002666    0.0004170     0.4875963   -0.4922333 
   0.014153527     0.9552469   -0.0914706    -0.0007039   -0.0000694     0.0003429    0.0007589     0.4851907   -0.4935300 
   0.014253552     0.9510028   -0.0910581    -0.0005313    0.0007480    -0.0002561    0.0003403     0.4837991   -0.4928481 
   0.014353577     0.9351475   -0.0873256     0.0005867    0.0001723     0.0002481    0.0005016     0.4747103   -0.4915124 
   0.014453602     0.9343855   -0.1000850    -0.0002063    0.0009848    -0.0002444    0.0002337     0.4738535   -0.4903466 
   0.014553627     0.9521988   -0.0884424     0.0000923    0.0002213    -0.0004445    0.0001727     0.4728189   -0.4900848 
   0.014653652     0.9609250   -0.0908903    -0.0008543    0.0000351     0.0000008    0.0004033     0.4660665   -0.4921154 
   0.014753677     0.9406065   -0.0959225     0.0011455   -0.0001868    -0.0001171    0.0007466     0.4618810   -0.4896091 
   0.014853702     0.9524586   -0.0874241    -0.0007373    0.0007517    -0.0000888    0.0002805     0.4609526   -0.4882166 
   0.014953727     0.9393871   -0.1063448    -0.0004568    0.0005543     0.0000261    0.0003822     0.4578378   -0.4892294 
   0.015053752     0.9434506   -0.0918399     0.0008859    0.0004824    -0.0000192    0.0008016     0.4539332   -0.4876856 
   0.015153777     0.9661195   -0.0924033     0.0003384    0.0009634     0.0001998    0.0001981     0.4522204   -0.4915548 
   0.015253802     0.9478966   -0.1041821     0.0008297    0.0005478    -0.0000331    0.0002334     0.4492723   -0.4883833 
   0.015353827     0.9608588   -0.0980628     0.0004305    0.0015338    -0.0000210    0.0004724     0.4442134   -0.4874083 
   0.015453852     0.9530684   -0.1000053    -0.0000750    0.0003465     0.0004501    0.0004685     0.4410843   -0.4871053 
   0.015553877     0.9445170   -0.0957328    -0.0000063    0.0012226    -0.0001047    0.0004461     0.4383095   -0.4870361 
   0.015653902     0.9671854   -0.0971891     0.0002996    0.0005025    -0.0002978    0.0001083     0.4358466   -0.4877270 
   0.015753927     0.9427316   -0.0892963    -0.0000109    0.0003727     0.0003128    0.0001741     0.4300840   -0.4877442 
   0.015853952     0.9523916   -0.1087745     0.0001686   -0.0003283     0.0002556    0.0007174     0.4306616   -0.4845754 
   0.015953977     0.9536898   -0.0939423    -0.0004288    0.0006818     0.0000950    0.0005314     0.4265230   -0.4846002 
   0.016054002     0.9494769   -0.0894953     0.0013957    0.0001413    -0.0000931    0.0008166     0.4222821   -0.4847328 
   0.016154027     0.9574494   -0.1139563    -0.0001445    0.0001855    -0.0000026    0.0003912     0.4208520   -0.4850712 
   0.016254052     0.9497551   -0.0857971    -0.0001425    0.0002359     0.0000575    0.0005264     0.4176051   -0.4840221 
   0.016354077     0.9411218   -0.0958663     0.0004266    0.0003885     0.0000537    0.0006230     0.4172410   -0.4810329 
   0.016454102     0.9540866   -0.0883577     0.0001274   -0.0003948     0.0000286    0.0006019     0.4105762   -0.4849217 
   0.016554127     0.9517717   -0.1030984     0.0000318   -0.0001179     0.0000883    0.0002245     0.4082339   -0.4818009 
   0.016654152     0.9432660   -0.0921033     0.0008184    0.0002238     0.0002188    0.0005350     0.4060349   -0.4831845 
   0.016754177     0.9499767   -0.1047123     0.0006173    0.0005091     0.0001774    0.0005010     0.4027588   -0.4807388 
   0.016854202     0.9517632   -0.0960169     0.0008731    0.0012774     0.0000032    0.0002639     0.4014339   -0.4811329 
   0.016954227     0.9728124   -0.1026831     0.0009453    0.0001815     0.0001898    0.0006475     0.4015996   -0.4819267 
   0.017054252     0.9511340   -0.1060680    -0.0000476    0.0002089     0.0001695    0.0004307     0.3959913   -0.4787844 
   0.017154277     0.9457089   -0.0990278    -0.0000573    0.0013146     0.0002127    0.0003223     0.3930183   -0.4795548 
   0.017254302     0.9524031   -0.0915530     0.0002665    0.0007431    -0.0000932    0.0003496     0.3889861   -0.4780676 
   0.017354327     0.9717951   -0.0964810     0.0004051   -0.0002923     0.0002600    0.0005128     0.3886755   -0.4775449 
   0.017454352     0.9491191   -0.1017146     0.0003960    0.0002503     0.0000242    0.0005002     0.3833552   -0.4786598 
   0.017554377     0.9565750   -0.1095746    -0.0005611    0.0001891     0.0004698    0.0006134     0.3839699   -0.4761206 
   0.017654402     0.9489561   -0.0879493     0.0009097    0.0005603    -0.0000233    0.0002370     0.3787952   -0.4758255 
   0.017754427     0.9488337   -0.1136403    -0.0004831    0.0014165     0.0004062    0.0005771     0.3776279   -0.4737905 
   0.017854452     0.9682614   -0.1121988    -0.0002951   -0.0001149     0.0001451    0.0003752     0.3747306   -0.4744670 
   0.017954477     0.9469305   -0.1079566     0.0005466    0.0002155     0.0001581    0.0004077     0.3734178   -0.4721966 
   0.018054502     0.9571232   -0.1064488     0.0005374    0.0001720     0.0002743    0.0005217     0.3700889   -0.4719165 
   0.018154527     0.9613718   -0.1057795     0.0002933   -0.0000111     0.0004433    0.0003789     0.3674186   -0.4725845 
   0.018254552     0.9539772   -0.1135132    -0.0000574    0.0009269    -0.0001510    0.0002120     0.3642650   -0.4692208 
   0.018354577     0.9624415   -0.1171274     0.0000089    0.0003306     0.0000255    0.0004284     0.3616050   -0.4712448 
   0.018454602     0.9527387   -0.1047582    -0.0004263    0.0012503     0.0001089    0.0003809     0.3599916   -0.4704188 
   0.018554627     0.9573935   -0.1201767    -0.0000572    0.0003807    -0.0000050    0.0006282     0.3580496   -0.4686094 
   0.018654652     0.9617025   -0.1201532    -0.0006477    0.0011561     0.0003021    0.0005286     0.3557530   -0.4658784 
   0.018754677     0.9455071   -0.1128548    -0.0001142   -0.0002177    -0.0000192    0.0003038     0.3531587   -0.4680873 
   0.018854702     0.9439037   -0.1033431    -0.0001503    0.0004224     0.0002507    0.0006322     0.3533560   -0.4679627 
   0.018954727     0.9483547   -0.1189221     0.0006096    0.0015818     0.0001622    0.0002335     0.3490959   -0.4649478 
   0.019054752     0.9473428   -0.1126221    -0.0002369    0.0010119     0.0002191    0.0002534     0.3460367   -0.4664811 
   0.019154777     0.9434879   -0.1164280     0.0005175    0.0000240     0.0003194    0.0004241     0.3438372   -0.4634609 
   0.019254802     0.9636685   -0.1239052     0.0001165    0.0001501     0.0002371    0.0004399     0.3400134   -0.4627773 
   0.019354827     0.9397025   -0.1180682     0.0000250    0.0006317     0.0001320    0.0003703     0.3390797   -0.4638084 
   0.019454852     0.9504025   -0.1171820     0.0004053    0.0004928     0.0004412    0.0005525     0.3377573   -0.4633206 
   0.019554877     0.9367936   -0.1163184    -0.0001499    0.0000735     0.0003103    0.0003877     0.3368485   -0.4625583 
   0.019654902     0.9550554   -0.1079075     0.0007298    0.0006463     0.0001853    0.0004836     0.3336835   -0.4614516 
   0.019754927     0.9379494   -0.1156081     0.0004717    0.0001585     0.0002136    0.0004694     0.3316106   -0.4611229 
   0.019854952     0.9437994   -0.1247342     0.0007183    0.0004494     0.0004068    0.0004995     0.3297238   -0.4575252 
   0.019954977     0.9542895   -0.1260483     0.0006394    0.0006471    -0.0001162    0.0007137     0.3276740   -0.4576141 
   0.020055003     0.9584624   -0.1177671     0.0003712    0.0000979    -0.0002088    0.0002181     0.3263773   -0.4575945 
   0.020155028     0.9450407   -0.1226558     0.0001460    0.0002847     0.0004336    0.0006692     0.3226739   -0.4569761 
   0.020255053     0.9418785   -0.1166450     0.0002449    0.0004402     0.0001794    0.0004893     0.3207131   -0.4560886 
   0.020355078     0.9545553   -0.1187175     0.0001280   -0.0001377     0.0001964    0.0006296     0.3182497   -0.4556741 
   0.020455103     0.9605064   -0.1159276     0.0004098    0.0004613     0.0002129    0.0004575     0.3192278   -0.4549433 
   0.020555128     0.9424070   -0.1261958     0.0004404   -0.0003781     0.0001597    0.0006191     0.3153476   -0.4537610 
   0.020655153     0.9539838   -0.1180544    -0.0001762    0.0013203     0.0000799    0.0005291     0.3131027   -0.4521046 
   0.020755178     0.9428550   -0.1233594    -0.0001135   -0.0001896     0.0001222    0.0005256     0.3116745   -0.4516136 
   0.020855203     0.9465486   -0.1244827     0.0003627    0.0006992     0.0003003    0.0005052     0.3073105   -0.4511189 
   0.020955228     0.9415914   -0.1236142    -0.0000980    0.0013264     0.0002537    0.0003303     0.3072526   -0.4493189 
   0.021055253     0.9356990   -0.1369759    -0.0001855    0.0013322     0.0001401    0.0004372     0.3064432   -0.4485408 
   0.021155278     0.9474499   -0.1202581     0.0002111    0.0003947     0.0002160    0.0003792     0.3053467   -0.4483445 
   0.021255303     0.9428406   -0.1323163    -0.0001911    0.0003337     0.0002185    0.0005725     0.3012723   -0.4486131 
   0.021355328     0.9523509   -0.1195784    -0.0003931    0.0008328     0.0001392    0.0005085     0.3007412   -0.4462957 
   0.021455353     0.9517002   -0.1373091     0.0011252   -0.0001190     0.0001241    0.0003012     0.2966790   -0.4459764 
   0.021555378     0.9475383   -0.1265814    -0.0003072    0.0003047     0.0001350    0.0002983     0.2951275   -0.4436345 
   0.021655403     0.9414082   -0.1332206    -0.0000757    0.0003359     0.0002414    0.0005563     0.2952316   -0.4446855 
   0.021755428     0.9419357   -0.1346528     0.0006332    0.0002099     0.0002976    0.0006994     0.2932574   -0.4442801 
   0.021855453     0.9464308   -0.1281346    -0.0000963    0.0005625     0.0002333    0.0004830     0.2912038   -0.4406266 
   0.021955478     0.9425518   -0.1391958     0.0005469    0.0011403     0.0003522    0.0006452     0.2899725   -0.4409589 
   0.022055503     0.9505749   -0.1341535     0.0002082    0.0014400     0.0001516    0.0002085     0.2879378   -0.4411073 
   0.022155528     0.9529049   -0.1296306    -0.0003047    0.0006596    -0.0000282    0.0004483     0.2851022   -0.4398699 
   0.022255553     0.9421650   -0.1341291     0.0005788    0.0001977     0.0000938    0.0004538     0.2838807   -0.4398634 
   0.022355578     0.9468418   -0.1252783    -0.0000421    0.0010665     0.0002579    0.0002496     0.2823382   -0.4376036 
   0.022455603     0.9334865   -0.1407105    -0.0000855    0.0008116     0.0002895    0.0004463     0.2815092   -0.4383329 
   0.022555628     0.9474355   -0.1279895     0.0008136    0.0007869     0.0002657    0.0007456     0.2787267   -0.4367961 
   0.022655653     0.9492745   -0.1336259     0.0006776    0.0004562     0.0003489    0.0005402     0.2774372   -0.4344844 
   0.022755678     0.9303905   -0.1505527     0.0005882    0.0008154     0.0003792    0.0008010     0.2766546   -0.4341903 
   0.022855703     0.9427989   -0.1375054     0.0006275   -0.0002606     0.0003712    0.0003866     0.2739705   -0.4329639 
   0.022955728     0.9469478   -0.1343959    -0.0006837    0.0003306     0.0003135    0.0006781     0.2722081   -0.4324504 
   0.023055753     0.9420641   -0.1369638     0.0007425    0.0001834     0.0001384    0.0005439     0.2708861   -0.4324086 
   0.023155778     0.9441183   -0.1379657     0.0001469    0.0008711     0.0000206    0.0001317     0.2701639   -0.4323281 
   0.023255803     0.9403964   -0.1354876     0.0005042    0.0008395     0.0002868    0.0006297     0.2673577   -0.4299007 
   0.023355828     0.9410594   -0.1499332     0.0000195    0.0012665     0.0003431    0.0003518     0.2663024   -0.4301425 
   0.023455853     0.9451693   -0.1439529     0.0004980    0.0007068     0.0004520    0.0003887     0.2643991   -0.4292214 
   0.023555878     0.9468833   -0.1431004     0.0002277    0.0002629     0.0002570    0.0007009     0.2633726   -0.4282122 
   0.023655903     0.9391470   -0.1404928    -0.0001786    0.0008587     0.0003230    0.0004924     0.2626252   -0.4271275 
   0.023755928     0.9409866   -0.1398824    -0.0002978    0.0003632     0.0002964    0.0005248     0.2603711   -0.4245361 
   0.023855953     0.9463494   -0.1373887    -0.0002303    0.0006743     0.0002732    0.0004582     0.2579488   -0.4255215 
   0.023955978     0.9427158   -0.1478672     0.0009369    0.0007004     0.0003895    0.0005044     0.2593336   -0.4259168 
   0.024056003     0.9503731   -0.1368936     0.0007959    0.0010431     0.0003423    0.0005143     0.2553000   -0.4246776 
   0.024156028     0.9410183   -0.1514254     0.0002232    0.0007230     0.0002719    0.0002707     0.2540480   -0.4235150 
   0.024256053     0.9468654   -0.1440021    -0.0005225    0.0002043     0.0002378    0.0002489     0.2525121   -0.4218781 
   0.024356078     0.9496849   -0.1476067    -0.0000058    0.0002169     0.0003723    0.0006692     0.2515043   -0.4223161 
   0.024456103     0.9469365   -0.1480786     0.0006637    0.0005298     0.0003483    0.0003315     0.2493165   -0.4198968 
   0.024556128     0.9415631   -0.1382078    -0.0003408    0.0006418     0.0004626    0.0004765     0.2485569   -0.4198946 
   0.024656153     0.9442626   -0.1458424     0.0007060    0.0004263     0.0003705    0.0004689     0.2483046   -0.4188508 
   0.024756178     0.9483932   -0.1431541     0.0001413    0.0006661     0.0000974    0.0001598     0.2465641   -0.4169548 
   0.024856203     0.9474031   -0.1458547     0.0004724    0.0007653     0.0003989    0.0004322     0.2454107   -0.4157273 
   0.024956228     0.9515823   -0.1428024     0.0003431    0.0006811     0.0002117    0.0006044     0.2439695   -0.4162877 
   0.025056253     0.9345866   -0.1480297     0.0003799    0.0016539     0.0003783    0.0004758     0.2426081   -0.4165726 
   0.025156278     0.9491932   -0.1543806     0.0002236    0.0006269     0.0002161    0.0003736     0.2413394   -0.4146269 
   0.025256303     0.9474936   -0.1420504     0.0004639    0.0005439     0.0003218    0.0005393     0.2398063   -0.4124686 
   0.025356328     0.9493150   -0.1379372     0.0006209    0.0008514     0.0003623    0.0007857     0.2380754   -0.4133448 
   0.025456353     0.9456237   -0.1467188     0.0006496    0.0007349     0.0002974    0.0005779     0.2367509   -0.4122255 
   0.025556378     0.9458610   -0.1502584     0.0001623    0.0005718     0.0002832    0.0005515     0.2363275   -0.4107054 
   0.025656403     0.9438052   -0.1553102    -0.0002115    0.0000480     0.0003489    0.0004412     0.2341002   -0.4100921 
   0.025756428     0.9484282   -0.1520184     0.0003004    0.0012059     0.0001646    0.0005619     0.2314556   -0.4087295 
   0.025856453     0.9451811   -0.1591243     0.0001812    0.0000148     0.0002739    0.0004686     0.2325531   -0.4073748 
   0.025956478     0.9461568   -0.1479387     0.0000844    0.0007655     0.0003912    0.0004477     0.2308220   -0.4074138 
   0.026056503     0.9380779   -0.1605710     0.0000968    0.0010727     0.0002580    0.0004655     0.2293171   -0.4058944 
   0.026156528     0.9422197   -0.1553986     0.0006833    0.0004996     0.0003016    0.0004454     0.2281950   -0.4060398 
   0.026256553     0.9401796   -0.1573418    -0.0003459    0.0006361     0.0004083    0.0006981     0.2269357   -0.4050889 
   0.026356578     0.9553784   -0.1485615    -0.0002244    0.0002572     0.0004313    0.0006382     0.2265166   -0.4055533 
   0.026456603     0.9443122   -0.1596824     0.0002818    0.0004629     0.0005085    0.0003895     0.2251564   -0.4038251 
   0.026556628     0.9496372   -0.1544846     0.0001231    0.0009270     0.0002943    0.0005534     0.2237782   -0.4024116 
   0.026656653     0.9403565   -0.1559274     0.0001264   -0.0002212     0.0001650    0.0005255     0.2226087   -0.4015645 
   0.026756678     0.9408268   -0.1563959     0.0002103    0.0007534     0.0004163    0.0004990     0.2219507   -0.4011692 
   0.026856703     0.9445309   -0.1622493     0.0005867    0.0001626     0.0002797    0.0007365     0.2209148   -0.4010791 
   0.026956728     0.9444997   -0.1560175    -0.0000784    0.0003511     0.0003739    0.0005419     0.2192295   -0.3991696 
   0.027056753     0.9413543   -0.1685415    -0.0001628    0.0008131     0.0004774    0.0005063     0.2168955   -0.3981211 
   0.027156778     0.9409062   -0.1602635    -0.0000429    0.0001105     0.0002200    0.0005477     0.2163352   -0.3964957 
   0.027256803     0.9362639   -0.1559878     0.0002624    0.0004320     0.0004069    0.0004979     0.2159200   -0.3974790 
   0.027356828     0.9538552   -0.1570317     0.0009693    0.0002952     0.0003811    0.0003961     0.2135822   -0.3951240 
   0.027456853     0.9510704   -0.1640327     0.0004544    0.0004000     0.0001962    0.0004627     0.2136520   -0.3967522 
   0.027556878     0.9397195   -0.1567923    -0.0002521    0.0006769     0.0002111    0.0003766     0.2113359   -0.3929643 
   0.027656903     0.9439732   -0.1641303     0.0004144    0.0006799     0.0001636    0.0004656     0.2106592   -0.3934842 
   0.027756928     0.9403455   -0.1560950    -0.0001997    0.0006229     0.0004847    0.0006234     0.2100037   -0.3926750 
   0.027856953     0.9473832   -0.1604763     0.0006463    0.0011238     0.0002961    0.0004956     0.2094849   -0.3916238 
   0.027956978     0.9354382   -0.1631676     0.0004319    0.0000360     0.0003953    0.0004202     0.2074149   -0.3916688 
   0.028057004     0.9430311   -0.1631264     0.0002167    0.0005847     0.0004252    0.0006648     0.2060532   -0.3897871 
   0.028157029     0.9432961   -0.1680309    -0.0000287    0.0005551     0.0001516    0.0004997     0.2050978   -0.3903074 
   0.028257054     0.9379892   -0.1656464     0.0001004   -0.0000147     0.0004580    0.0005132     0.2059433   -0.3895830 
   0.028357079     0.9380578   -0.1722338    -0.0001186    0.0002720     0.0003769    0.0005387     0.2030679   -0.3875480 
   0.028457104     0.9420989   -0.1584006     0.0005995    0.0002286     0.0004938    0.0004466     0.2032272   -0.3867441 
   0.028557129     0.9453689   -0.1719521     0.0000821    0.0002840     0.0002246    0.0005583     0.2026108   -0.3872791 
   0.028657154     0.9436454   -0.1586183     0.0004526    0.0009749     0.0001957    0.0005611     0.2009329   -0.3856230 
   0.028757179     0.9427958   -0.1647216     0.0006041    0.0008819     0.0004035    0.0006262     0.2004702   -0.3850302 
   0.028857204     0.9411029   -0.1725595     0.0007067    0.0007588     0.0003812    0.0006869     0.1988593   -0.3841580 
   0.028957229     0.9440006   -0.1730899     0.0000905    0.0008068     0.0003232    0.0004592     0.1979565   -0.3833961 
   0.029057254     0.9456454   -0.1733355     0.0005280    0.0008151     0.0005947    0.0006209     0.1976726   -0.3831985 
   0.029157279     0.9441291   -0.1767310     0.0002137    0.0007240     0.0003437    0.0005026     0.1954506   -0.3825791 
   0.029257304     0.9433170   -0.1725457    -0.0000912    0.0006278     0.0004147    0.0004031     0.1952273   -0.3806103 
   0.029357329     0.9344838   -0.1677304     0.0008900    0.0005588     0.0003997    0.0004792     0.1945919   -0.3809873 
   0.029457354     0.9356424   -0.1685304     0.0006737    0.0009286     0.0002745    0.0006396     0.1935813   -0.3792636 
   0.029557379     0.9437674   -0.1714976     0.0004316   -0.0003445     0.0002518    0.0006620     0.1919325   -0.3796285 
   0.029657404     0.9467213   -0.1775326     0.0003679    0.0004192     0.0005024    0.0003749     0.1914047   -0.3775932 
   0.029757429     0.9439797   -0.1754504     0.0004144    0.0004121     0.0004281    0.0005534     0.1902291   -0.3780135 
   0.029857454     0.9372596   -0.1772216     0.0004243    0.0003084     0.0003391    0.0006520     0.1897585   -0.3767553 
   0.029957479     0.9338342   -0.1775915     0.0002908    0.0003905     0.0002996    0.0004960     0.1886083   -0.3754628 
   0.030057504     0.9452497   -0.1778296     0.0004159    0.0009689     0.0003445    0.0007301     0.1876400   -0.3745444 
   0.030157529     0.9371985   -0.1769562     0.0003389    0.0003477     0.0003369    0.0005953     0.1864928   -0.3743993 
   0.030257554     0.9439335   -0.1714749     0.0004426    0.0004465     0.0005060    0.0006495     0.1860886   -0.3725810 
   0.030357579     0.9375489   -0.1680197     0.0004694    0.0003125     0.0004363    0.0005826     0.1848242   -0.3730291 
   0.030457604     0.9401242   -0.1818658     0.0004249    0.0009576     0.0003840    0.0005198     0.1848094   -0.3730606 
   0.030557629     0.9327127   -0.1727994     0.0003918    0.0001583     0.0004298    0.0006042     0.1842280   -0.3719113 
   0.030657654     0.9380435   -0.1769256     0.0006310    0.0006425     0.0002217    0.0005167     0.1833336   -0.3709790 
   0.030757679     0.9438736   -0.1791306     0.0005582    0.0003326     0.0003006    0.0005183     0.1826505   -0.3702819 
   0.030857704     0.9364117   -0.1803402     0.0005212    0.0005834     0.0003777    0.0006373     0.1815247   -0.3699604 
   0.030957729     0.9413593   -0.1865124     0.0003140    0.0004056     0.0005484    0.0005269     0.1797095   -0.3701103 
   0.031057754     0.9405556   -0.1804097     0.0004767    0.0002058     0.0005539    0.0005140     0.1801210   -0.3685763 
   0.031157779     0.9420773   -0.1785234     0.0005543    0.0003565     0.0005314    0.0004995     0.1787971   -0.3671964 
   0.031257804     0.9410771   -0.1832380     0.0004714    0.0008645     0.0003396    0.0006212     0.1777082   -0.3672492 
   0.031357829     0.9400226   -0.1774956     0.0005442    0.0004637     0.0004798    0.0006645     0.1764946   -0.3644608 
   0.031457854     0.9300414   -0.1821166     0.0002985    0.0007491     0.0003751    0.0006373     0.1750360   -0.3655978 
   0.031557879     0.9414726   -0.1790017     0.0004835    0.0006572     0.0003208    0.0005305     0.1758917   -0.3645004 
   0.031657904     0.9339557   -0.1874289     0.0008956    0.0004951     0.0003732    0.0005235     0.1748687   -0.3635911 
   0.031757929     0.9386100   -0.1850401     0.0005530    0.0007594     0.0004493    0.0004679     0.1729881   -0.3633495 
   0.031857954     0.9371339   -0.1885237     0.0006009    0.0003968     0.0004437    0.0004086     0.1735949   -0.3620526 
   0.031957979     0.9415405   -0.1824227     0.0005852    0.0006478     0.0004615    0.0004971     0.1719861   -0.3617634 
   0.032058004     0.9412660   -0.1859628     0.0001799    0.0004891     0.0004887    0.0005335     0.1706159   -0.3608599 
   0.032158029     0.9388559   -0.1884308     0.0002607    0.0005421     0.0004689    0.0005974     0.1707254   -0.3606145 
   0.032258054     0.9420511   -0.1828480     0.0004551    0.0002661     0.0004154    0.0007213     0.1700034   -0.3596824 
   0.032358079     0.9355987   -0.1821148     0.0004508    0.0006982     0.0004196    0.0005375     0.1687685   -0.3588273 
   0.032458104     0.9398814   -0.1857484     0.0002658    0.0006009     0.0004504    0.0005922     0.1676814   -0.3586302 
   0.032558129     0.9384109   -0.1878244     0.0005802    0.0001592     0.0003917    0.0005456     0.1681526   -0.3582324 
   0.032658154     0.9381704   -0.1824212     0.0008179    0.0005245     0.0005010    0.0004853     0.1664922   -0.3564029 
   0.032758179     0.9380902   -0.1907210     0.0005220    0.0004990     0.0004884    0.0006115     0.1663921   -0.3561681 
   0.032858204     0.9383161   -0.1868821     0.0003395    0.0007738     0.0004693    0.0006039     0.1643881   -0.3561573 
   0.032958229     0.9388691   -0.1877017     0.0002934    0.0003570     0.0004346    0.0005815     0.1646990   -0.3538322 
   0.033058254     0.9366234   -0.1844755     0.0004342    0.0002219     0.0004968    0.0005982     0.1645066   -0.3547089 
   0.033158279     0.9389695   -0.1931944     0.0004536    0.0005935     0.0004505    0.0006045     0.1638688   -0.3538367 
   0.033258304     0.9336114   -0.1893531     0.0004262    0.0007157     0.0005407    0.0006132     0.1622660   -0.3525280 
   0.033358329     0.9381981   -0.1927371     0.0004367    0.0000730     0.0004814    0.0005844     0.1617027   -0.3515570 
   0.033458354     0.9356499   -0.1945953     0.0007689    0.0008102     0.0003949    0.0006181     0.1611371   -0.3509130 
   0.033558379     0.9323019   -0.1901445     0.0004883    0.0003291     0.0003395    0.0005655     0.1604188   -0.3505284 
   0.033658404     0.9345206   -0.1966245     0.0008244    0.0003611     0.0004779    0.0005494     0.1596422   -0.3500915 
   0.033758429     0.9375859   -0.1975336     0.0008112    0.0006065     0.0004011    0.0005016     0.1599905   -0.3498675 
   0.033858454     0.9364782   -0.1987596     0.0004814    0.0004894     0.0005354    0.0005769     0.1594393   -0.3481014 
   0.033958479     0.9400760   -0.1960566     0.0006183    0.0006606     0.0004452    0.0005345     0.1583277   -0.3478288 
   0.034058504     0.9296695   -0.1939189     0.0005889    0.0005170     0.0004930    0.0004171     0.1565676   -0.3479925 
   0.034158529     0.9377812   -0.2001893     0.0004781    0.0006332     0.0005632    0.0005977     0.1572866   -0.3462867 
   0.034258554     0.9333152   -0.1961963     0.0005094    0.0004796     0.0004735    0.0004911     0.1556899   -0.3467811 
   0.034358579     0.9293895   -0.1987829     0.0004563    0.0006878     0.0005620    0.0005104     0.1554318   -0.3455350 
   0.034458604     0.9392467   -0.1990847     0.0005486    0.0005899     0.0003960    0.0004665     0.1554003   -0.3450462 
   0.034558629     0.9334840   -0.1992387     0.0005471    0.0007316     0.0003535    0.0006124     0.1539589   -0.3443983 
   0.034658654     0.9327340   -0.1992273     0.0003436    0.0004357     0.0004439    0.0004293     0.1525858   -0.3429768 
   0.034758679     0.9371001   -0.2057359     0.0007648    0.0006753     0.0004820    0.0005194     0.1532644   -0.3423783 
   0.034858704     0.9362947   -0.2016366     0.0005501    0.0008501     0.0004313    0.0004939     0.1512547   -0.3420652 
   0.034958729     0.9338478   -0.1997624     0.0004156    0.0005205     0.0005166    0.0005039     0.1512048   -0.3418756 
   0.035058754     0.9335743   -0.2035277     0.0007668    0.0004233     0.0004174    0.0005034     0.1500630   -0.3413848 
   0.035158779     0.9365571   -0.2025676     0.0006329    0.0007966     0.0004574    0.0005285     0.1487627   -0.3399868 
   0.035258804     0.9363918   -0.2059029     0.0002272    0.0005994     0.0004446    0.0005591     0.1492356   -0.3397388 
   0.035358829     0.9330180   -0.2023578     0.0005172    0.0005339     0.0004444    0.0006291     0.1484573   -0.3382895 
   0.035458854     0.9357054   -0.2046303     0.0005073    0.0004036     0.0004416    0.0005229     0.1480833   -0.3390223 
   0.035558879     0.9391996   -0.2042344     0.0005068    0.0002597     0.0004921    0.0004843     0.1486682   -0.3387314 
   0.035658904     0.9308715   -0.2035569     0.0005647    0.0005341     0.0004968    0.0005597     0.1468159   -0.3371570 
   0.035758929     0.9324477   -0.2034305     0.0005984    0.0003774     0.0005715    0.0005062     0.1471124   -0.3366752 
   0.035858954     0.9298615   -0.2070975     0.0006547    0.0004692     0.0003970    0.0005895     0.1471223   -0.3356099 
   0.035958979     0.9342642   -0.2033630     0.0006880    0.0003949     0.0005260    0.0004437     0.1454663   -0.3357132 
   0.036059005     0.9330341   -0.2061173     0.0000822    0.0006972     0.0005235    0.0004668     0.1454763   -0.3349981 
   0.036159030     0.9325365   -0.2058013     0.0002742    0.0005104     0.0003468    0.0005055     0.1442736   -0.3348778 
   0.036259055     0.9302368   -0.2084699     0.0005652    0.0004124     0.0005047    0.0006608     0.1434895   -0.3336797 
   0.036359080     0.9283806   -0.2096891     0.0002783    0.0005279     0.0004158    0.0005292     0.1433659   -0.3335045 
   0.036459105     0.9320726   -0.2132033     0.0007874    0.0004815     0.0005250    0.0006354     0.1428209   -0.3325731 
   0.036559130     0.9288850   -0.2064926     0.0002600    0.0004515     0.0004774    0.0005546     0.1415669   -0.3313683 
   0.036659155     0.9336246   -0.2086413     0.0004957    0.0007015     0.0005354    0.0005106     0.1411312   -0.3313290 
   0.036759180     0.9312637   -0.2123002     0.0007996    0.0006500     0.0004630    0.0005005     0.1414556   -0.3307017 
   0.036859205     0.9326957   -0.2087970     0.0004080    0.0005650     0.0004943    0.0005844     0.1400552   -0.3302686 
   0.036959230     0.9319212   -0.2147740     0.0007523    0.0004728     0.0004998    0.0005837     0.1398162   -0.3297646 
   0.037059255     0.9354323   -0.2141492     0.0002976    0.0007085     0.0004736    0.0005664     0.1392673   -0.3294524 
   0.037159280     0.9315353   -0.2154877     0.0004658    0.0008116     0.0004952    0.0005418     0.1391841   -0.3281124 
   0.037259305     0.9330631   -0.2153185     0.0008152    0.0007040     0.0004300    0.0004982     0.1380141   -0.3277901 
   0.037359330     0.9334889   -0.2162289     0.0005552    0.0005926     0.0004189    0.0005000     0.1378343   -0.3276976 
   0.037459355     0.9297664   -0.2171650     0.0005736    0.0004633     0.0005104    0.0004905     0.1372856   -0.3265675 
   0.037559380     0.9325042   -0.2137499     0.0003973    0.0006177     0.0005327    0.0005267     0.1372000   -0.3259798 
   0.037659405     0.9288609   -0.2152312     0.0007189    0.0005011     0.0004338    0.0005297     0.1364059   -0.3250982 
   0.037759430     0.9289024   -0.2197826     0.0005244    0.0005433     0.0004475    0.0005699     0.1355237   -0.3238654 
   0.037859455     0.9286289   -0.2139508     0.0005804    0.0005554     0.0004542    0.0005044     0.1349892   -0.3239109 
   0.037959480     0.9269017   -0.2186900     0.0005258    0.0006724     0.0005607    0.0005166     0.1345411   -0.3242179 
   0.038059505     0.9303697   -0.2133873     0.0002508    0.0006788     0.0004886    0.0005731     0.1342199   -0.3236689 
   0.038159530     0.9322974   -0.2177520     0.0004832    0.0008383     0.0005043    0.0005980     0.1340068   -0.3222218 
   0.038259555     0.9297041   -0.2205247     0.0006069    0.0005324     0.0006058    0.0004714     0.1336841   -0.3219255 
   0.038359580     0.9273075   -0.2190522     0.0005378    0.0002779     0.0005267    0.0004917     0.1323554   -0.3213997 
   0.038459605     0.9292149   -0.2202771     0.0006141    0.0005183     0.0004888    0.0004864     0.1310378   -0.3201064 
   0.038559630     0.9297087   -0.2231317     0.0004117    0.0006150     0.0005223    0.0005662     0.1311528   -0.3208882 
   0.038659655     0.9326611   -0.2205466     0.0004630    0.0004198     0.0005249    0.0005355     0.1317544   -0.3196886 
   0.038759680     0.9280568   -0.2203681     0.0002945    0.0005303     0.0004607    0.0005640     0.1296333   -0.3201474 
   0.038859705     0.9298494   -0.2235657     0.0003192    0.0007834     0.0004490    0.0005125     0.1303123   -0.3188145 
   0.038959730     0.9278212   -0.2250895     0.0007211    0.0005066     0.0005792    0.0004460     0.1299264   -0.3183045 
   0.039059755     0.9317287   -0.2256553     0.0004363    0.0004676     0.0005058    0.0005767     0.1298708   -0.3173751 
   0.039159780     0.9299104   -0.2233782     0.0006061    0.0006623     0.0004710    0.0005642     0.1288408   -0.3176804 
   0.039259805     0.9290166   -0.2228450     0.0007333    0.0005539     0.0004796    0.0005108     0.1282810   -0.3169046 
   0.039359830     0.9265004   -0.2263147     0.0007703    0.0007815     0.0005174    0.0005436     0.1279705   -0.3156434 
   0.039459855     0.9249951   -0.2263031     0.0004648    0.0005794     0.0006070    0.0005977     0.1273030   -0.3158690 
   0.039559880     0.9230245   -0.2267643     0.0004665    0.0004263     0.0005671    0.0005370     0.1274817   -0.3146826 
   0.039659905     0.9286459   -0.2274772     0.0004303    0.0007838     0.0005628    0.0005986     0.1263429   -0.3134072 
   0.039759930     0.9271162   -0.2277232     0.0003462    0.0004934     0.0005942    0.0005836     0.1263707   -0.3141994 
   0.039859955     0.9255258   -0.2252658     0.0005978    0.0005025     0.0006330    0.0005487     0.1256648   -0.3142101 
   0.039959980     0.9277961   -0.2303030     0.0007884    0.0004422     0.0005461    0.0005067     0.1249306   -0.3127970 
   0.040060005     0.9276109   -0.2283805     0.0008603    0.0004957     0.0004991    0.0004937     0.1245507   -0.3120152 
   0.040160030     0.9266837   -0.2301039     0.0006211    0.0004009     0.0005354    0.0004788     0.1248252   -0.3112531 
   0.040260055     0.9274318   -0.2286268     0.0005461    0.0006290     0.0005077    0.0005296     0.1225399   -0.3115346 
   0.040360080     0.9221703   -0.2262511     0.0007721    0.0004761     0.0005455    0.0004865     0.1223120   -0.3101069 
   0.040460105     0.9279150   -0.2317824     0.0004790    0.0005844     0.0005989    0.0005768     0.1229298   -0.3097501 
   0.040560130     0.9258270   -0.2325220     0.0007065    0.0004940     0.0005303    0.0005232     0.1228966   -0.3095814 
   0.040660155     0.9236141   -0.2322847     0.0005858    0.0006100     0.0005248    0.0005195     0.1220901   -0.3086014 
   0.040760180     0.9244130   -0.2287834     0.0005344    0.0008399     0.0006559    0.0004577     0.1207491   -0.3081682 
   0.040860205     0.9215195   -0.2353024     0.0004874    0.0003832     0.0005234    0.0005454     0.1213743   -0.3079082 
   0.040960230     0.9264354   -0.2355363     0.0004109    0.0004710     0.0004931    0.0005174     0.1201627   -0.3077929 
   0.041060255     0.9229650   -0.2333236     0.0004199    0.0005010     0.0006209    0.0005337     0.1200603   -0.3072507 
   0.041160280     0.9256881   -0.2352930     0.0006674    0.0006532     0.0004898    0.0006148     0.1198858   -0.3063546 
   0.041260305     0.9271640   -0.2360793     0.0004928    0.0006108     0.0004679    0.0005613     0.1192408   -0.3053493 
   0.041360330     0.9257039   -0.2348229     0.0005142    0.0004163     0.0005431    0.0004199     0.1194053   -0.3057422 
   0.041460355     0.9210320   -0.2370266     0.0005320    0.0008974     0.0005339    0.0005360     0.1177493   -0.3052625 
   0.041560380     0.9227616   -0.2347890     0.0004874    0.0003090     0.0005512    0.0004846     0.1185802   -0.3051893 
   0.041660405     0.9220264   -0.2390075     0.0004377    0.0006367     0.0005917    0.0006222     0.1177251   -0.3039190 
   0.041760430     0.9241779   -0.2367684     0.0007570    0.0007302     0.0005763    0.0005971     0.1178997   -0.3034051 
   0.041860455     0.9247132   -0.2381033     0.0006411    0.0007339     0.0005530    0.0006079     0.1170990   -0.3031106 
   0.041960480     0.9243299   -0.2427710     0.0005690    0.0002999     0.0005136    0.0005852     0.1164164   -0.3027672 
   0.042060505     0.9191887   -0.2403449     0.0005054    0.0007960     0.0006733    0.0004517     0.1160177   -0.3015536 
   0.042160530     0.9212562   -0.2396675     0.0006198    0.0005574     0.0005998    0.0005214     0.1159432   -0.3016135 
   0.042260555     0.9243708   -0.2423307     0.0006248    0.0004618     0.0004693    0.0005553     0.1155319   -0.3011209 
   0.042360580     0.9195480   -0.2399801     0.0006354    0.0003295     0.0006712    0.0005242     0.1149197   -0.3008532 
   0.042460605     0.9232714   -0.2403335     0.0007629    0.0005751     0.0005585    0.0005183     0.1144104   -0.3004034 
   0.042560630     0.9214812   -0.2426622     0.0005863    0.0004954     0.0005564    0.0005057     0.1145899   -0.3002635 
   0.042660655     0.9231954   -0.2428157     0.0001796    0.0008219     0.0005711    0.0005230     0.1134382   -0.2998922 
   0.042760680     0.9166525   -0.2379879     0.0006719    0.0004260     0.0005928    0.0004482     0.1129934   -0.2984312 
   0.042860705     0.9212852   -0.2443548     0.0005950    0.0007688     0.0006228    0.0004925     0.1128435   -0.2984822 
   0.042960730     0.9202356   -0.2451408     0.0004622    0.0002458     0.0006350    0.0006663     0.1127871   -0.2978037 
   0.043060755     0.9223763   -0.2459812     0.0007014    0.0002489     0.0005453    0.0005582     0.1116708   -0.2971079 
   0.043160780     0.9212795   -0.2453018     0.0002239    0.0002660     0.0004876    0.0006003     0.1121649   -0.2972061 
   0.043260805     0.9223413   -0.2466473     0.0005728    0.0006770     0.0006478    0.0005574     0.1120066   -0.2965674 
   0.043360830     0.9202881   -0.2434495     0.0006631    0.0006675     0.0005874    0.0005554     0.1109305   -0.2961743 
   0.043460855     0.9174607   -0.2466801     0.0003539    0.0005031     0.0006100    0.0006153     0.1108792   -0.2955074 
   0.043560880     0.9203270   -0.2454363     0.0006264    0.0006744     0.0006763    0.0004227     0.1102996   -0.2951828 
   0.043660905     0.9211066   -0.2494987     0.0005632    0.0007033     0.0006992    0.0005711     0.1096571   -0.2949662 
   0.043760930     0.9216392   -0.2532408     0.0008533    0.0007666     0.0005793    0.0005722     0.1097130   -0.2948810 
   0.043860955     0.9189333   -0.2469450     0.0007177    0.0004667     0.0007393    0.0005775     0.1094037   -0.2937332 
   0.043960980     0.9184871   -0.2493035     0.0007443    0.0005175     0.0006081    0.0004481     0.1093945   -0.2936799 
   0.044061006     0.9189219   -0.2493361     0.0007011    0.0005579     0.0007092    0.0004815     0.1093777   -0.2931719 
   0.044161031     0.9235383   -0.2509626     0.0006456    0.0006957     0.0006367    0.0005657     0.1081863   -0.2919222 
   0.044261056     0.9201796   -0.2537471     0.0004936    0.0006538     0.0006261    0.0004969     0.1069839   -0.2920851 
   0.044361081     0.9179545   -0.2493256     0.0005091    0.0005066     0.0006124    0.0005815     0.1071312   -0.2920344 
   0.044461106     0.9209267   -0.2528221     0.0005039    0.0004111     0.0006135    0.0005399     0.1074731   -0.2919163 
   0.044561131     0.9193149   -0.2553266     0.0008079    0.0004054     0.0006891    0.0005538     0.1074071   -0.2907952 
   0.044661156     0.9170615   -0.2537204     0.0010350    0.0007931     0.0005675    0.0004693     0.1066468   -0.2911065 
   0.044761181     0.9193945   -0.2526474     0.0006983    0.0007375     0.0006120    0.0006184     0.1070118   -0.2898483 
   0.044861206     0.9221833   -0.2529411     0.0004211    0.0004641     0.0006260    0.0004407     0.1068338   -0.2899604 
   0.044961231     0.9185200   -0.2557940     0.0002783    0.0005023     0.0005262    0.0004577     0.1050132   -0.2883835 
   0.045061256     0.9184337   -0.2541620     0.0003114    0.0008273     0.0005177    0.0006043     0.1041506   -0.2881360 
   0.045161281     0.9175622   -0.2546503     0.0008222    0.0003366     0.0006603    0.0004470     0.1047700   -0.2874503 
   0.045261306     0.9171844   -0.2548239     0.0005006    0.0005191     0.0006253    0.0005807     0.1041470   -0.2882299 
   0.045361331     0.9182214   -0.2565300     0.0005835    0.0006141     0.0005879    0.0005396     0.1041801   -0.2868471 
   0.045461356     0.9170021   -0.2581665     0.0009497    0.0003670     0.0006089    0.0005382     0.1036751   -0.2868259 
   0.045561381     0.9129652   -0.2526992     0.0006537    0.0005300     0.0005726    0.0006205     0.1038316   -0.2858864 
   0.045661406     0.9145080   -0.2606606     0.0003264    0.0006320     0.0005428    0.0005290     0.1027230   -0.2854508 
   0.045761431     0.9214782   -0.2578756     0.0008597    0.0007985     0.0006392    0.0005385     0.1025327   -0.2853906 
   0.045861456     0.9182767   -0.2563083     0.0013749    0.0004448     0.0005995    0.0004895     0.1022331   -0.2851436 
   0.045961481     0.9139558   -0.2597656     0.0009540    0.0010074     0.0007136    0.0005355     0.1016030   -0.2847279 
   0.046061506     0.9141772   -0.2611208     0.0007591    0.0011049     0.0006427    0.0005552     0.1026001   -0.2843724 
   0.046161531     0.9139363   -0.2635114     0.0003971    0.0000801     0.0006803    0.0005518     0.1018889   -0.2838401 
   0.046261556     0.9197106   -0.2596045     0.0003479    0.0008708     0.0006844    0.0004963     0.1021851   -0.2830452 
   0.046361581     0.9145762   -0.2614839     0.0005727    0.0002814     0.0005682    0.0005113     0.1006544   -0.2825414 
   0.046461606     0.9131913   -0.2644511     0.0009233    0.0002842     0.0007099    0.0005553     0.1009744   -0.2819878 
   0.046561631     0.9136594   -0.2658042     0.0009349    0.0005855     0.0007435    0.0006139     0.1001390   -0.2821426 
   0.046661656     0.9143873   -0.2639396     0.0004489    0.0008743     0.0005315    0.0004901     0.0992068   -0.2815607 
   0.046761681     0.9148632   -0.2642082     0.0005680    0.0003620     0.0006561    0.0004912     0.0985471   -0.2819071 
   0.046861706     0.9143059   -0.2693668     0.0002556    0.0006690     0.0006638    0.0005825     0.0989100   -0.2814062 
   0.046961731     0.9134054   -0.2594638     0.0007446    0.0008283     0.0005581    0.0006243     0.1000052   -0.2808281 
   0.047061756     0.9133751   -0.2644037     0.0007729    0.0003561     0.0005892    0.0005025     0.0982830   -0.2799185 
   0.047161781     0.9155611   -0.2652583     0.0006814    0.0003742     0.0005378    0.0005492     0.0988269   -0.2790801 
   0.047261806     0.9156044   -0.2690954     0.0014039    0.0001654     0.0006880    0.0005483     0.0978903   -0.2798520 
   0.047361831     0.9127555   -0.2649180     0.0006804    0.0005940     0.0007759    0.0007671     0.0971372   -0.2796511 
   0.047461856     0.9154943   -0.2667079     0.0006471    0.0003198     0.0006515    0.0005869     0.0980563   -0.2791400 
   0.047561881     0.9137946   -0.2657638     0.0000865    0.0003017     0.0007241    0.0006761     0.0973875   -0.2776124 
   0.047661906     0.9114798   -0.2690138     0.0007885    0.0008025     0.0005850    0.0007296     0.0971759   -0.2777871 
   0.047761931     0.9177084   -0.2686148     0.0009128    0.0006124     0.0007083    0.0006027     0.0969224   -0.2769138 
   0.047861956     0.9136443   -0.2687489     0.0007832    0.0004859     0.0005601    0.0006218     0.0970932   -0.2774952 
   0.047961981     0.9109348   -0.2729419     0.0003160    0.0007626     0.0007405    0.0007124     0.0964458   -0.2765686 
   0.048062006     0.9173604   -0.2727408     0.0004734    0.0004847     0.0005420    0.0006227     0.0954648   -0.2761422 
   0.048162031     0.9140990   -0.2738316     0.0004922    0.0005595     0.0007716    0.0005226     0.0955491   -0.2750396 
   0.048262056     0.9123389   -0.2744635     0.0009238    0.0008792     0.0007154    0.0005129     0.0950818   -0.2762369 
   0.048362081     0.9099488   -0.2762935     0.0008824    0.0004436     0.0006867    0.0006734     0.0956937   -0.2753125 
   0.048462106     0.9126445   -0.2730596     0.0009092    0.0005965     0.0005286    0.0005277     0.0954038   -0.2742901 
   0.048562131     0.9157565   -0.2771587     0.0008724    0.0005052     0.0006578    0.0005199     0.0954860   -0.2751719 
   0.048662156     0.9053731   -0.2731479     0.0005551    0.0006727     0.0006184    0.0006427     0.0942581   -0.2740414 
   0.048762181     0.9064884   -0.2747721     0.0008942    0.0003428     0.0007634    0.0006092     0.0945398   -0.2729562 
   0.048862206     0.9149081   -0.2763812     0.0004906    0.0004915     0.0005914    0.0005944     0.0934669   -0.2740768 
   0.048962231     0.9141794   -0.2722186     0.0006050    0.0005388     0.0006646    0.0007013     0.0930589   -0.2732108 
   0.049062256     0.9105564   -0.2759136     0.0012281    0.0001852     0.0006321    0.0005000     0.0931952   -0.2721124 
   0.049162281     0.9112927   -0.2781613     0.0009239    0.0005122     0.0008297    0.0005485     0.0928599   -0.2717565 
   0.049262306     0.9130982   -0.2760133     0.0003880    0.0008611     0.0006543    0.0006022     0.0922490   -0.2719924 
   0.049362331     0.9043770   -0.2817008     0.0001428    0.0006613     0.0004708    0.0006710     0.0934726   -0.2719907 
   0.049462356     0.9091444   -0.2787711     0.0009225    0.0009689     0.0007134    0.0006469     0.0909989   -0.2707925 
   0.049562381     0.9035007   -0.2756608     0.0006576    0.0005081     0.0007302    0.0005056     0.0919584   -0.2706947 
   0.049662406     0.9042163   -0.2788766     0.0010297    0.0009181     0.0006567    0.0004930     0.0914265   -0.2709148 
   0.049762431     0.9145712   -0.2815229     0.0006309    0.0006943     0.0006291    0.0005856     0.0918141   -0.2691894 
   0.049862456     0.9058041   -0.2770434     0.0002738   -0.0001789     0.0007036    0.0006189     0.0907513   -0.2692187 
   0.049962481     0.9113032   -0.2790194     0.0009538    0.0000715     0.0005832    0.0005628     0.0919190   -0.2696893 
   0.050062506     0.9116820   -0.2847906     0.0007055    0.0003085     0.0006767    0.0003796     0.0898992   -0.2686058 
   0.050162531     0.9134885   -0.2843314     0.0011246    0.0004242     0.0007553    0.0003790     0.0901978   -0.2684385 
   0.050262556     0.9086133   -0.2848846     0.0000593    0.0006202     0.0007511    0.0006011     0.0895921   -0.2675647 
   0.050362581     0.9048727   -0.2826531     0.0005987    0.0006100     0.0006787    0.0004315     0.0888599   -0.2681113 
   0.050462606     0.9082003   -0.2851664     0.0008790    0.0012184     0.0007351    0.0004787     0.0893645   -0.2667066 
   0.050562631     0.9030845   -0.2891219     0.0004403    0.0007007     0.0007231    0.0005340     0.0883680   -0.2664389 
   0.050662656     0.9071248   -0.2860042     0.0006394    0.0008718     0.0006880    0.0004418     0.0891474   -0.2661653 
   0.050762681     0.9055329   -0.2856086     0.0006274    0.0004694     0.0003267    0.0006447     0.0889363   -0.2662033 
   0.050862706     0.9152769   -0.2871687     0.0009272    0.0009106     0.0007124    0.0003668     0.0879121   -0.2655201 
   0.050962731     0.9046780   -0.2877311     0.0008931    0.0007850     0.0006520    0.0005903     0.0884122   -0.2650177 
   0.051062756     0.9112843   -0.2888996     0.0008066    0.0006184     0.0007556    0.0004744     0.0875923   -0.2652483 
   0.051162781     0.9107793   -0.2849204     0.0006754    0.0000755     0.0006436    0.0006830     0.0883600   -0.2648831 
   0.051262806     0.9049240   -0.2916011     0.0008081    0.0007330     0.0006618    0.0006512     0.0865655   -0.2652737 
   0.051362831     0.9068622   -0.2873135     0.0007841    0.0008312     0.0007169    0.0005870     0.0861388   -0.2653790 
   0.051462856     0.9062837   -0.2900271     0.0002617    0.0004939     0.0006896    0.0004223     0.0870786   -0.2631221 
   0.051562881     0.9144744   -0.2912567     0.0009769    0.0002932     0.0006354    0.0006751     0.0864364   -0.2629954 
   0.051662906     0.9069995   -0.2887854     0.0008858    0.0005354     0.0006923    0.0005351     0.0857859   -0.2633232 
   0.051762931     0.9070864   -0.2969007     0.0007737    0.0008642     0.0007145    0.0006096     0.0855800   -0.2632291 
   0.051862956     0.9088289   -0.2926059     0.0005558    0.0005002     0.0007592    0.0005958     0.0870956   -0.2627604 
   0.051962981     0.9070189   -0.2939616     0.0005620    0.0002790     0.0006616    0.0006738     0.0855582   -0.2626273 
   0.052063007     0.9072742   -0.2941173     0.0008909    0.0008515     0.0007463    0.0006090     0.0848752   -0.2611045 
   0.052163032     0.9047465   -0.2890488     0.0008139    0.0003090     0.0008210    0.0006849     0.0853038   -0.2610594 
   0.052263057     0.9100468   -0.2908753     0.0001767    0.0004435     0.0006007    0.0005265     0.0852925   -0.2606775 
   0.052363082     0.9097869   -0.2973442     0.0004312    0.0008798     0.0008660    0.0005596     0.0843586   -0.2605766 
   0.052463107     0.9070464   -0.2923922     0.0005804    0.0007204     0.0008798    0.0008147     0.0844707   -0.2608814 
   0.052563132     0.9035756   -0.2973737     0.0005067    0.0005467     0.0005791    0.0003893     0.0848367   -0.2597237 
   0.052663157     0.8977109   -0.2950933     0.0007684    0.0003607     0.0008141    0.0004275     0.0839917   -0.2599500 
   0.052763182     0.9071708   -0.2921513     0.0005860   -0.0000987     0.0006312    0.0004841     0.0831000   -0.2592311 
   0.052863207     0.9041468   -0.2910896     0.0010687    0.0004232     0.0008057    0.0004514     0.0841889   -0.2597821 
   0.052963232     0.9056233   -0.2940946     0.0009977    0.0004425     0.0007806    0.0004984     0.0832803   -0.2578076 
   0.053063257     0.9023038   -0.2955079     0.0008774    0.0004635     0.0005845    0.0005748     0.0836554   -0.2577274 
   0.053163282     0.9018503   -0.3027210     0.0005188    0.0008053     0.0006688    0.0004592     0.0832775   -0.2589218 
   0.053263307     0.9094841   -0.3002704     0.0002008    0.0000958     0.0006630    0.0005391     0.0829887   -0.2574909 
   0.053363332     0.9027954   -0.3033121     0.0004230    0.0010146     0.0008247    0.0004668     0.0825645   -0.2575324 
   0.053463357     0.8987904   -0.2953423     0.0011923    0.0003820     0.0005940    0.0005167     0.0824948   -0.2571789 
   0.053563382     0.9048649   -0.2976866     0.0005453    0.0006534     0.0009671    0.0004686     0.0812488   -0.2577015 
   0.053663407     0.9019796   -0.3018576     0.0007568    0.0005305     0.0006674    0.0005484     0.0812762   -0.2561505 
   0.053763432     0.8972407   -0.3020501     0.0003494    0.0002170     0.0008085    0.0006436     0.0819545   -0.2561058 
   0.053863457     0.9095716   -0.2973036     0.0008178    0.0005862     0.0006208    0.0005909     0.0808678   -0.2562233 
   0.053963482     0.9029340   -0.3045962     0.0007192    0.0002849     0.0007223    0.0007363     0.0811309   -0.2559690 
   0.054063507     0.9012098   -0.3114686     0.0008145    0.0007418     0.0008088    0.0004992     0.0810326   -0.2546332 
   0.054163532     0.9011807   -0.3042799     0.0015481    0.0011989     0.0005748    0.0005545     0.0805148   -0.2554318 
   0.054263557     0.9038636   -0.3019705     0.0005441    0.0006534     0.0007855    0.0005619     0.0799073   -0.2543175 
   0.054363582     0.9076067   -0.3085664    -0.0001672    0.0008066     0.0008265    0.0007572     0.0802779   -0.2546228 
   0.054463607     0.9011641   -0.3084786     0.0005956    0.0011433     0.0005417    0.0005018     0.0802697   -0.2534035 
   0.054563632     0.9026179   -0.3098869     0.0012918    0.0007661     0.0007457    0.0005099     0.0802277   -0.2535009 
   0.054663657     0.9031754   -0.3046168     0.0006036    0.0003282     0.0004991    0.0005793     0.0793830   -0.2539108 
   0.054763682     0.9019725   -0.3058531     0.0006540    0.0004339     0.0007050    0.0006585     0.0789889   -0.2526956 
   0.054863707     0.9025879   -0.3042045     0.0000665    0.0006400     0.0005315    0.0004825     0.0805353   -0.2525333 
   0.054963732     0.9020174   -0.3120089     0.0002894    0.0008596     0.0006008    0.0004225     0.0790799   -0.2510776 
   0.055063757     0.9072992   -0.3087997     0.0007534    0.0002115     0.0008182    0.0005824     0.0782888   -0.2515687 
   0.055163782     0.8988102   -0.3108722     0.0010432    0.0007025     0.0007550    0.0003167     0.0784946   -0.2519217 
   0.055263807     0.8995145   -0.3116731     0.0006800    0.0001097     0.0006987    0.0006453     0.0779398   -0.2510976 
   0.055363832     0.8983302   -0.3039827     0.0007085    0.0003828     0.0007104    0.0006356     0.0780846   -0.2518610 
   0.055463857     0.8979790   -0.3216302     0.0004914    0.0005473     0.0010249    0.0007120     0.0776913   -0.2506906 
   0.055563882     0.8991819   -0.3158671     0.0001701    0.0006801     0.0006295    0.0008968     0.0773276   -0.2499089 
   0.055663907     0.8965002   -0.3166352     0.0000955    0.0009546     0.0007112    0.0005634     0.0777585   -0.2499518 
   0.055763932     0.8977976   -0.3168266     0.0008896    0.0006084     0.0009628    0.0003783     0.0775748   -0.2502303 
   0.055863957     0.9035285   -0.3162521     0.0001398    0.0008163     0.0007708    0.0006562     0.0768168   -0.2490403 
   0.055963982     0.9000091   -0.3185138     0.0007919    0.0009323     0.0006709    0.0006754     0.0765835   -0.2490145 
   0.056064007     0.8962041   -0.3144188     0.0007742    0.0002948     0.0006500    0.0003716     0.0765139   -0.2491942 
   0.056164032     0.8942005   -0.3129908     0.0006532   -0.0003449     0.0008174    0.0004778     0.0767004   -0.2487595 
   0.056264057     0.9039401   -0.3148883     0.0010975    0.0003553     0.0006236    0.0005284     0.0761336   -0.2480775 
   0.056364082     0.9004480   -0.3190001     0.0002005    0.0011211     0.0010348    0.0005364     0.0761957   -0.2492828 
   0.056464107     0.9001207   -0.3146994     0.0010576    0.0004741     0.0005542    0.0005954     0.0756057   -0.2483965 
   0.056564132     0.8934046   -0.3163882     0.0007152    0.0011922     0.0008266    0.0005799     0.0748263   -0.2472710 
   0.056664157     0.8975438   -0.3205402     0.0009200    0.0004108     0.0007987    0.0005295     0.0745284   -0.2469309 
   0.056764182     0.9047275   -0.3289268     0.0012247    0.0002434     0.0006127    0.0004867     0.0752716   -0.2473279 
   0.056864207     0.8933790   -0.3153912     0.0006583    0.0011613     0.0008902    0.0005934     0.0749555   -0.2470647 
   0.056964232     0.9022784   -0.3230354     0.0000509    0.0004236     0.0008217    0.0004636     0.0749675   -0.2463901 
   0.057064257     0.8956827   -0.3180391     0.0011033    0.0009969     0.0008102    0.0003946     0.0736919   -0.2459444 
   0.057164282     0.8931339   -0.3191082     0.0005476    0.0003850     0.0005908    0.0006348     0.0740392   -0.2458105 
   0.057264307     0.8994499   -0.3223714     0.0011940    0.0005207     0.0004812    0.0007381     0.0747345   -0.2460152 
   0.057364332     0.8972197   -0.3236414     0.0015270    0.0001878     0.0008316    0.0004492     0.0742295   -0.2457313 
   0.057464357     0.8982348   -0.3169936     0.0005678    0.0002284     0.0007056    0.0007064     0.0737684   -0.2449692 
   0.057564382     0.8965874   -0.3201043     0.0010368    0.0015059     0.0007799    0.0005508     0.0736286   -0.2452573 
   0.057664407     0.9002615   -0.3306384     0.0011859    0.0010798     0.0004437    0.0008451     0.0736569   -0.2437140 
   0.057764432     0.8921342   -0.3210821     0.0004826    0.0003663     0.0006497    0.0006051     0.0736241   -0.2438814 
   0.057864457     0.8944333   -0.3171076     0.0007983    0.0009216     0.0007740    0.0004048     0.0737656   -0.2439083 
   0.057964482     0.8945436   -0.3197252     0.0004192    0.0006175     0.0006447    0.0002633     0.0725127   -0.2436028 
   0.058064507     0.9029557   -0.3223837     0.0007888    0.0003240     0.0006396    0.0005712     0.0727506   -0.2428273 
   0.058164532     0.8949612   -0.3276766     0.0005016    0.0004316     0.0008523    0.0006938     0.0722248   -0.2424841 
   0.058264557     0.8884999   -0.3168713     0.0012697    0.0006195     0.0006539    0.0004362     0.0726101   -0.2430854 
   0.058364582     0.8922817   -0.3236870     0.0002690    0.0007164     0.0007090    0.0004978     0.0720321   -0.2420872 
   0.058464607     0.8865471   -0.3270911     0.0011894    0.0001890     0.0009640    0.0004793     0.0719378   -0.2420786 
   0.058564632     0.8907913   -0.3285221     0.0005745   -0.0006407     0.0007774    0.0006179     0.0719116   -0.2418835 
   0.058664657     0.8942016   -0.3223025     0.0002636    0.0002773     0.0008406    0.0006531     0.0713790   -0.2414049 
   0.058764682     0.8912333   -0.3240085     0.0011889    0.0008132     0.0006888    0.0006009     0.0709447   -0.2411344 
   0.058864707     0.8951597   -0.3308636     0.0006733    0.0006074     0.0006402    0.0007033     0.0718391   -0.2418210 
   0.058964732     0.8950294   -0.3288185     0.0009537    0.0012308     0.0008011    0.0009389     0.0709406   -0.2414941 
   0.059064757     0.9002437   -0.3340623     0.0002502    0.0004804     0.0011933    0.0007219     0.0718555   -0.2407845 
   0.059164782     0.8936285   -0.3225741     0.0015879    0.0009346     0.0009070    0.0005620     0.0699480   -0.2407345 
   0.059264807     0.8917944   -0.3289607     0.0005864   -0.0001449     0.0006183    0.0003061     0.0708111   -0.2396136 
   0.059364832     0.8956819   -0.3309453     0.0012353    0.0010392     0.0008517    0.0007501     0.0700937   -0.2404627 
   0.059464857     0.8853225   -0.3302559     0.0009035    0.0001385     0.0007979    0.0007490     0.0699085   -0.2397725 
   0.059564882     0.8953161   -0.3351449     0.0010304    0.0009791     0.0009479    0.0006628     0.0700198   -0.2393678 
   0.059664907     0.8940665   -0.3324947     0.0008613    0.0008211     0.0004690    0.0004366     0.0685002   -0.2390039 
   0.059764932     0.8907316   -0.3363447     0.0015027    0.0004102     0.0007978    0.0001936     0.0692156   -0.2389468 
   0.059864957     0.8972705   -0.3253488     0.0010221    0.0008215     0.0005852    0.0004582     0.0692055   -0.2377201 
   0.059964982     0.8939133   -0.3363920     0.0007466   -0.0002576     0.0007762    0.0006872     0.0699683   -0.2377736 
   0.060065008     0.8909687   -0.3439174     0.0004788    0.0009108     0.0010074    0.0005776     0.0683104   -0.2377261 
   0.060165033     0.8844701   -0.3426595     0.0007687    0.0004345     0.0006824    0.0004806     0.0695996   -0.2381521 
   0.060265058     0.8968464   -0.3361667     0.0014102    0.0006217     0.0008750    0.0005617     0.0689552   -0.2361275 
   0.060365083     0.8832343   -0.3436388    -0.0000720    0.0005991     0.0008357    0.0004351     0.0692689   -0.2361322 
   0.060465108     0.8949551   -0.3364336     0.0008027    0.0008242     0.0009489    0.0005357     0.0681354   -0.2369259 
   0.060565133     0.8833712   -0.3421146     0.0014338    0.0004080     0.0008717    0.0006156     0.0681742   -0.2365119 
   0.060665158     0.8954449   -0.3462472     0.0016203    0.0008823     0.0009714    0.0003008     0.0682247   -0.2364890 
   0.060765183     0.8920058   -0.3391939     0.0006681    0.0005336     0.0005839    0.0006437     0.0680910   -0.2354728 
   0.060865208     0.8885152   -0.3347856     0.0009722    0.0007978     0.0007673    0.0008144     0.0682198   -0.2350909 
   0.060965233     0.8862390   -0.3365505     0.0012193    0.0005582     0.0008358    0.0008169     0.0673304   -0.2366455 
   0.061065258     0.8883237   -0.3389390     0.0006960   -0.0000338     0.0008919    0.0003890     0.0676366   -0.2346359 
   0.061165283     0.8903140   -0.3450512     0.0004363    0.0004357     0.0009310    0.0007466     0.0672550   -0.2349564 
   0.061265308     0.8768427   -0.3478923     0.0007535    0.0004284     0.0013304    0.0006337     0.0665034   -0.2355817 
   0.061365333     0.8937463   -0.3391281     0.0007802    0.0010006     0.0010696    0.0005326     0.0670034   -0.2346508 
   0.061465358     0.8820666   -0.3486950     0.0008502    0.0005783     0.0011610    0.0003784     0.0669342   -0.2344542 
   0.061565383     0.8874213   -0.3412477     0.0012671    0.0003008     0.0006769    0.0002899     0.0671937   -0.2342834 
   0.061665408     0.8915052   -0.3461848     0.0012743    0.0003670     0.0007711    0.0006710     0.0662722   -0.2341110 
   0.061765433     0.8967403   -0.3470850    -0.0000524    0.0009347     0.0006601    0.0004289     0.0663915   -0.2337288 
   0.061865458     0.8865723   -0.3424042     0.0008634    0.0004027     0.0008272    0.0004057     0.0657980   -0.2338597 
   0.061965483     0.8829635   -0.3460222     0.0006816    0.0006363     0.0005990    0.0007233     0.0665514   -0.2334472 
   0.062065508     0.8889269   -0.3450927     0.0008926   -0.0003137     0.0007419    0.0008245     0.0661280   -0.2324091 
   0.062165533     0.8803168   -0.3474983     0.0008075   -0.0001001     0.0009364    0.0006863     0.0653231   -0.2326638 
   0.062265558     0.8868743   -0.3487899     0.0004267    0.0005590     0.0008239    0.0004808     0.0645769   -0.2320075 
   0.062365583     0.8791910   -0.3408810     0.0011064    0.0008984     0.0007908    0.0006870     0.0647759   -0.2323181 
   0.062465608     0.8867977   -0.3400471     0.0003394    0.0000802     0.0008834    0.0007179     0.0654624   -0.2321182 
   0.062565633     0.8819431   -0.3430272     0.0012378    0.0013521     0.0010216    0.0006455     0.0641179   -0.2313542 
   0.062665658     0.8869512   -0.3437127     0.0008687    0.0007328     0.0009082    0.0004948     0.0642366   -0.2311710 
   0.062765683     0.8946775   -0.3571013     0.0009720    0.0009772     0.0012598    0.0003945     0.0630791   -0.2308780 
   0.062865708     0.8860412   -0.3491485     0.0009790    0.0000450     0.0009711    0.0000966     0.0639678   -0.2327857 
   0.062965733     0.8929545   -0.3477105     0.0003098    0.0000831     0.0009648    0.0004341     0.0644477   -0.2309300 
   0.063065758     0.8832777   -0.3621751     0.0007819    0.0009959     0.0010266    0.0006620     0.0644624   -0.2301208 
   0.063165783     0.8816404   -0.3476503     0.0006539    0.0009171     0.0006591    0.0005141     0.0640883   -0.2307370 
   0.063265808     0.8743296   -0.3492440     0.0007749    0.0006421     0.0006703    0.0004129     0.0633257   -0.2302865 
   0.063365833     0.8888564   -0.3526511     0.0010723    0.0009693     0.0006582    0.0004234     0.0633053   -0.2296590 
   0.063465858     0.8773395   -0.3563392     0.0014467    0.0013555     0.0008561    0.0006489     0.0634451   -0.2289269 
   0.063565883     0.8845047   -0.3551215     0.0001976    0.0008422     0.0009697    0.0007281     0.0629259   -0.2296342 
   0.063665908     0.8777004   -0.3664818     0.0012360    0.0009145     0.0012212    0.0003643     0.0628869   -0.2279679 
   0.063765933     0.8852637   -0.3637057     0.0007633    0.0002551     0.0007618    0.0005585     0.0624126   -0.2293720 
   0.063865958     0.8916040   -0.3517492     0.0001697    0.0007795     0.0007598    0.0010379     0.0628950   -0.2287131 
   0.063965983     0.8749486   -0.3580513     0.0007283    0.0005443     0.0008991    0.0006794     0.0630266   -0.2284312 
   0.064066008     0.8795785   -0.3517853     0.0009283    0.0009297     0.0008488    0.0003655     0.0629651   -0.2282373 
   0.064166033     0.8851907   -0.3615151     0.0006662    0.0004528     0.0011469    0.0003702     0.0617553   -0.2273847 
   0.064266058     0.8820655   -0.3634375     0.0008586    0.0006291     0.0008716    0.0007542     0.0619060   -0.2284759 
   0.064366083     0.8749651   -0.3511039     0.0007437    0.0006853     0.0008758    0.0003606     0.0626970   -0.2281632 
   0.064466108     0.8856138   -0.3539798     0.0013901    0.0008059     0.0006434    0.0007047     0.0619892   -0.2274109 
   0.064566133     0.8837520   -0.3539332     0.0013021   -0.0000502     0.0010392    0.0002147     0.0616463   -0.2271438 
   0.064666158     0.8805065   -0.3601497     0.0007344   -0.0001153     0.0009771    0.0005404     0.0611878   -0.2268794 
   0.064766183     0.8705936   -0.3651977     0.0011287    0.0004120     0.0004888    0.0006206     0.0614192   -0.2267371 
   0.064866208     0.8775964   -0.3598372     0.0007063    0.0014088     0.0010803    0.0005792     0.0617493   -0.2265941 
   0.064966233     0.8812599   -0.3618672     0.0008611    0.0001759     0.0009611    0.0003194     0.0612348   -0.2259507 
   0.065066258     0.8892677   -0.3649738     0.0010004    0.0009078     0.0008228    0.0005376     0.0611518   -0.2262175 
   0.065166283     0.8834916   -0.3681459     0.0005376    0.0004489     0.0010248    0.0006069     0.0604438   -0.2261464 
   0.065266308     0.8806252   -0.3720176    -0.0002738    0.0002047     0.0005847    0.0005722     0.0607219   -0.2264305 
   0.065366333     0.8731553   -0.3539343     0.0011376    0.0004127     0.0008667    0.0004576     0.0610488   -0.2253135 
   0.065466358     0.8778048   -0.3597139     0.0006056   -0.0000438     0.0006255    0.0005245     0.0599878   -0.2254326 
   0.065566383     0.8826123   -0.3723360     0.0006195   -0.0004212     0.0006607    0.0004496     0.0603318   -0.2257762 
   0.065666408     0.8837847   -0.3732400     0.0016553    0.0005106     0.0009762    0.0009847     0.0603354   -0.2254492 
   0.065766433     0.8692452   -0.3603483     0.0017697    0.0009122     0.0006221    0.0003158     0.0598064   -0.2247158 
   0.065866458     0.8773774   -0.3700501     0.0015007    0.0009313     0.0009793    0.0002876     0.0601313   -0.2244382 
   0.065966483     0.8788840   -0.3623322     0.0015692    0.0005911     0.0008261    0.0004683     0.0603124   -0.2240001 
   0.066066508     0.8760808   -0.3720395     0.0004895    0.0005232     0.0008524    0.0004368     0.0592474   -0.2235111 
   0.066166533     0.8744933   -0.3659884     0.0008546    0.0003176     0.0008254    0.0006443     0.0590340   -0.2241579 
   0.066266558     0.8766917   -0.3754261     0.0003281    0.0004369     0.0013772    0.0003120     0.0595968   -0.2229857 
   0.066366583     0.8738583   -0.3670430     0.0017010    0.0002466     0.0010042    0.0004680     0.0587867   -0.2231678 
   0.066466608     0.8790952   -0.3737832     0.0011348    0.0005825     0.0007793    0.0002605     0.0590531   -0.2238187 
   0.066566633     0.8730313   -0.3799274     0.0003033    0.0012666     0.0008297    0.0003266     0.0582716   -0.2231644 
   0.066666658     0.8724598   -0.3617919     0.0009570   -0.0003371     0.0006305    0.0004302     0.0586131   -0.2226462 
   0.066766683     0.8829710   -0.3643997     0.0017508    0.0003780     0.0009376    0.0005769     0.0585504   -0.2226014 
   0.066866708     0.8829926   -0.3628357     0.0005137    0.0006763     0.0007813    0.0005594     0.0581587   -0.2225268 
   0.066966733     0.8692946   -0.3695700     0.0007644    0.0015708     0.0007465    0.0006972     0.0584259   -0.2222603 
   0.067066758     0.8748127   -0.3667648     0.0002644    0.0001260     0.0007650    0.0002613     0.0576460   -0.2212573 
   0.067166783     0.8772972   -0.3767928     0.0017593    0.0005251     0.0006770    0.0004418     0.0565252   -0.2216264 
   0.067266808     0.8780271   -0.3769360     0.0011052    0.0000448     0.0007688    0.0004293     0.0578145   -0.2215722 
   0.067366833     0.8693194   -0.3655939     0.0003808    0.0000692     0.0009937    0.0004914     0.0575706   -0.2209301 
   0.067466858     0.8765684   -0.3653416     0.0000538    0.0001500     0.0004414    0.0006365     0.0573964   -0.2207033 
   0.067566883     0.8695847   -0.3823781     0.0019980    0.0002071     0.0015360    0.0005971     0.0576681   -0.2205972 
   0.067666908     0.8721293   -0.3686347     0.0010330    0.0005445     0.0010253    0.0006917     0.0571893   -0.2210875 
   0.067766933     0.8801997   -0.3857765     0.0005879   -0.0008454     0.0010541    0.0006115     0.0573042   -0.2213223 
   0.067866958     0.8815737   -0.3650008     0.0013870    0.0009303     0.0011111    0.0004876     0.0575320   -0.2200126 
   0.067966983     0.8783191   -0.3747056     0.0021456    0.0006308     0.0010509    0.0007424     0.0575085   -0.2199938 
   0.068067009     0.8765362   -0.3737613     0.0003925    0.0000510     0.0008063    0.0004258     0.0567382   -0.2200991 
   0.068167034     0.8730355   -0.3776520     0.0003337    0.0010461     0.0009330    0.0008158     0.0567093   -0.2202966 
   0.068267059     0.8720892   -0.3802008     0.0011070    0.0007553     0.0009360    0.0004621     0.0569967   -0.2194050 
   0.068367084     0.8750675   -0.3757141     0.0015658    0.0009423     0.0010537    0.0004722     0.0561722   -0.2192992 
   0.068467109     0.8655427   -0.3881536     0.0012390    0.0003193     0.0009437    0.0005763     0.0565153   -0.2190748 
   0.068567134     0.8799177   -0.3855435     0.0014806    0.0009531     0.0011173    0.0003669     0.0556859   -0.2185932 
   0.068667159     0.8817141   -0.3806077     0.0004528    0.0004514     0.0011824    0.0008506     0.0557176   -0.2197598 
   0.068767184     0.8799685   -0.3806526     0.0004747   -0.0004301     0.0008997    0.0004888     0.0567806   -0.2192426 
   0.068867209     0.8671350   -0.3857243     0.0013816   -0.0001804     0.0010946    0.0006095     0.0558100   -0.2181797 
   0.068967234     0.8725488   -0.3759159     0.0012354    0.0004602     0.0008368    0.0005215     0.0555204   -0.2171750 
   0.069067259     0.8703847   -0.3899980     0.0007794    0.0007535     0.0010214    0.0007602     0.0554928   -0.2180391 
   0.069167284     0.8841617   -0.3778093     0.0011063    0.0012690     0.0010687    0.0004304     0.0556738   -0.2178621 
   0.069267309     0.8798854   -0.3783983    -0.0003315    0.0005498     0.0011705    0.0004566     0.0552307   -0.2182388 
   0.069367334     0.8689135   -0.3807050     0.0009639    0.0009727     0.0009312    0.0009071     0.0553206   -0.2175252 
   0.069467359     0.8721226   -0.3930744     0.0011593    0.0005408     0.0009528    0.0004758     0.0554198   -0.2167334 
   0.069567384     0.8720201   -0.3868159     0.0006079    0.0001991     0.0012038    0.0005740     0.0549469   -0.2170043 
   0.069667409     0.8654345   -0.3868731     0.0008542    0.0005615     0.0010258    0.0006039     0.0547582   -0.2163845 
   0.069767434     0.8719325   -0.3756519     0.0005867    0.0002726     0.0013065    0.0004309     0.0548728   -0.2160310 
   0.069867459     0.8667329   -0.3857181     0.0013111   -0.0001575     0.0009691    0.0001979     0.0540912   -0.2170775 
   0.069967484     0.8710992   -0.3794409     0.0009498    0.0006930     0.0008323    0.0003014     0.0544037   -0.2165804 
   0.070067509     0.8676578   -0.3829654     0.0008197    0.0009797     0.0010027    0.0003557     0.0537494   -0.2164381 
   0.070167534     0.8727161   -0.3789523     0.0010938    0.0000661     0.0007571    0.0002908     0.0532369   -0.2159697 
   0.070267559     0.8678994   -0.3980725     0.0010174   -0.0002150     0.0007457    0.0003237     0.0541709   -0.2151595 
   0.070367584     0.8690569   -0.3757399     0.0010507    0.0011675     0.0011797    0.0005960     0.0534338   -0.2153422 
   0.070467609     0.8693998   -0.3936263     0.0010482    0.0003237     0.0012380    0.0007964     0.0540765   -0.2158882 
   0.070567634     0.8711767   -0.3796139     0.0012404    0.0005685     0.0010884    0.0008526     0.0527368   -0.2146543 
   0.070667659     0.8591591   -0.3904198     0.0007316    0.0000491     0.0011881    0.0007103     0.0532427   -0.2150247 
   0.070767684     0.8597444   -0.3915732     0.0010829    0.0006281     0.0010309    0.0005564     0.0522553   -0.2150871 
   0.070867709     0.8637918   -0.3879502     0.0016938    0.0014764     0.0007564    0.0005411     0.0523985   -0.2142948 
   0.070967734     0.8667464   -0.4015057     0.0010826   -0.0002046     0.0012225    0.0006105     0.0530735   -0.2148625 
   0.071067759     0.8746504   -0.4025935     0.0012010    0.0016739     0.0010195    0.0004542     0.0526174   -0.2136463 
   0.071167784     0.8665543   -0.3965895     0.0006118    0.0006909     0.0013552    0.0005311     0.0521345   -0.2143069 
   0.071267809     0.8764071   -0.3875589     0.0014509   -0.0001414     0.0010275    0.0005421     0.0522107   -0.2132030 
   0.071367834     0.8665773   -0.3963476     0.0006735   -0.0001227     0.0009657    0.0007967     0.0525761   -0.2132736 
   0.071467859     0.8588187   -0.3917487     0.0013254    0.0002679     0.0009777    0.0011387     0.0520301   -0.2134373 
   0.071567884     0.8609877   -0.4004508     0.0008649    0.0004867     0.0012555    0.0004243     0.0518668   -0.2130755 
   0.071667909     0.8597338   -0.4022398     0.0015473    0.0002278     0.0010631    0.0004171     0.0518967   -0.2125154 
   0.071767934     0.8549311   -0.3952529     0.0000060    0.0009334     0.0011770    0.0004667     0.0515145   -0.2126356 
   0.071867959     0.8532655   -0.4019893     0.0010662    0.0002619     0.0012400    0.0005253     0.0511702   -0.2123957 
   0.071967984     0.8621027   -0.4010004     0.0012935   -0.0003533     0.0008988    0.0005825     0.0514271   -0.2122622 
   0.072068009     0.8645956   -0.3962557     0.0015795    0.0002258     0.0011095    0.0005648     0.0519920   -0.2123712 
   0.072168034     0.8614132   -0.3964982     0.0016199    0.0010272     0.0013224    0.0005366     0.0509463   -0.2121538 
   0.072268059     0.8643809   -0.3895164     0.0012116    0.0009294     0.0005391    0.0000904     0.0511159   -0.2112393 
   0.072368084     0.8714173   -0.4035358     0.0008329    0.0003713     0.0008484    0.0003412     0.0511500   -0.2111020 
   0.072468109     0.8657915   -0.4011981     0.0006986    0.0009882     0.0008400    0.0006039     0.0501568   -0.2126017 
   0.072568134     0.8560557   -0.4015874     0.0002876    0.0004720     0.0007105    0.0006262     0.0506168   -0.2112902 
   0.072668159     0.8578683   -0.3948375     0.0001950    0.0011635     0.0008985    0.0006438     0.0506956   -0.2106442 
   0.072768184     0.8673424   -0.3969726     0.0005229    0.0000981     0.0007107    0.0005695     0.0508130   -0.2114236 
   0.072868209     0.8618528   -0.4018728     0.0013357    0.0001296     0.0011181    0.0003403     0.0507125   -0.2111355 
   0.072968234     0.8628604   -0.4049530     0.0011448    0.0006142     0.0009718    0.0007431     0.0513122   -0.2105837 
   0.073068259     0.8640466   -0.3990148     0.0009670   -0.0005656     0.0009103    0.0005696     0.0504562   -0.2113742 
   0.073168284     0.8660539   -0.4049658     0.0010812    0.0004526     0.0012691    0.0002614     0.0502249   -0.2106823 
   0.073268309     0.8657851   -0.3948032     0.0013172    0.0011712     0.0008093    0.0007927     0.0504073   -0.2096868 
   0.073368334     0.8613783   -0.4032822     0.0004677    0.0000726     0.0010660    0.0003496     0.0506134   -0.2104563 
   0.073468359     0.8567321   -0.3995251     0.0008116    0.0015708     0.0009265    0.0004485     0.0494890   -0.2096636 
   0.073568384     0.8559738   -0.4088657     0.0003550    0.0008088     0.0010249    0.0005910     0.0479643   -0.2101959 
   0.073668409     0.8590776   -0.3963520     0.0013393    0.0007507     0.0009063    0.0004533     0.0485121   -0.2092070 
   0.073768434     0.8529498   -0.4171207     0.0015346    0.0006097     0.0010248    0.0008216     0.0502003   -0.2092954 
   0.073868459     0.8598556   -0.3949296     0.0004212    0.0008978     0.0009714    0.0000739     0.0490093   -0.2095936 
   0.073968484     0.8502479   -0.4109762     0.0013408    0.0001962     0.0013282    0.0003707     0.0494983   -0.2087015 
   0.074068509     0.8539117   -0.4161535     0.0011701   -0.0000039     0.0012015    0.0001337     0.0487138   -0.2084847 
   0.074168534     0.8587038   -0.4113378     0.0009102    0.0004222     0.0012222    0.0004474     0.0488848   -0.2087096 
   0.074268559     0.8556290   -0.4108474     0.0013632    0.0002130     0.0009529    0.0006266     0.0476996   -0.2083362 
   0.074368584     0.8606200   -0.4068690     0.0010896   -0.0001462     0.0009219    0.0011399     0.0486755   -0.2088081 
   0.074468609     0.8661919   -0.4138007     0.0007295   -0.0001226     0.0010208    0.0005709     0.0486965   -0.2080401 
   0.074568634     0.8537056   -0.4162428     0.0004390    0.0003117     0.0008308    0.0004603     0.0486085   -0.2075885 
   0.074668659     0.8530303   -0.4148793     0.0014428    0.0005873     0.0012637    0.0006303     0.0479248   -0.2084925 
   0.074768684     0.8658093   -0.4128841     0.0013008   -0.0000901     0.0008846    0.0006836     0.0481815   -0.2083182 
   0.074868709     0.8515065   -0.4083771     0.0017943    0.0008635     0.0010962    0.0005946     0.0480261   -0.2074581 
   0.074968734     0.8494120   -0.4046198     0.0007311    0.0003582     0.0011432    0.0002941     0.0480951   -0.2079598 
   0.075068759     0.8517419   -0.4131587     0.0016270    0.0009764     0.0006990    0.0006393     0.0475443   -0.2077214 
   0.075168784     0.8574977   -0.4098597     0.0006696   -0.0002757     0.0012752    0.0005568     0.0483631   -0.2072795 
   0.075268809     0.8460624   -0.4056610     0.0001970    0.0003438     0.0011369    0.0004683     0.0482008   -0.2072121 
   0.075368834     0.8576607   -0.4173442     0.0006803    0.0007390     0.0012892    0.0003551     0.0478280   -0.2073351 
   0.075468859     0.8562191   -0.4135592     0.0011121    0.0005926     0.0006615    0.0000076     0.0473960   -0.2058612 
   0.075568884     0.8499066   -0.4108299     0.0006915    0.0004762     0.0009448    0.0003702     0.0475284   -0.2067759 
   0.075668909     0.8453708   -0.4171079     0.0014724    0.0010302     0.0009108    0.0003454     0.0464245   -0.2068857 
   0.075768934     0.8568633   -0.4154969     0.0017416    0.0003641     0.0011410    0.0006474     0.0466335   -0.2066210 
   0.075868959     0.8539038   -0.4201927     0.0011086    0.0013037     0.0008701    0.0009127     0.0464708   -0.2068132 
   0.075968984     0.8571396   -0.4199636     0.0010641    0.0003056     0.0011876    0.0006511     0.0467658   -0.2060106 
   0.076069010     0.8555691   -0.4107147     0.0013344    0.0004099     0.0007580    0.0006226     0.0472015   -0.2048914 
   0.076169035     0.8545875   -0.4218425     0.0017628    0.0005493     0.0012627    0.0005011     0.0455500   -0.2062246 
   0.076269060     0.8551865   -0.4235640     0.0007506    0.0004955     0.0012059    0.0004155     0.0458602   -0.2058329 
   0.076369085     0.8527492   -0.4259298     0.0004233   -0.0003306     0.0006958    0.0004271     0.0467720   -0.2053818 
   0.076469110     0.8431897   -0.4167322     0.0006640    0.0004395     0.0011313    0.0001541     0.0460807   -0.2053741 
   0.076569135     0.8417263   -0.4228786     0.0012005   -0.0003217     0.0015209    0.0005588     0.0462890   -0.2051680 
   0.076669160     0.8526384   -0.4102020     0.0001352    0.0004745     0.0009840    0.0003430     0.0461250   -0.2050107 
   0.076769185     0.8524827   -0.4208924     0.0013256    0.0009200     0.0012019    0.0005274     0.0456896   -0.2051823 
   0.076869210     0.8581398   -0.4178719     0.0017860    0.0005317     0.0011908    0.0007243     0.0465071   -0.2042153 
   0.076969235     0.8536221   -0.4185598     0.0008964    0.0001703     0.0008098    0.0001891     0.0458319   -0.2042468 
   0.077069260     0.8420578   -0.4239753     0.0019637    0.0003417     0.0012523    0.0006733     0.0451490   -0.2039018 
   0.077169285     0.8484810   -0.4241136     0.0005283   -0.0001051     0.0008614    0.0005648     0.0455027   -0.2044155 
   0.077269310     0.8486610   -0.4029134     0.0017599   -0.0002980     0.0009421    0.0007697     0.0449544   -0.2046661 
   0.077369335     0.8488370   -0.4278228     0.0004661    0.0000677     0.0012673    0.0003722     0.0449419   -0.2034485 
   0.077469360     0.8472338   -0.4227504     0.0006336    0.0005489     0.0011988    0.0006549     0.0452535   -0.2037271 
   0.077569385     0.8617741   -0.4248188     0.0006440    0.0002863     0.0008549    0.0001616     0.0457032   -0.2040792 
   0.077669410     0.8461939   -0.4230916     0.0020876    0.0001865     0.0011158    0.0008824     0.0450901   -0.2043086 
   0.077769435     0.8413226   -0.4273517     0.0010521    0.0012893     0.0008676    0.0004990     0.0454527   -0.2033060 
   0.077869460     0.8433801   -0.4353654     0.0012347   -0.0008720     0.0012034    0.0004053     0.0453095   -0.2033820 
   0.077969485     0.8372638   -0.4277376     0.0015445   -0.0003938     0.0012159    0.0004090     0.0443769   -0.2029803 
   0.078069510     0.8537682   -0.4301681     0.0009534    0.0002609     0.0009800    0.0003459     0.0440000   -0.2025748 
   0.078169535     0.8455960   -0.4239762     0.0007825    0.0013459     0.0010610    0.0002912     0.0434430   -0.2034611 
   0.078269560     0.8443649   -0.4254022     0.0010450    0.0000129     0.0009157    0.0005930     0.0443603   -0.2024912 
   0.078369585     0.8458558   -0.4268950     0.0006643    0.0012159     0.0008525    0.0005256     0.0435964   -0.2030330 
   0.078469610     0.8366615   -0.4324692     0.0015491    0.0005207     0.0010127    0.0002954     0.0443369   -0.2024958 
   0.078569635     0.8460237   -0.4293907     0.0003589    0.0003853     0.0009203    0.0007763     0.0433750   -0.2020112 
   0.078669660     0.8396864   -0.4313250     0.0000570    0.0002228     0.0011000    0.0002965     0.0440965   -0.2016263 
   0.078769685     0.8450928   -0.4272939     0.0007915   -0.0000746     0.0010545    0.0009201     0.0444788   -0.2018073 
   0.078869710     0.8490533   -0.4405808     0.0007347    0.0006742     0.0012439    0.0004985     0.0437723   -0.2014357 
   0.078969735     0.8488244   -0.4285189     0.0006515    0.0000495     0.0010591    0.0005499     0.0429758   -0.2008127 
   0.079069760     0.8363783   -0.4374677     0.0005048    0.0006943     0.0011292    0.0004151     0.0425335   -0.2010982 
   0.079169785     0.8380246   -0.4305876     0.0011306   -0.0001134     0.0008470    0.0005345     0.0426637   -0.2010244 
   0.079269810     0.8371639   -0.4253723     0.0009692    0.0002347     0.0012473    0.0004872     0.0432747   -0.2009093 
   0.079369835     0.8439813   -0.4313301     0.0008673    0.0007932     0.0010893    0.0004721     0.0432257   -0.2009400 
   0.079469860     0.8511368   -0.4368168     0.0009160   -0.0002196     0.0010836    0.0003369     0.0431061   -0.2008048 
   0.079569885     0.8335903   -0.4416949     0.0011527    0.0004105     0.0011632    0.0003651     0.0431689   -0.1999806 
   0.079669910     0.8507558   -0.4305575     0.0013768    0.0006305     0.0012412    0.0006150     0.0421965   -0.2012226 
   0.079769935     0.8445674   -0.4341387     0.0013234    0.0003940     0.0012507    0.0005449     0.0429946   -0.2011232 
   0.079869960     0.8458182   -0.4393681     0.0007573    0.0005349     0.0013321    0.0004270     0.0420401   -0.2001783 
   0.079969985     0.8427376   -0.4357975     0.0015033    0.0000655     0.0012266    0.0004196     0.0431852   -0.2007129 
   0.080070010     0.8342215   -0.4390388     0.0008943    0.0000295     0.0012175    0.0004195     0.0425273   -0.1997975 
   0.080170035     0.8436735   -0.4365141     0.0016386    0.0003806     0.0011797    0.0006787     0.0423270   -0.1996290 
   0.080270060     0.8496291   -0.4427372     0.0013543    0.0006312     0.0009754    0.0000972     0.0417210   -0.1988543 
   0.080370085     0.8426251   -0.4251191     0.0011978    0.0003358     0.0013135    0.0007499     0.0416293   -0.1999111 
   0.080470110     0.8408798   -0.4478563     0.0009302    0.0005738     0.0008683    0.0003723     0.0418100   -0.1993778 
   0.080570135     0.8402804   -0.4431991     0.0015841    0.0007311     0.0009795    0.0005852     0.0416257   -0.1993694 
   0.080670160     0.8458061   -0.4425874     0.0004951    0.0006507     0.0009910    0.0005628     0.0415133   -0.1999648 
   0.080770185     0.8320568   -0.4403977     0.0003702    0.0002938     0.0013643    0.0002925     0.0413379   -0.1996391 
   0.080870210     0.8424378   -0.4429000     0.0009807   -0.0002351     0.0010935    0.0004520     0.0416848   -0.2001246 
   0.080970235     0.8373189   -0.4457511     0.0001889    0.0007757     0.0016813    0.0003977     0.0405008   -0.1987962 
   0.081070260     0.8294259   -0.4383832     0.0009206    0.0009308     0.0009670    0.0002961     0.0416888   -0.1983047 
   0.081170285     0.8365673   -0.4523453     0.0011051    0.0003722     0.0010894    0.0007456     0.0411272   -0.1983714 
   0.081270310     0.8409413   -0.4497018     0.0014346   -0.0003793     0.0011899    0.0005922     0.0413990   -0.1988855 
   0.081370335     0.8307196   -0.4333312     0.0005682    0.0003769     0.0011442    0.0003193     0.0404763   -0.1984527 
   0.081470360     0.8409815   -0.4486313     0.0008543    0.0005376     0.0011649    0.0002677     0.0405957   -0.1983240 
   0.081570385     0.8340815   -0.4423994     0.0010140    0.0002083     0.0009753    0.0004799     0.0404532   -0.1982657 
   0.081670410     0.8430963   -0.4450537     0.0013405    0.0007786     0.0014001    0.0007000     0.0406775   -0.1970643 
   0.081770435     0.8406937   -0.4468770     0.0016138    0.0008044     0.0014769    0.0007649     0.0402529   -0.1966172 
   0.081870460     0.8319789   -0.4456442     0.0004870    0.0008885     0.0010697    0.0004442     0.0406201   -0.1980978 
   0.081970485     0.8305455   -0.4344424     0.0016418    0.0002867     0.0011658    0.0003671     0.0402283   -0.1974310 
   0.082070510     0.8306605   -0.4494058     0.0015561    0.0007453     0.0014037    0.0006321     0.0393452   -0.1981877 
   0.082170535     0.8324715   -0.4450085     0.0007837    0.0001878     0.0011105    0.0005589     0.0393977   -0.1973369 
   0.082270560     0.8385077   -0.4354633     0.0010711    0.0004898     0.0010267    0.0004994     0.0396833   -0.1973626 
   0.082370585     0.8378185   -0.4477619     0.0010022    0.0003393     0.0007959    0.0003559     0.0401836   -0.1961528 
   0.082470610     0.8334037   -0.4466921     0.0009039    0.0000159     0.0012030    0.0001967     0.0406500   -0.1965639 
   0.082570635     0.8300649   -0.4512359     0.0010556    0.0006309     0.0011574    0.0003249     0.0398293   -0.1972607 
   0.082670660     0.8329411   -0.4531876     0.0010433   -0.0000711     0.0014333    0.0003818     0.0387286   -0.1967380 
   0.082770685     0.8349009   -0.4459659     0.0018294    0.0002571     0.0014720    0.0002155     0.0392390   -0.1957901 
   0.082870710     0.8358431   -0.4543834     0.0013162    0.0005966     0.0015484    0.0003447     0.0391085   -0.1966886 
   0.082970735     0.8343695   -0.4484552     0.0009967    0.0001780     0.0013134    0.0002786     0.0395130   -0.1963807 
   0.083070760     0.8338609   -0.4583183     0.0007012    0.0011512     0.0008050    0.0004135     0.0384252   -0.1957496 
   0.083170785     0.8273677   -0.4459214     0.0012561    0.0001165     0.0009112    0.0003116     0.0398272   -0.1963493 
   0.083270810     0.8250675   -0.4543168     0.0006960    0.0003446     0.0009289    0.0003341     0.0385711   -0.1956642 
   0.083370835     0.8278397   -0.4539185     0.0016082    0.0010294     0.0015988    0.0004392     0.0394813   -0.1964357 
   0.083470860     0.8284048   -0.4516803     0.0012457    0.0001180     0.0012655    0.0008659     0.0382936   -0.1960842 
   0.083570885     0.8330935   -0.4409172     0.0015983    0.0012163     0.0012677    0.0009254     0.0384202   -0.1952610 
   0.083670910     0.8287886   -0.4539573     0.0020642    0.0006555     0.0009664    0.0005249     0.0379784   -0.1955806 
   0.083770935     0.8113241   -0.4522060     0.0009841   -0.0002263     0.0009209    0.0007265     0.0385997   -0.1954647 
   0.083870960     0.8332425   -0.4489163     0.0010549   -0.0000829     0.0011562    0.0004944     0.0377841   -0.1952196 
   0.083970985     0.8222852   -0.4548418     0.0009624    0.0004077     0.0012447    0.0001698     0.0379505   -0.1953512 
   0.084071011     0.8297791   -0.4586800     0.0018990    0.0002232     0.0008630    0.0002473     0.0376934   -0.1948411 
   0.084171036     0.8305147   -0.4591973     0.0006900    0.0006439     0.0012449    0.0004976     0.0376734   -0.1945328 
   0.084271061     0.8241878   -0.4624817     0.0013461    0.0008669     0.0012613    0.0006562     0.0373213   -0.1943995 
   0.084371086     0.8263978   -0.4608000     0.0018205    0.0009871     0.0011467    0.0001714     0.0384535   -0.1943568 
   0.084471111     0.8330843   -0.4606182     0.0007297    0.0005237     0.0014351    0.0006715     0.0372115   -0.1954409 
   0.084571136     0.8362343   -0.4653723     0.0006704    0.0000915     0.0014609    0.0002341     0.0371362   -0.1942311 
   0.084671161     0.8230140   -0.4627043     0.0012008   -0.0001355     0.0010808    0.0003744     0.0374380   -0.1945368 
   0.084771186     0.8290723   -0.4550562     0.0009098    0.0004283     0.0010981    0.0004555     0.0369837   -0.1945211 
   0.084871211     0.8240588   -0.4661825     0.0011373    0.0009001     0.0011100    0.0002765     0.0372740   -0.1940120 
   0.084971236     0.8266600   -0.4585430     0.0009358    0.0001737     0.0009834    0.0003202     0.0374174   -0.1936065 
   0.085071261     0.8276107   -0.4622980     0.0007688    0.0004350     0.0009049    0.0005642     0.0370222   -0.1934563 
   0.085171286     0.8282646   -0.4643960     0.0012491    0.0007512     0.0010475    0.0006193     0.0358300   -0.1936433 
   0.085271311     0.8159836   -0.4649132     0.0012794    0.0001147     0.0015179    0.0002370     0.0363080   -0.1938549 
   0.085371336     0.8345202   -0.4669890     0.0018271    0.0010111     0.0011447    0.0005419     0.0368461   -0.1932126 
   0.085471361     0.8296369   -0.4611960     0.0015101    0.0008882     0.0010338    0.0006272     0.0366512   -0.1938255 
   0.085571386     0.8205017   -0.4724149     0.0008062    0.0004409     0.0009263    0.0004131     0.0360867   -0.1929606 
   0.085671411     0.8260518   -0.4706145     0.0013422   -0.0000043     0.0010036    0.0004422     0.0360732   -0.1926516 
   0.085771436     0.8254369   -0.4611911     0.0015723    0.0004341     0.0012091    0.0005442     0.0364176   -0.1937928 
   0.085871461     0.8273651   -0.4725239     0.0003255    0.0002303     0.0009476    0.0004172     0.0355625   -0.1925725 
   0.085971486     0.8238100   -0.4767473     0.0010603    0.0000761     0.0009771   -0.0000980     0.0364158   -0.1924097 
   0.086071511     0.8219669   -0.4664139     0.0016930    0.0010724     0.0015588    0.0004850     0.0365912   -0.1925874 
   0.086171536     0.8205873   -0.4611894     0.0012421   -0.0001243     0.0012984    0.0004619     0.0356917   -0.1928165 
   0.086271561     0.8193246   -0.4681538     0.0020437    0.0012456     0.0012447    0.0002448     0.0354543   -0.1921988 
   0.086371586     0.8193800   -0.4697257     0.0010744    0.0002041     0.0011538    0.0001851     0.0362306   -0.1927923 
   0.086471611     0.8174414   -0.4706325     0.0014862    0.0013104     0.0010123    0.0005688     0.0355538   -0.1919766 
   0.086571636     0.8321042   -0.4758874     0.0016758    0.0008324     0.0013683    0.0004338     0.0347367   -0.1923208 
   0.086671661     0.8262377   -0.4733234     0.0017041    0.0007161     0.0011591    0.0007117     0.0352210   -0.1914901 
   0.086771686     0.8266236   -0.4697195     0.0010036    0.0009839     0.0010946    0.0001640     0.0352403   -0.1919015 
   0.086871711     0.8297689   -0.4662295     0.0011884    0.0008378     0.0014927    0.0005655     0.0353267   -0.1915511 
   0.086971736     0.8121856   -0.4775534     0.0011839    0.0012714     0.0012313    0.0004264     0.0352228   -0.1916355 
   0.087071761     0.8276646   -0.4654520     0.0019262    0.0004199     0.0010386    0.0005324     0.0350743   -0.1917529 
   0.087171786     0.8253414   -0.4682649     0.0008443    0.0009122     0.0012713    0.0002227     0.0340481   -0.1915079 
   0.087271811     0.8244810   -0.4684367     0.0008376    0.0001012     0.0010694    0.0003166     0.0342484   -0.1912421 
   0.087371836     0.8188135   -0.4704938     0.0012264    0.0004661     0.0011233    0.0002815     0.0348848   -0.1905944 
   0.087471861     0.8256190   -0.4731055     0.0012851   -0.0001555     0.0010534    0.0005622     0.0346631   -0.1912899 
   0.087571886     0.8166909   -0.4753830     0.0008758    0.0006653     0.0012218    0.0006478     0.0341901   -0.1908997 
   0.087671911     0.8270575   -0.4691489     0.0009847    0.0009482     0.0012723    0.0005032     0.0339441   -0.1908254 
   0.087771936     0.8151264   -0.4772578     0.0014819    0.0001553     0.0012868    0.0004665     0.0333880   -0.1906443 
   0.087871961     0.8190100   -0.4790974     0.0019727    0.0004363     0.0009708    0.0004366     0.0344412   -0.1916675 
   0.087971986     0.8134726   -0.4710928     0.0014459    0.0006556     0.0008485    0.0002234     0.0333496   -0.1898826 
   0.088072011     0.8157173   -0.4776292     0.0012742   -0.0004971     0.0013890    0.0005865     0.0334676   -0.1901314 
   0.088172036     0.8218715   -0.4763499     0.0011623    0.0012560     0.0010515    0.0004176     0.0338226   -0.1904773 
   0.088272061     0.8168839   -0.4797689     0.0017109    0.0000839     0.0013918    0.0004935     0.0337673   -0.1899404 
   0.088372086     0.8122053   -0.4736910     0.0007193    0.0006205     0.0011093    0.0005109     0.0331258   -0.1899929 
   0.088472111     0.8189738   -0.4799355     0.0016145   -0.0005541     0.0013115    0.0005983     0.0337384   -0.1895073 
   0.088572136     0.8240367   -0.4845077     0.0014475    0.0005678     0.0010793    0.0002425     0.0330595   -0.1899112 
   0.088672161     0.8224380   -0.4779698     0.0016330    0.0003532     0.0012799    0.0003765     0.0330597   -0.1902901 
   0.088772186     0.8208406   -0.4762059     0.0017637    0.0003403     0.0012121    0.0003666     0.0339504   -0.1904579 
   0.088872211     0.8088276   -0.4735775     0.0018961    0.0002893     0.0011108    0.0003659     0.0333482   -0.1896276 
   0.088972236     0.8135032   -0.4775663     0.0011543   -0.0001482     0.0012195    0.0001771     0.0332610   -0.1892101 
   0.089072261     0.8155602   -0.4749416     0.0009928    0.0003965     0.0013894    0.0004671     0.0328977   -0.1895037 
   0.089172286     0.8192028   -0.4817598     0.0010291    0.0000528     0.0011739    0.0004710     0.0322980   -0.1889679 
   0.089272311     0.8164381   -0.4777143     0.0013065    0.0003192     0.0010650    0.0006020     0.0327789   -0.1884545 
   0.089372336     0.8131053   -0.4810574     0.0012197    0.0003382     0.0011501    0.0005393     0.0331661   -0.1901679 
   0.089472361     0.8086837   -0.4775832     0.0014528    0.0006384     0.0012167   -0.0000649     0.0330097   -0.1889850 
   0.089572386     0.8170001   -0.4866078     0.0016039    0.0003775     0.0012236    0.0000524     0.0328534   -0.1880253 
   0.089672411     0.8203697   -0.4859161     0.0009347    0.0005647     0.0013779   -0.0000195     0.0325871   -0.1884794 
   0.089772436     0.8065370   -0.4831649     0.0011765    0.0007168     0.0013083    0.0000672     0.0329151   -0.1883190 
   0.089872461     0.8176423   -0.4883996     0.0012514    0.0007744     0.0010502    0.0002786     0.0318059   -0.1878949 
   0.089972486     0.8079646   -0.4857520     0.0006800   -0.0002604     0.0011764    0.0004313     0.0326441   -0.1889074 
   0.090072511     0.8153000   -0.4833407     0.0014884    0.0005376     0.0007788    0.0005773     0.0319763   -0.1885728 
   0.090172536     0.8073255   -0.4896055     0.0016359   -0.0000110     0.0013557    0.0005115     0.0327042   -0.1881077 
   0.090272561     0.8129559   -0.4816070     0.0017745    0.0003067     0.0012983    0.0004549     0.0314758   -0.1883357 
   0.090372586     0.8090620   -0.4939075     0.0014120   -0.0001097     0.0011124    0.0003628     0.0310589   -0.1885554 
   0.090472611     0.8094149   -0.4871432     0.0011204   -0.0000412     0.0012947    0.0004303     0.0321000   -0.1878987 
   0.090572636     0.8122234   -0.4945340     0.0016538    0.0006372     0.0010123    0.0002270     0.0312466   -0.1883869 
   0.090672661     0.8041606   -0.4905233     0.0019702    0.0006664     0.0014346    0.0003665     0.0319598   -0.1877513 
   0.090772686     0.8110558   -0.4948204     0.0015196   -0.0001197     0.0010761    0.0003925     0.0323825   -0.1868220 
   0.090872711     0.8063213   -0.4843385     0.0014350    0.0005428     0.0012575    0.0004067     0.0312172   -0.1877304 
   0.090972736     0.8144122   -0.4915464     0.0015980    0.0002436     0.0011275    0.0006047     0.0309389   -0.1875102 
   0.091072761     0.8040000   -0.4870312     0.0006253   -0.0000538     0.0015788    0.0006454     0.0307678   -0.1872059 
   0.091172786     0.8082609   -0.4908732     0.0013930    0.0002855     0.0010261    0.0004200     0.0307441   -0.1877496 
   0.091272811     0.8138245   -0.4883022     0.0018692    0.0002621     0.0012635    0.0006735     0.0306776   -0.1872344 
   0.091372836     0.8082448   -0.4918795     0.0014932    0.0005491     0.0011509    0.0006254     0.0303971   -0.1871234 
   0.091472861     0.8024798   -0.4912940     0.0016825    0.0000638     0.0013433    0.0005535     0.0308195   -0.1871662 
   0.091572886     0.8142702   -0.4897585     0.0012551    0.0001205     0.0011309    0.0004582     0.0307326   -0.1868556 
   0.091672911     0.8048352   -0.4844756     0.0008546    0.0006671     0.0009835    0.0001355     0.0296402   -0.1870379 
   0.091772936     0.8013076   -0.4968839     0.0011230    0.0000402     0.0015109    0.0002201     0.0304528   -0.1871922 
   0.091872961     0.8128977   -0.5044482     0.0013479    0.0001536     0.0012084    0.0005596     0.0309126   -0.1869871 
   0.091972986     0.8153241   -0.4958615     0.0008387    0.0005120     0.0013033    0.0004781     0.0298013   -0.1865762 
   0.092073012     0.8090040   -0.4957611     0.0009887    0.0004415     0.0013757    0.0003331     0.0304078   -0.1862293 
   0.092173037     0.8078813   -0.4993146     0.0009792    0.0001003     0.0011823    0.0005330     0.0299547   -0.1868396 
   0.092273062     0.8112840   -0.5022344     0.0012819    0.0001500     0.0014881    0.0005739     0.0297030   -0.1861083 
   0.092373087     0.8124168   -0.4934163     0.0017981    0.0004540     0.0013444    0.0002429     0.0298807   -0.1862100 
   0.092473112     0.7992831   -0.4929482     0.0013794    0.0007704     0.0010136    0.0005471     0.0300956   -0.1858990 
   0.092573137     0.8035684   -0.5036467     0.0018004    0.0007940     0.0013335    0.0002135     0.0296608   -0.1867514 
   0.092673162     0.8012361   -0.5052683     0.0012110    0.0002866     0.0013886    0.0002831     0.0287975   -0.1854556 
   0.092773187     0.8077989   -0.4970475     0.0010664   -0.0000009     0.0014555    0.0001309     0.0294727   -0.1852920 
   0.092873212     0.8023743   -0.4934639     0.0013101    0.0000216     0.0011330    0.0003000     0.0294932   -0.1850795 
   0.092973237     0.8098207   -0.5070130     0.0012153    0.0005556     0.0014238    0.0004040     0.0285447   -0.1852455 
   0.093073262     0.8008288   -0.4949254     0.0014529    0.0007874     0.0011515    0.0004524     0.0286544   -0.1846757 
   0.093173287     0.8012653   -0.5036898     0.0017879    0.0010112     0.0014249    0.0005667     0.0281900   -0.1844815 
   0.093273312     0.8070090   -0.4961750     0.0016747    0.0008562     0.0013113    0.0000415     0.0286652   -0.1854138 
   0.093373337     0.8002350   -0.5043049     0.0011273    0.0001722     0.0012589    0.0003692     0.0290397   -0.1850598 
   0.093473362     0.8046021   -0.4941242     0.0018174    0.0008265     0.0014009    0.0004477     0.0292687   -0.1850868 
   0.093573387     0.8000265   -0.5099858     0.0015292    0.0001799     0.0011509    0.0002028     0.0281843   -0.1840916 
   0.093673412     0.8015743   -0.5063637     0.0020895    0.0001186     0.0013924    0.0005165     0.0282083   -0.1846513 
   0.093773437     0.7997469   -0.5010182     0.0015622    0.0003315     0.0012138    0.0004583     0.0284291   -0.1845851 
   0.093873462     0.7996573   -0.5068285     0.0017981    0.0000496     0.0014437    0.0001640     0.0286762   -0.1843590 
   0.093973487     0.7948950   -0.5103368     0.0006537    0.0002498     0.0014506   -0.0000510     0.0276239   -0.1845404 
   0.094073512     0.7996216   -0.5115774     0.0012438    0.0002483     0.0015114    0.0004888     0.0281365   -0.1843276 
   0.094173537     0.7892508   -0.5061636     0.0016685   -0.0000364     0.0012426    0.0001260     0.0277934   -0.1841290 
   0.094273562     0.8008914   -0.4964653     0.0011916    0.0000962     0.0013512    0.0003347     0.0282490   -0.1842478 
   0.094373587     0.8063211   -0.5010810     0.0013364    0.0001682     0.0012441    0.0002176     0.0278241   -0.1840248 
   0.094473612     0.7963939   -0.5095360     0.0013485    0.0002717     0.0013508    0.0001773     0.0280790   -0.1835904 
   0.094573637     0.8000429   -0.5077729     0.0015769    0.0004062     0.0014027    0.0004305     0.0283098   -0.1842105 
   0.094673662     0.8103821   -0.5182487     0.0013142    0.0005165     0.0014208    0.0005639     0.0269402   -0.1842171 
   0.094773687     0.8079915   -0.5144699     0.0013206    0.0004907     0.0014871    0.0001278     0.0279972   -0.1837283 
   0.094873712     0.7901476   -0.5091211     0.0014212    0.0002227     0.0011829    0.0003659     0.0272802   -0.1839751 
   0.094973737     0.7990803   -0.5060085     0.0011958    0.0005004     0.0011302    0.0003649     0.0279571   -0.1840096 
   0.095073762     0.7961015   -0.5119309     0.0012467    0.0003262     0.0010710    0.0001253     0.0277214   -0.1831078 
   0.095173787     0.8009398   -0.5117763     0.0010244    0.0006844     0.0013422    0.0001056     0.0279029   -0.1830765 
   0.095273812     0.7997506   -0.5064811     0.0010639    0.0002935     0.0013580    0.0002316     0.0274195   -0.1833051 
   0.095373837     0.7964913   -0.5142393     0.0015976   -0.0002660     0.0014575    0.0005153     0.0273575   -0.1836410 
   0.095473862     0.8057967   -0.5144690     0.0016788    0.0006343     0.0012973    0.0004747     0.0271056   -0.1833929 
   0.095573887     0.8021504   -0.5196972     0.0010199    0.0002311     0.0009413    0.0004475     0.0270109   -0.1834644 
   0.095673912     0.7900864   -0.5120408     0.0008834    0.0003311     0.0012929    0.0003812     0.0272740   -0.1835344 
   0.095773937     0.7988013   -0.5107609     0.0013876    0.0006308     0.0012577    0.0003174     0.0270265   -0.1832546 
   0.095873962     0.7941444   -0.5166364     0.0018095   -0.0000007     0.0011282    0.0006348     0.0269646   -0.1829269 
   0.095973987     0.7941765   -0.5182611     0.0010385    0.0001507     0.0011613    0.0002473     0.0268626   -0.1824406 
   0.096074012     0.7936895   -0.5142555     0.0017763    0.0002109     0.0012292    0.0005176     0.0271067   -0.1830969 
   0.096174037     0.7978433   -0.5100355     0.0016967    0.0007986     0.0012579   -0.0000126     0.0265350   -0.1826012 
   0.096274062     0.7963187   -0.5174105     0.0012620    0.0003177     0.0013091    0.0003346     0.0262754   -0.1825954 
   0.096374087     0.8010510   -0.5102909     0.0022142    0.0007075     0.0014031    0.0003043     0.0263744   -0.1827825 
   0.096474112     0.7907574   -0.5126547     0.0010871    0.0002942     0.0012004    0.0003597     0.0256390   -0.1820929 
   0.096574137     0.7924616   -0.5172962     0.0012043    0.0004073     0.0014281    0.0001606     0.0262113   -0.1826489 
   0.096674162     0.7939469   -0.5102852     0.0011201    0.0000557     0.0011922    0.0000737     0.0260375   -0.1828821 
   0.096774187     0.7906747   -0.5169368     0.0017755    0.0001802     0.0010672    0.0002794     0.0269893   -0.1828166 
   0.096874212     0.7920964   -0.5114307     0.0012677    0.0004144     0.0013164    0.0004351     0.0253974   -0.1819594 
   0.096974237     0.7830902   -0.5171586     0.0012682    0.0000066     0.0015567    0.0004739     0.0259947   -0.1820343 
   0.097074262     0.7926130   -0.5210510     0.0013769    0.0004721     0.0012304    0.0001694     0.0252648   -0.1817826 
   0.097174287     0.7934355   -0.5151135     0.0011461    0.0002018     0.0011710    0.0004409     0.0253169   -0.1811062 
   0.097274312     0.7961023   -0.5156102     0.0014861    0.0007730     0.0012211    0.0003602     0.0248490   -0.1821381 
   0.097374337     0.7873076   -0.5154378     0.0014031    0.0002749     0.0012760    0.0003190     0.0254802   -0.1823410 
   0.097474362     0.7875921   -0.5165703     0.0009393    0.0003142     0.0010460    0.0004600     0.0244839   -0.1822577 
   0.097574387     0.7862092   -0.5173532     0.0013141    0.0001541     0.0014182    0.0003479     0.0250500   -0.1816422 
   0.097674412     0.7808308   -0.5166148     0.0014076    0.0000675     0.0011772    0.0005072     0.0244602   -0.1806130 
   0.097774437     0.7979246   -0.5263450     0.0011660    0.0002460     0.0012785    0.0004695     0.0250757   -0.1810357 
   0.097874462     0.7847202   -0.5175514     0.0010774    0.0002686     0.0013809    0.0003217     0.0249245   -0.1811174 
   0.097974487     0.7996175   -0.5223701     0.0013880    0.0003615     0.0015616    0.0000156     0.0249309   -0.1811012 
   0.098074512     0.7886127   -0.5209697     0.0012169    0.0003278     0.0013047    0.0004141     0.0250476   -0.1809639 
   0.098174537     0.7814024   -0.5160088     0.0014909    0.0001793     0.0015058    0.0002114     0.0244131   -0.1805187 
   0.098274562     0.7868263   -0.5254897     0.0014071    0.0002438     0.0014027    0.0003002     0.0247390   -0.1805471 
   0.098374587     0.7877055   -0.5149834     0.0008705    0.0005688     0.0015662    0.0002680     0.0247817   -0.1815987 
   0.098474612     0.7938225   -0.5219027     0.0011273    0.0002288     0.0014628    0.0003888     0.0251701   -0.1803898 
   0.098574637     0.7815450   -0.5260826     0.0017736    0.0000450     0.0013014    0.0002982     0.0242065   -0.1807886 
   0.098674662     0.7868638   -0.5245843     0.0011685    0.0000377     0.0014158    0.0003254     0.0243659   -0.1805488 
   0.098774687     0.7768559   -0.5262195     0.0017829    0.0002041     0.0013628    0.0000819     0.0241387   -0.1806465 
   0.098874712     0.7808924   -0.5213457     0.0014732    0.0002022     0.0012475    0.0002544     0.0239259   -0.1805239 
   0.098974737     0.7858021   -0.5271891     0.0016020    0.0003713     0.0016171    0.0003897     0.0238519   -0.1800920 
   0.099074762     0.7841784   -0.5250309     0.0013863    0.0002755     0.0014767    0.0003316     0.0232197   -0.1809302 
   0.099174787     0.7838718   -0.5305351     0.0014431    0.0003861     0.0015100    0.0003009     0.0250532   -0.1804056 
   0.099274812     0.7836563   -0.5308042     0.0014885    0.0000425     0.0014471    0.0004979     0.0248368   -0.1802430 
   0.099374837     0.7832937   -0.5241646     0.0015444    0.0002731     0.0015472    0.0002255     0.0241314   -0.1804390 
   0.099474862     0.7845696   -0.5329314     0.0008185   -0.0000340     0.0014451    0.0001457     0.0237037   -0.1798444 
   0.099574887     0.7852066   -0.5268748     0.0011136    0.0002997     0.0013670    0.0005799     0.0237651   -0.1797567 
   0.099674912     0.7814710   -0.5288015     0.0011144    0.0006579     0.0014994    0.0002005     0.0229923   -0.1799681 
   0.099774937     0.7805078   -0.5341761     0.0014284    0.0003607     0.0012539    0.0003344     0.0233680   -0.1800444 
   0.099874962     0.7921309   -0.5291999     0.0013634    0.0000424     0.0012851    0.0003118     0.0231755   -0.1798341 
   0.099974987     0.7850521   -0.5296095     0.0014490    0.0004592     0.0015072    0.0002106     0.0238427   -0.1799278 
   0.100075013     0.7835228   -0.5338293     0.0015194    0.0001382     0.0012197    0.0001050     0.0224457   -0.1798561 
   0.100175038     0.7827858   -0.5302158     0.0013353    0.0003466     0.0014806    0.0003453     0.0233219   -0.1792897 
   0.100275063     0.7816111   -0.5303441     0.0013254    0.0003687     0.0011884    0.0001135     0.0228712   -0.1794406 
   0.100375088     0.7789675   -0.5376223     0.0017039    0.0003073     0.0013975    0.0000711     0.0224780   -0.1790947 
   0.100475113     0.7815331   -0.5342504     0.0016958    0.0004302     0.0015324    0.0004882     0.0218618   -0.1797378 
   0.100575138     0.7851425   -0.5369614     0.0018376    0.0001988     0.0012791    0.0001460     0.0226318   -0.1794524 
   0.100675163     0.7803231   -0.5311702     0.0012812    0.0000226     0.0013135    0.0006451     0.0225671   -0.1788519 
   0.100775188     0.7785391   -0.5363877     0.0012458    0.0002919     0.0013985    0.0006215     0.0219084   -0.1787605 
   0.100875213     0.7836329   -0.5329052     0.0013692    0.0004592     0.0015568    0.0003999     0.0220541   -0.1789187 
   0.100975238     0.7743429   -0.5323724     0.0012925    0.0000841     0.0013657    0.0004188     0.0223393   -0.1793763 
   0.101075263     0.7766870   -0.5347573     0.0012644    0.0005429     0.0013743    0.0002649     0.0221189   -0.1782634 
   0.101175288     0.7787018   -0.5307548     0.0009595    0.0000989     0.0014278    0.0001313     0.0222121   -0.1784929 
   0.101275313     0.7772015   -0.5385605     0.0012859    0.0001013     0.0013855    0.0003437     0.0211258   -0.1786114 
   0.101375338     0.7817884   -0.5323135     0.0016556    0.0002345     0.0013925    0.0001197     0.0218308   -0.1781318 
   0.101475363     0.7750472   -0.5388090     0.0012988    0.0003007     0.0012258    0.0002172     0.0214430   -0.1777181 
   0.101575388     0.7725509   -0.5402658     0.0017188    0.0004257     0.0012826    0.0001975     0.0212636   -0.1789489 
   0.101675413     0.7754143   -0.5394764     0.0009975    0.0006661     0.0014685    0.0002057     0.0217662   -0.1777823 
   0.101775438     0.7807766   -0.5412136     0.0015910    0.0003606     0.0015070    0.0004795     0.0216083   -0.1783601 
   0.101875463     0.7758505   -0.5360359     0.0017073    0.0001823     0.0015713    0.0001827     0.0216440   -0.1778033 
   0.101975488     0.7668079   -0.5442908     0.0015631    0.0007518     0.0014375    0.0002642     0.0211170   -0.1779170 
   0.102075513     0.7777971   -0.5411239     0.0015346    0.0004412     0.0014336    0.0001435     0.0210279   -0.1776084 
   0.102175538     0.7711239   -0.5437358     0.0013529    0.0001827     0.0014758    0.0002968     0.0213572   -0.1782594 
   0.102275563     0.7714329   -0.5403692     0.0015490    0.0000027     0.0014486    0.0003019     0.0210622   -0.1772977 
   0.102375588     0.7768149   -0.5463200     0.0012844    0.0002195     0.0014736    0.0003028     0.0211459   -0.1785261 
   0.102475613     0.7696429   -0.5376061     0.0013865    0.0002352     0.0013183    0.0001322     0.0213339   -0.1772297 
   0.102575638     0.7772096   -0.5377535     0.0017665    0.0000430     0.0012774    0.0003452     0.0202026   -0.1780964 
   0.102675663     0.7765849   -0.5435342     0.0012162   -0.0001541     0.0014170    0.0003523     0.0202375   -0.1781300 
   0.102775688     0.7745438   -0.5537706     0.0014851    0.0001123     0.0014966    0.0003022     0.0202540   -0.1775215 
   0.102875713     0.7764333   -0.5386488     0.0014340    0.0004510     0.0014253    0.0003909     0.0203756   -0.1774475 
   0.102975738     0.7777256   -0.5469457     0.0014633    0.0004003     0.0014272    0.0003200     0.0209657   -0.1771618 
   0.103075763     0.7692102   -0.5523348     0.0014359    0.0005317     0.0015924    0.0003234     0.0200945   -0.1774809 
   0.103175788     0.7694706   -0.5497376     0.0016376   -0.0002032     0.0014193    0.0005349     0.0197391   -0.1772188 
   0.103275813     0.7681487   -0.5428846     0.0011847    0.0000894     0.0017126    0.0000746     0.0204258   -0.1774455 
   0.103375838     0.7744625   -0.5461597     0.0013882    0.0002852     0.0015138    0.0003771     0.0206921   -0.1771949 
   0.103475863     0.7690381   -0.5446376     0.0014137   -0.0000355     0.0015675    0.0003606     0.0201249   -0.1766998 
   0.103575888     0.7644828   -0.5457813     0.0016149    0.0002387     0.0014752    0.0003045     0.0201435   -0.1775246 
   0.103675913     0.7699247   -0.5489897     0.0016536    0.0001974     0.0014701    0.0003047     0.0206658   -0.1771016 
   0.103775938     0.7786777   -0.5511919     0.0008902    0.0001134     0.0015737    0.0001423     0.0194871   -0.1773013 
   0.103875963     0.7690176   -0.5459372     0.0016536    0.0000862     0.0015708    0.0001891     0.0196627   -0.1768853 
   0.103975988     0.7668159   -0.5534247     0.0016744    0.0000790     0.0012717    0.0001994     0.0195546   -0.1768587 
   0.104076013     0.7714790   -0.5464959     0.0018455   -0.0000395     0.0016076    0.0001687     0.0190689   -0.1765986 
   0.104176038     0.7729452   -0.5468901     0.0016294    0.0003388     0.0015941    0.0001989     0.0194789   -0.1757928 
   0.104276063     0.7634232   -0.5502430     0.0015878    0.0000644     0.0015072    0.0001952     0.0195111   -0.1766955 
   0.104376088     0.7671347   -0.5480721     0.0013885    0.0000862     0.0014500    0.0000659     0.0193743   -0.1768779 
   0.104476113     0.7668794   -0.5513854     0.0016296    0.0002303     0.0016543   -0.0000508     0.0188374   -0.1766605 
   0.104576138     0.7652248   -0.5508299     0.0012786    0.0000373     0.0015184    0.0002218     0.0191391   -0.1764436 
   0.104676163     0.7600378   -0.5523301     0.0014864    0.0003039     0.0014839    0.0003597     0.0192364   -0.1760570 
   0.104776188     0.7712464   -0.5549037     0.0012475    0.0004304     0.0014889    0.0002621     0.0184190   -0.1764193 
   0.104876213     0.7678888   -0.5581738     0.0013480    0.0000177     0.0014576    0.0000919     0.0190055   -0.1761751 
   0.104976238     0.7630509   -0.5536076     0.0012893    0.0003217     0.0015373    0.0002977     0.0182021   -0.1763514 
   0.105076263     0.7672355   -0.5572491     0.0012794    0.0001989     0.0014897    0.0001957     0.0184240   -0.1760370 
   0.105176288     0.7640576   -0.5505710     0.0012851    0.0002294     0.0014025    0.0001969     0.0184830   -0.1759009 
   0.105276313     0.7598842   -0.5550537     0.0012846    0.0000943     0.0013597    0.0001865     0.0182970   -0.1763041 
   0.105376338     0.7669637   -0.5573620     0.0017184    0.0004081     0.0014019    0.0001271     0.0176344   -0.1758409 
   0.105476363     0.7640347   -0.5574697     0.0014552    0.0001092     0.0016531    0.0002514     0.0189221   -0.1755099 
   0.105576388     0.7633195   -0.5571234     0.0014401    0.0001973     0.0014249    0.0002930     0.0182388   -0.1756469 
   0.105676413     0.7680545   -0.5585797     0.0012223    0.0001634     0.0013584    0.0001981     0.0182626   -0.1759730 
   0.105776438     0.7641187   -0.5571788     0.0013583   -0.0001116     0.0014635    0.0001396     0.0177291   -0.1757918 
   0.105876463     0.7614781   -0.5625229     0.0014519    0.0001621     0.0015258    0.0002206     0.0181569   -0.1747349 
   0.105976488     0.7591510   -0.5637021     0.0015979    0.0002913     0.0014788    0.0002550     0.0185074   -0.1750805 
   0.106076513     0.7623150   -0.5640393     0.0016345   -0.0000539     0.0014250    0.0001346     0.0184656   -0.1759323 
   0.106176538     0.7628500   -0.5637170     0.0014986    0.0000896     0.0014705    0.0002053     0.0176897   -0.1756739 
   0.106276563     0.7618032   -0.5568354     0.0012573   -0.0000069     0.0015867    0.0001494     0.0176222   -0.1760562 
   0.106376588     0.7628834   -0.5616665     0.0015150    0.0004957     0.0013211    0.0000742     0.0177310   -0.1752444 
   0.106476613     0.7606697   -0.5634872     0.0015097    0.0004862     0.0016320    0.0003651     0.0176007   -0.1744390 
   0.106576638     0.7634290   -0.5621752     0.0015015    0.0001832     0.0012934    0.0002084     0.0169276   -0.1754588 
   0.106676663     0.7650367   -0.5652640     0.0016762    0.0000814     0.0014498    0.0003378     0.0176063   -0.1740478 
   0.106776688     0.7607320   -0.5626137     0.0014305    0.0002034     0.0017086    0.0003461     0.0170696   -0.1739202 
   0.106876713     0.7651725   -0.5657434     0.0016447    0.0003053     0.0015292    0.0002031     0.0173633   -0.1750053 
   0.106976738     0.7614517   -0.5618501     0.0012396    0.0002463     0.0015272    0.0001521     0.0175090   -0.1747888 
   0.107076763     0.7620803   -0.5690753     0.0019099    0.0000657     0.0013526    0.0002166     0.0172235   -0.1744841 
   0.107176788     0.7597270   -0.5668685     0.0016402    0.0001900     0.0014489    0.0001270     0.0168641   -0.1738530 
   0.107276813     0.7612834   -0.5643173     0.0020261    0.0001938     0.0016205    0.0002041     0.0168339   -0.1738060 
   0.107376838     0.7539194   -0.5655311     0.0015040    0.0001214     0.0016015    0.0002296     0.0169287   -0.1749722 
   0.107476863     0.7594458   -0.5634723     0.0014235    0.0002246     0.0015178    0.0002512     0.0167160   -0.1746752 
   0.107576888     0.7601016   -0.5602373     0.0014158    0.0000220     0.0013772    0.0002644     0.0168304   -0.1743786 
   0.107676913     0.7561497   -0.5657193     0.0016013    0.0003071     0.0013836    0.0002242     0.0170822   -0.1733910 
   0.107776938     0.7540966   -0.5692306     0.0013831    0.0004861     0.0014770    0.0002936     0.0164089   -0.1741598 
   0.107876963     0.7532542   -0.5663691     0.0015655    0.0004423     0.0014911    0.0003590     0.0161993   -0.1743578 
   0.107976988     0.7544683   -0.5677513     0.0013391    0.0001705     0.0013541    0.0001302     0.0163386   -0.1746198 
   0.108077014     0.7590334   -0.5683811     0.0015587    0.0003547     0.0014918    0.0002217     0.0162626   -0.1739005 
   0.108177039     0.7544045   -0.5665336     0.0014579    0.0002455     0.0014907    0.0002502     0.0161583   -0.1739507 
   0.108277064     0.7561549   -0.5694885     0.0015199    0.0000267     0.0015379    0.0002735     0.0163359   -0.1735336 
   0.108377089     0.7534835   -0.5681628     0.0014547    0.0004819     0.0013737    0.0002436     0.0159075   -0.1741541 
   0.108477114     0.7529984   -0.5727165     0.0015035   -0.0000535     0.0015861    0.0002405     0.0155330   -0.1735965 
   0.108577139     0.7513806   -0.5759953     0.0016431    0.0002018     0.0014163    0.0001949     0.0156394   -0.1740419 
   0.108677164     0.7524120   -0.5700488     0.0014588    0.0003014     0.0016834    0.0001485     0.0160215   -0.1734120 
   0.108777189     0.7556475   -0.5729036     0.0014613    0.0002582     0.0016400    0.0001250     0.0154226   -0.1736820 
   0.108877214     0.7550402   -0.5695212     0.0014059    0.0004139     0.0013971    0.0002802     0.0158874   -0.1728794 
   0.108977239     0.7585223   -0.5720101     0.0017209    0.0002269     0.0015335    0.0001916     0.0159341   -0.1731083 
   0.109077264     0.7519452   -0.5693429     0.0014830    0.0001387     0.0015398    0.0001878     0.0156215   -0.1735278 
   0.109177289     0.7560219   -0.5720380     0.0014181    0.0002944     0.0015946    0.0002370     0.0155284   -0.1737725 
   0.109277314     0.7552026   -0.5717453     0.0015598    0.0003127     0.0015763    0.0001954     0.0155470   -0.1725266 
   0.109377339     0.7498306   -0.5756638     0.0014928    0.0001034     0.0014276    0.0002172     0.0151226   -0.1734247 
   0.109477364     0.7507635   -0.5720393     0.0015124    0.0002927     0.0016011    0.0001578     0.0149758   -0.1732150 
   0.109577389     0.7537018   -0.5741684     0.0013836    0.0001682     0.0015311    0.0002330     0.0153478   -0.1731379 
   0.109677414     0.7528204   -0.5746080     0.0012914    0.0000628     0.0015454    0.0000984     0.0153629   -0.1733554 
   0.109777439     0.7482160   -0.5744144     0.0015247    0.0003007     0.0015256    0.0001705     0.0153119   -0.1724876 
   0.109877464     0.7488798   -0.5758788     0.0015018    0.0000771     0.0015628    0.0000809     0.0149479   -0.1734877 
   0.109977489     0.7495077   -0.5805739     0.0015538    0.0001858     0.0015906    0.0000886     0.0149975   -0.1727994 
   0.110077514     0.7469966   -0.5774179     0.0013966    0.0000787     0.0015073    0.0001734     0.0148871   -0.1727116 
   0.110177539     0.7475451   -0.5794370     0.0016324    0.0000043     0.0013860    0.0001117     0.0147865   -0.1722926 
   0.110277564     0.7519721   -0.5775272     0.0016924    0.0002978     0.0014973    0.0001664     0.0143342   -0.1732406 
   0.110377589     0.7481657   -0.5786888     0.0016692    0.0004049     0.0014828    0.0000756     0.0142267   -0.1728972 
   0.110477614     0.7471960   -0.5765170     0.0016788    0.0003132     0.0016688    0.0001812     0.0147660   -0.1724676 
   0.110577639     0.7465167   -0.5803897     0.0017192    0.0000025     0.0015215    0.0001399     0.0141436   -0.1723352 
   0.110677664     0.7460051   -0.5822759     0.0014477    0.0003190     0.0014028    0.0002204     0.0138232   -0.1717198 
   0.110777689     0.7509109   -0.5823260     0.0016730    0.0000392     0.0015851    0.0001192     0.0146698   -0.1718159 
   0.110877714     0.7436677   -0.5779414     0.0014236    0.0001277     0.0015569    0.0000927     0.0133782   -0.1721602 
   0.110977739     0.7470241   -0.5773100     0.0016394   -0.0001286     0.0015486    0.0002840     0.0141620   -0.1722103 
   0.111077764     0.7447862   -0.5809256     0.0015116    0.0000308     0.0016229    0.0001733     0.0130684   -0.1723290 
   0.111177789     0.7467082   -0.5836936     0.0014729    0.0000474     0.0015817    0.0000561     0.0135291   -0.1721896 
   0.111277814     0.7452793   -0.5791687     0.0016843    0.0002545     0.0015569    0.0003042     0.0137496   -0.1723450 
   0.111377839     0.7470356   -0.5821735     0.0015443    0.0001145     0.0016334    0.0000501     0.0132987   -0.1721772 
   0.111477864     0.7426057   -0.5830283     0.0014950    0.0000568     0.0016191    0.0001448     0.0141136   -0.1716199 
   0.111577889     0.7449755   -0.5810397     0.0014362    0.0001985     0.0015649   -0.0000106     0.0139575   -0.1713120 
   0.111677914     0.7451213   -0.5808372     0.0015333    0.0000892     0.0015800    0.0000792     0.0134906   -0.1715187 
   0.111777939     0.7436756   -0.5861107     0.0016174    0.0000728     0.0014268    0.0001612     0.0132124   -0.1714290 
   0.111877964     0.7476014   -0.5876623     0.0015793    0.0001188     0.0015472    0.0001372     0.0126306   -0.1717111 
   0.111977989     0.7411324   -0.5823537     0.0015290    0.0001532     0.0016344    0.0000923     0.0134140   -0.1715167 
   0.112078014     0.7432228   -0.5909352     0.0013340    0.0000372     0.0015700    0.0001748     0.0130247   -0.1715748 
   0.112178039     0.7428234   -0.5849689     0.0015242    0.0000463     0.0015909    0.0001777     0.0130266   -0.1714998 
   0.112278064     0.7436528   -0.5872500     0.0015752    0.0002616     0.0014940    0.0002034     0.0131775   -0.1717625 
   0.112378089     0.7414559   -0.5869972     0.0013093    0.0003227     0.0016378    0.0001020     0.0125213   -0.1710912 
   0.112478114     0.7454371   -0.5900564     0.0016507    0.0000447     0.0014915    0.0001072     0.0125447   -0.1717352 
   0.112578139     0.7383367   -0.5942829     0.0016252    0.0002542     0.0014870    0.0001272     0.0128182   -0.1710046 
   0.112678164     0.7415268   -0.5883474     0.0016253    0.0000073     0.0014679    0.0000785     0.0125814   -0.1719003 
   0.112778189     0.7439709   -0.5908439     0.0017050    0.0000368     0.0015518    0.0000684     0.0127296   -0.1712324 
   0.112878214     0.7370749   -0.5896338     0.0017120   -0.0000100     0.0015567    0.0001045     0.0123583   -0.1719782 
   0.112978239     0.7407994   -0.5893697     0.0013919   -0.0001161     0.0015368    0.0001471     0.0126400   -0.1704396 
   0.113078264     0.7402316   -0.5917621     0.0014147    0.0001401     0.0015354    0.0000115     0.0123559   -0.1706997 
   0.113178289     0.7386019   -0.5908678     0.0017897    0.0002514     0.0015086    0.0001516     0.0124929   -0.1715726 
   0.113278314     0.7422797   -0.5894063     0.0015127    0.0002581     0.0015689    0.0000593     0.0112702   -0.1711615 
   0.113378339     0.7398100   -0.5940585     0.0016905    0.0002271     0.0016099    0.0001925     0.0128554   -0.1712984 
   0.113478364     0.7380854   -0.5907063     0.0015630    0.0001888     0.0015378    0.0001415     0.0117242   -0.1707858 
   0.113578389     0.7377030   -0.5910835     0.0014520    0.0002856     0.0015100    0.0000843     0.0114177   -0.1705180 
   0.113678414     0.7379081   -0.5914631     0.0015252    0.0000022     0.0016617    0.0001215     0.0118701   -0.1712743 
   0.113778439     0.7400787   -0.5954479     0.0015472    0.0003324     0.0015962    0.0001455     0.0119995   -0.1704092 
   0.113878464     0.7343542   -0.5912735     0.0015031    0.0000805     0.0015604    0.0001526     0.0113808   -0.1711917 
   0.113978489     0.7364164   -0.5944746     0.0015722    0.0001320     0.0016208    0.0000524     0.0117944   -0.1703794 
   0.114078514     0.7359408   -0.5959399     0.0015700    0.0000810     0.0015950    0.0000723     0.0120396   -0.1698162 
   0.114178539     0.7354311   -0.5954043     0.0016495    0.0001012     0.0015763    0.0000073     0.0106486   -0.1706204 
   0.114278564     0.7351077   -0.5939959     0.0015231    0.0000784     0.0016675   -0.0000054     0.0108635   -0.1702175 
   0.114378589     0.7376382   -0.5976076     0.0017536    0.0001929     0.0014749    0.0000344     0.0114267   -0.1706962 
   0.114478614     0.7366953   -0.5971068     0.0016970    0.0000818     0.0015860    0.0000477     0.0110764   -0.1702116 
   0.114578639     0.7364592   -0.5955011     0.0015204    0.0001810     0.0015684    0.0000359     0.0105051   -0.1704777 
   0.114678664     0.7340235   -0.5973114     0.0016011    0.0001577     0.0015956    0.0000418     0.0108041   -0.1702556 
   0.114778689     0.7358720   -0.6007406     0.0015661    0.0000526     0.0015522    0.0000474     0.0102338   -0.1698799 
   0.114878714     0.7367309   -0.5997775     0.0015722    0.0001621     0.0016272    0.0000782     0.0104466   -0.1700543 
   0.114978739     0.7342663   -0.5975513     0.0015090    0.0001227     0.0015931    0.0000909     0.0105402   -0.1693579 
   0.115078764     0.7344102   -0.5996467     0.0014831   -0.0000456     0.0015343    0.0000303     0.0105778   -0.1696466 
   0.115178789     0.7315147   -0.6023331     0.0016613    0.0000146     0.0014642   -0.0000601     0.0106145   -0.1696273 
   0.115278814     0.7307854   -0.5999411     0.0016478   -0.0000208     0.0015956    0.0000683     0.0102159   -0.1700308 
   0.115378839     0.7306823   -0.5990475     0.0015895    0.0001251     0.0015703    0.0001719     0.0101810   -0.1694681 
   0.115478864     0.7322084   -0.5989903     0.0015774   -0.0000291     0.0016519    0.0000823     0.0103122   -0.1699159 
   0.115578889     0.7312275   -0.5991709     0.0015194   -0.0000717     0.0016137    0.0000749     0.0098631   -0.1694179 
   0.115678914     0.7262962   -0.5978687     0.0016287    0.0001567     0.0015663    0.0000381     0.0100080   -0.1693346 
   0.115778939     0.7315912   -0.5981579     0.0016445    0.0001282     0.0016484    0.0000552     0.0093691   -0.1692902 
   0.115878964     0.7278682   -0.6000898     0.0014079    0.0001648     0.0017329    0.0001093     0.0102440   -0.1698994 
   0.115978989     0.7303835   -0.6029850     0.0017476    0.0001115     0.0016453   -0.0000082     0.0100011   -0.1690313 
   0.116079015     0.7298141   -0.6006681     0.0016504   -0.0001562     0.0015808   -0.0000474     0.0100761   -0.1694354 
   0.116179040     0.7290828   -0.6045913     0.0015770    0.0000585     0.0015742   -0.0000177     0.0094793   -0.1695106 
   0.116279065     0.7291645   -0.6017484     0.0015080    0.0000283     0.0015755    0.0000208     0.0099513   -0.1690757 
   0.116379090     0.7279448   -0.6025558     0.0014708    0.0001120     0.0015732    0.0000483     0.0097675   -0.1690514 
   0.116479115     0.7293631   -0.6072357     0.0017565    0.0002006     0.0016190    0.0000677     0.0099659   -0.1684697 
   0.116579140     0.7264344   -0.6063660     0.0017037    0.0001569     0.0015333    0.0000666     0.0096099   -0.1687634 
   0.116679165     0.7264959   -0.6054533     0.0016579    0.0001697     0.0015963    0.0000153     0.0093725   -0.1693427 
   0.116779190     0.7279617   -0.6060216     0.0017022    0.0000530     0.0016106   -0.0000079     0.0089486   -0.1695653 
   0.116879215     0.7266729   -0.6054167     0.0016198    0.0001296     0.0016562    0.0001123     0.0087816   -0.1687849 
   0.116979240     0.7269509   -0.6045166     0.0016165    0.0000760     0.0016940   -0.0000752     0.0097367   -0.1688344 
   0.117079265     0.7276509   -0.6046360     0.0016020    0.0001868     0.0015501    0.0000786     0.0092266   -0.1687272 
   0.117179290     0.7280104   -0.6081058     0.0016495    0.0001109     0.0015953    0.0000084     0.0089711   -0.1688632 
   0.117279315     0.7251468   -0.6059180     0.0014114   -0.0000434     0.0015397    0.0000119     0.0093299   -0.1683224 
   0.117379340     0.7227426   -0.6078107     0.0016877    0.0002083     0.0016009   -0.0000151     0.0085250   -0.1684501 
   0.117479365     0.7253459   -0.6088490     0.0016210    0.0000673     0.0016300    0.0000505     0.0089693   -0.1690212 
   0.117579390     0.7215460   -0.6086090     0.0015455   -0.0001222     0.0015385    0.0000736     0.0080766   -0.1689961 
   0.117679415     0.7234568   -0.6119506     0.0016820    0.0000369     0.0016159   -0.0000311     0.0078927   -0.1681631 
   0.117779440     0.7206277   -0.6070057     0.0015137    0.0001780     0.0016301   -0.0000449     0.0086543   -0.1690699 
   0.117879465     0.7241459   -0.6114137     0.0015997    0.0001332     0.0015967    0.0000392     0.0079762   -0.1687178 
   0.117979490     0.7226887   -0.6095108     0.0015555    0.0002474     0.0015984   -0.0000484     0.0089697   -0.1688124 
   0.118079515     0.7248290   -0.6082485     0.0014550    0.0002130     0.0016240    0.0000552     0.0081618   -0.1682589 
   0.118179540     0.7244248   -0.6101424     0.0015470    0.0001452     0.0015896    0.0000277     0.0085174   -0.1680994 
   0.118279565     0.7220684   -0.6102018     0.0016588   -0.0000638     0.0016130    0.0000306     0.0081747   -0.1684287 
   0.118379590     0.7186729   -0.6118453     0.0014283    0.0000097     0.0016328    0.0000694     0.0078158   -0.1684357 
   0.118479615     0.7224761   -0.6130003     0.0014935    0.0000481     0.0016263   -0.0000225     0.0080276   -0.1682624 
   0.118579640     0.7236510   -0.6118039     0.0016253    0.0001159     0.0015270   -0.0000320     0.0078529   -0.1678063 
   0.118679665     0.7185471   -0.6124038     0.0016085   -0.0000088     0.0015958    0.0000044     0.0079499   -0.1684467 
   0.118779690     0.7196643   -0.6138807     0.0014208    0.0000810     0.0016140    0.0000086     0.0078658   -0.1685315 
   0.118879715     0.7170724   -0.6146498     0.0016002   -0.0000232     0.0016054   -0.0000475     0.0078254   -0.1679015 
   0.118979740     0.7167392   -0.6150736     0.0015518   -0.0000345     0.0016250   -0.0000602     0.0078432   -0.1675925 
   0.119079765     0.7184283   -0.6144120     0.0016524    0.0001821     0.0015975   -0.0000220     0.0072354   -0.1674394 
   0.119179790     0.7161263   -0.6136079     0.0016382    0.0000940     0.0016518   -0.0000139     0.0078435   -0.1677897 
   0.119279815     0.7198891   -0.6151220     0.0015642    0.0000952     0.0016124    0.0000646     0.0074753   -0.1677864 
   0.119379840     0.7169117   -0.6146919     0.0016275    0.0001151     0.0016241   -0.0001214     0.0075016   -0.1682262 
   0.119479865     0.7161313   -0.6168309     0.0017311    0.0000672     0.0015822    0.0000905     0.0074057   -0.1681392 
   0.119579890     0.7153814   -0.6163318     0.0016183   -0.0001170     0.0015789   -0.0000328     0.0076622   -0.1671268 
   0.119679915     0.7136822   -0.6174505     0.0015250   -0.0000190     0.0015851   -0.0000010     0.0068936   -0.1672834 
   0.119779940     0.7157241   -0.6168009     0.0015182    0.0001722     0.0016391   -0.0001293     0.0069916   -0.1675911 
   0.119879965     0.7121204   -0.6180573     0.0016445   -0.0000760     0.0016773   -0.0000366     0.0065566   -0.1668733 
   0.119979990     0.7157538   -0.6169015     0.0015490    0.0001739     0.0015565    0.0000010     0.0069950   -0.1673778 
   0.120080015     0.7137229   -0.6171893     0.0015849    0.0001137     0.0015507    0.0000252     0.0069389   -0.1671475 
   0.120180040     0.7144806   -0.6189536     0.0015682   -0.0000074     0.0015273    0.0000137     0.0063466   -0.1670258 
   0.120280065     0.7120978   -0.6197864     0.0017029    0.0000726     0.0015240    0.0000083     0.0062048   -0.1671674 
   0.120380090     0.7116432   -0.6173366     0.0016150    0.0001493     0.0016283   -0.0000325     0.0065260   -0.1673897 
   0.120480115     0.7123341   -0.6170765     0.0015856    0.0000860     0.0016098    0.0000600     0.0065727   -0.1673586 
   0.120580140     0.7119974   -0.6179390     0.0017331   -0.0001461     0.0016053   -0.0000651     0.0062896   -0.1669878 
   0.120680165     0.7090539   -0.6184903     0.0016469   -0.0001208     0.0016608   -0.0000487     0.0060525   -0.1675477 
   0.120780190     0.7155890   -0.6209896     0.0017388    0.0000270     0.0015272    0.0000069     0.0058123   -0.1674460 
   0.120880215     0.7102314   -0.6185466     0.0017487   -0.0000015     0.0016268    0.0000251     0.0059851   -0.1672411 
   0.120980240     0.7094218   -0.6226736     0.0016983    0.0000855     0.0016489    0.0000257     0.0059536   -0.1672162 
   0.121080265     0.7107257   -0.6241314     0.0016944   -0.0000137     0.0016012   -0.0001031     0.0053664   -0.1669141 
   0.121180290     0.7086297   -0.6219033     0.0016260   -0.0001986     0.0015891   -0.0000488     0.0053565   -0.1664268 
   0.121280315     0.7094396   -0.6191590     0.0016477    0.0000476     0.0016390   -0.0000404     0.0057104   -0.1670226 
   0.121380340     0.7084127   -0.6208608     0.0016929    0.0000315     0.0015745    0.0000152     0.0060734   -0.1662918 
   0.121480365     0.7100452   -0.6239262     0.0017249    0.0000109     0.0016437   -0.0000972     0.0053954   -0.1668513 
   0.121580390     0.7065177   -0.6243731     0.0015316   -0.0000175     0.0016208   -0.0000077     0.0056000   -0.1659733 
   0.121680415     0.7074816   -0.6253949     0.0017716   -0.0000400     0.0015337   -0.0000804     0.0054459   -0.1668551 
   0.121780440     0.7081265   -0.6229845     0.0016747   -0.0000562     0.0015453   -0.0000754     0.0054520   -0.1667035 
   0.121880465     0.7073953   -0.6232758     0.0014903   -0.0000319     0.0016181   -0.0001320     0.0055418   -0.1659195 
   0.121980490     0.7044635   -0.6265088     0.0015724    0.0000916     0.0015668   -0.0001014     0.0048768   -0.1668691 
   0.122080515     0.7045829   -0.6243556     0.0015716    0.0000561     0.0016140   -0.0000655     0.0054065   -0.1662598 
   0.122180540     0.7062011   -0.6265761     0.0016241    0.0000144     0.0016148   -0.0000871     0.0051207   -0.1666494 
   0.122280565     0.7061785   -0.6266257     0.0017870   -0.0001880     0.0014984    0.0000233     0.0048019   -0.1665614 
   0.122380590     0.7040849   -0.6274306     0.0016300    0.0000699     0.0016403   -0.0001014     0.0048201   -0.1659940 
   0.122480615     0.7072927   -0.6276312     0.0016072   -0.0001343     0.0016327   -0.0000767     0.0053121   -0.1662975 
   0.122580640     0.7053428   -0.6293855     0.0016996    0.0000514     0.0017204   -0.0000730     0.0046074   -0.1662960 
   0.122680665     0.7024198   -0.6267866     0.0018116    0.0000350     0.0015880    0.0000703     0.0043091   -0.1662806 
   0.122780690     0.7055486   -0.6284191     0.0017658    0.0000910     0.0016544   -0.0000814     0.0046190   -0.1658682 
   0.122880715     0.7020602   -0.6289918     0.0015518    0.0000603     0.0017143    0.0000000     0.0044846   -0.1660343 
   0.122980740     0.7014984   -0.6292685     0.0017311   -0.0000573     0.0016969   -0.0001272     0.0047146   -0.1661234 
   0.123080765     0.7021071   -0.6291802     0.0016538   -0.0000499     0.0016430   -0.0001594     0.0044386   -0.1660627 
   0.123180790     0.7016201   -0.6293465     0.0017586    0.0000145     0.0016434   -0.0001079     0.0045660   -0.1654226 
   0.123280815     0.7012857   -0.6325630     0.0016094   -0.0001017     0.0016459   -0.0001301     0.0040612   -0.1657275 
   0.123380840     0.7048851   -0.6298404     0.0014928    0.0001227     0.0016303   -0.0000824     0.0039246   -0.1658712 
   0.123480865     0.6997229   -0.6298238     0.0017865   -0.0000480     0.0015946   -0.0001043     0.0037575   -0.1653859 
   0.123580890     0.7010329   -0.6306991     0.0016819    0.0001567     0.0016355   -0.0001011     0.0030230   -0.1659346 
   0.123680915     0.7005846   -0.6307996     0.0016506   -0.0000460     0.0016196   -0.0001643     0.0039260   -0.1658034 
   0.123780940     0.7012329   -0.6352317     0.0015491   -0.0000425     0.0018297    0.0000639     0.0037550   -0.1657123 
   0.123880965     0.7008490   -0.6338159     0.0018088    0.0001542     0.0016554   -0.0000056     0.0036064   -0.1660945 
   0.123980990     0.6962854   -0.6323374     0.0016607   -0.0000740     0.0016095   -0.0001560     0.0038158   -0.1656836 
   0.124081016     0.6952491   -0.6327729     0.0015252   -0.0000618     0.0015910   -0.0000268     0.0035865   -0.1651697 
   0.124181041     0.6993917   -0.6318362     0.0017227   -0.0001212     0.0016402    0.0000152     0.0028286   -0.1654221 
   0.124281066     0.7014425   -0.6357626     0.0015432    0.0000276     0.0015837   -0.0000639     0.0031063   -0.1650952 
   0.124381091     0.6945921   -0.6291157     0.0016873    0.0000256     0.0016995   -0.0001058     0.0032621   -0.1652840 
   0.124481116     0.6942460   -0.6333174     0.0017291   -0.0000853     0.0016830   -0.0001850     0.0032514   -0.1648763 
   0.124581141     0.6947981   -0.6382506     0.0016973   -0.0000229     0.0016199   -0.0000558     0.0032676   -0.1651590 
   0.124681166     0.6944360   -0.6344051     0.0017231   -0.0000783     0.0016869    0.0000071     0.0028352   -0.1650770 
   0.124781191     0.6941492   -0.6374055     0.0015299    0.0001033     0.0016685   -0.0000344     0.0028097   -0.1652026 
   0.124881216     0.6909571   -0.6346852     0.0015293    0.0000831     0.0017412   -0.0000389     0.0032493   -0.1649680 
   0.124981241     0.6947212   -0.6372910     0.0018043   -0.0000390     0.0017157   -0.0001741     0.0025379   -0.1642817 
   0.125081266     0.6931085   -0.6352443     0.0017881    0.0000313     0.0016330   -0.0000339     0.0031180   -0.1646338 
   0.125181291     0.6934875   -0.6400445     0.0017735    0.0000705     0.0016437   -0.0000428     0.0027861   -0.1644771 
   0.125281316     0.6926742   -0.6357090     0.0016838    0.0000100     0.0017352   -0.0001259     0.0029153   -0.1651713 
   0.125381341     0.6929771   -0.6385000     0.0017809   -0.0002186     0.0016488   -0.0001543     0.0027881   -0.1650097 
   0.125481366     0.6908392   -0.6359025     0.0015933    0.0000106     0.0016234    0.0000066     0.0024807   -0.1652112 
   0.125581391     0.6954569   -0.6404392     0.0017313   -0.0002700     0.0017170   -0.0000372     0.0022383   -0.1650112 
   0.125681416     0.6904955   -0.6408848     0.0014280   -0.0002771     0.0015456   -0.0001304     0.0023247   -0.1645864 
   0.125781441     0.6907031   -0.6377081     0.0015201   -0.0001237     0.0017140   -0.0000258     0.0015941   -0.1643225 
   0.125881466     0.6924070   -0.6375080     0.0016628   -0.0000976     0.0017290    0.0000796     0.0024836   -0.1644983 
   0.125981491     0.6892276   -0.6398968     0.0015092    0.0000125     0.0014980   -0.0001185     0.0014551   -0.1641368 
   0.126081516     0.6893457   -0.6390388     0.0018271   -0.0002803     0.0017032    0.0000123     0.0014949   -0.1643129 
   0.126181541     0.6885055   -0.6415737     0.0016291   -0.0000618     0.0015560    0.0000713     0.0013691   -0.1645698 
   0.126281566     0.6879330   -0.6449662     0.0014713   -0.0002912     0.0017280   -0.0001418     0.0019256   -0.1646226 
   0.126381591     0.6924254   -0.6390788     0.0016969   -0.0002192     0.0016407   -0.0000785     0.0012448   -0.1642440 
   0.126481616     0.6859872   -0.6417749     0.0014966   -0.0002217     0.0015364    0.0000042     0.0017024   -0.1646876 
   0.126581641     0.6849123   -0.6425118     0.0016539   -0.0000219     0.0017168    0.0001083     0.0016341   -0.1641005 
   0.126681666     0.6884298   -0.6416456     0.0017649    0.0000137     0.0016491   -0.0000852     0.0014515   -0.1646768 
   0.126781691     0.6857026   -0.6406966     0.0017803    0.0003043     0.0016143   -0.0002075     0.0021831   -0.1644184 
   0.126881716     0.6856855   -0.6426533     0.0017342    0.0000312     0.0017057   -0.0001995     0.0014485   -0.1641292 
   0.126981741     0.6836663   -0.6440831     0.0018622   -0.0003429     0.0016159    0.0000038     0.0012745   -0.1640937 
   0.127081766     0.6868330   -0.6437866     0.0018443   -0.0000711     0.0016680    0.0000585     0.0007372   -0.1638657 
   0.127181791     0.6811128   -0.6445863     0.0018458   -0.0000658     0.0016408   -0.0001460     0.0008776   -0.1638687 
   0.127281816     0.6855878   -0.6435004     0.0020317    0.0001258     0.0016075    0.0000150     0.0013673   -0.1639991 
   0.127381841     0.6808900   -0.6468414     0.0016738    0.0000812     0.0018568   -0.0000689     0.0005010   -0.1639545 
   0.127481866     0.6849664   -0.6456296     0.0020055   -0.0000371     0.0017207   -0.0001423     0.0007509   -0.1639945 
   0.127581891     0.6856978   -0.6460184     0.0016822   -0.0002032     0.0018637   -0.0000639     0.0008186   -0.1636098 
   0.127681916     0.6841371   -0.6459029     0.0013543   -0.0000562     0.0016894   -0.0000341     0.0004484   -0.1641915 
   0.127781941     0.6833428   -0.6433460     0.0018329   -0.0000867     0.0016628   -0.0000970     0.0005436   -0.1637761 
   0.127881966     0.6809047   -0.6475269     0.0018004   -0.0001060     0.0016588   -0.0000063     0.0006910   -0.1637641 
   0.127981991     0.6831648   -0.6473138     0.0018812   -0.0000997     0.0016878   -0.0001894     0.0000863   -0.1635138 
   0.128082016     0.6849455   -0.6460255     0.0018585   -0.0002034     0.0016567   -0.0001667     0.0008002   -0.1636116 
   0.128182041     0.6802954   -0.6462545     0.0015894   -0.0000534     0.0015777   -0.0001339     0.0006146   -0.1638899 
   0.128282066     0.6784663   -0.6499416     0.0016649   -0.0001423     0.0017768   -0.0001629     0.0005379   -0.1635968 
   0.128382091     0.6797478   -0.6461182     0.0016692    0.0000969     0.0015102   -0.0001475    -0.0003740   -0.1632271 
   0.128482116     0.6804266   -0.6498563     0.0017653   -0.0001447     0.0016254   -0.0001100    -0.0002199   -0.1633213 
   0.128582141     0.6802480   -0.6513254     0.0017327   -0.0000442     0.0016876   -0.0001471     0.0003681   -0.1632207 
   0.128682166     0.6800734   -0.6506298     0.0015410   -0.0000911     0.0017429   -0.0001038     0.0000726   -0.1634704 
   0.128782191     0.6787564   -0.6490505     0.0016748   -0.0002782     0.0017389   -0.0001580     0.0001437   -0.1630261 
   0.128882216     0.6786620   -0.6536701     0.0018671   -0.0001305     0.0016318   -0.0001839    -0.0002335   -0.1636827 
   0.128982241     0.6800014   -0.6523315     0.0017748   -0.0003850     0.0017954   -0.0000988    -0.0008633   -0.1631267 
   0.129082266     0.6779785   -0.6514596     0.0019412   -0.0002798     0.0016171   -0.0001827    -0.0001099   -0.1635494 
   0.129182291     0.6750525   -0.6486505     0.0014889   -0.0002216     0.0017819   -0.0000184    -0.0005635   -0.1634123 
   0.129282316     0.6756786   -0.6535357     0.0016874   -0.0000226     0.0017870   -0.0002210    -0.0003678   -0.1632256 
   0.129382341     0.6746302   -0.6550288     0.0017746   -0.0003912     0.0015730   -0.0000998    -0.0010057   -0.1630655 
   0.129482366     0.6781703   -0.6543980     0.0021027    0.0000571     0.0016343   -0.0001918    -0.0004394   -0.1631373 
   0.129582391     0.6752703   -0.6532468     0.0020209    0.0000916     0.0017114   -0.0000907    -0.0006316   -0.1632781 
   0.129682416     0.6777502   -0.6574361     0.0016918    0.0000457     0.0017688   -0.0002214    -0.0010557   -0.1623825 
   0.129782441     0.6733532   -0.6563463     0.0015481   -0.0002292     0.0017005   -0.0001387    -0.0005008   -0.1631405 
   0.129882466     0.6734467   -0.6556966     0.0017397   -0.0000570     0.0015661   -0.0000708    -0.0012739   -0.1624731 
   0.129982491     0.6746183   -0.6534290     0.0014830   -0.0001995     0.0017867   -0.0000767    -0.0004669   -0.1627009 
   0.130082516     0.6756942   -0.6524729     0.0018598   -0.0000714     0.0015916   -0.0000746    -0.0008592   -0.1627775 
   0.130182541     0.6709865   -0.6551743     0.0016492   -0.0001591     0.0015701   -0.0001413    -0.0011841   -0.1627251 
   0.130282566     0.6716955   -0.6539999     0.0016870   -0.0000518     0.0015760   -0.0000119    -0.0015439   -0.1635764 
   0.130382591     0.6701401   -0.6546627     0.0016611   -0.0001401     0.0019024   -0.0000522    -0.0012530   -0.1622588 
   0.130482616     0.6696596   -0.6584404     0.0017668   -0.0003790     0.0017235   -0.0001186    -0.0016598   -0.1624696 
   0.130582641     0.6690938   -0.6547768     0.0018483   -0.0002182     0.0018199   -0.0001154    -0.0014406   -0.1619984 
   0.130682666     0.6753274   -0.6574637     0.0018755   -0.0001132     0.0015093   -0.0002809    -0.0017831   -0.1625753 
   0.130782691     0.6755496   -0.6584378     0.0017375    0.0002075     0.0018170   -0.0002649    -0.0017958   -0.1619768 
   0.130882716     0.6751177   -0.6593837     0.0016412   -0.0001880     0.0016807   -0.0001221    -0.0019221   -0.1619715 
   0.130982741     0.6714380   -0.6540246     0.0017872   -0.0001364     0.0018641   -0.0001319    -0.0022651   -0.1623668 
   0.131082766     0.6676418   -0.6550372     0.0015885   -0.0000760     0.0017061   -0.0002361    -0.0017500   -0.1622712 
   0.131182791     0.6651136   -0.6576749     0.0016133    0.0001720     0.0018227   -0.0001519    -0.0018708   -0.1617984 
   0.131282816     0.6641064   -0.6574738     0.0018633   -0.0006292     0.0017357   -0.0002074    -0.0019514   -0.1617883 
   0.131382841     0.6694090   -0.6608120     0.0016761   -0.0003357     0.0017942   -0.0001187    -0.0022063   -0.1626883 
   0.131482866     0.6663928   -0.6562077     0.0017468   -0.0002894     0.0017329   -0.0001790    -0.0022554   -0.1620815 
   0.131582891     0.6678345   -0.6593086     0.0017684   -0.0003316     0.0018150   -0.0001662    -0.0028174   -0.1619054 
   0.131682916     0.6702048   -0.6608497     0.0019944   -0.0002840     0.0019048   -0.0000762    -0.0023127   -0.1614708 
   0.131782941     0.6629043   -0.6604520     0.0016006   -0.0003287     0.0017271   -0.0000976    -0.0027579   -0.1619694 
   0.131882966     0.6673654   -0.6602137     0.0015832   -0.0002499     0.0017455    0.0000238    -0.0023165   -0.1615480 
   0.131982991     0.6662543   -0.6618807     0.0019173   -0.0004961     0.0016282   -0.0001915    -0.0030013   -0.1619925 
   0.132083017     0.6638150   -0.6624855     0.0018047   -0.0005432     0.0016623   -0.0001752    -0.0029921   -0.1615144 
   0.132183042     0.6653160   -0.6626227     0.0018541    0.0000061     0.0016660   -0.0002664    -0.0033731   -0.1615573 
   0.132283067     0.6619372   -0.6645148     0.0018384   -0.0004973     0.0016578   -0.0002701    -0.0031330   -0.1618465 
   0.132383092     0.6627089   -0.6676533     0.0017982    0.0000693     0.0018260   -0.0002019    -0.0029604   -0.1618655 
   0.132483117     0.6666937   -0.6607916     0.0018840   -0.0003438     0.0017552   -0.0000413    -0.0032398   -0.1611302 
   0.132583142     0.6608891   -0.6657271     0.0020446   -0.0000109     0.0018640   -0.0003608    -0.0034591   -0.1613421 
   0.132683167     0.6628374   -0.6628332     0.0016556   -0.0001577     0.0016918   -0.0001679    -0.0032132   -0.1613996 
   0.132783192     0.6595370   -0.6651220     0.0016776   -0.0003942     0.0018404   -0.0002246    -0.0037805   -0.1614621 
   0.132883217     0.6656728   -0.6652712     0.0017967   -0.0000214     0.0018706   -0.0002808    -0.0034259   -0.1614553 
   0.132983242     0.6628566   -0.6638523     0.0017944    0.0000700     0.0017951   -0.0001603    -0.0033397   -0.1613625 
   0.133083267     0.6644325   -0.6689340     0.0015374   -0.0003071     0.0015658   -0.0001508    -0.0037195   -0.1615634 
   0.133183292     0.6567928   -0.6664608     0.0017628   -0.0001075     0.0017611   -0.0000170    -0.0036624   -0.1612745 
   0.133283317     0.6575155   -0.6651176     0.0019421   -0.0000593     0.0016649   -0.0001860    -0.0037804   -0.1607711 
   0.133383342     0.6610445   -0.6668047     0.0018706   -0.0003172     0.0017325   -0.0002200    -0.0039489   -0.1616459 
   0.133483367     0.6617882   -0.6662376     0.0019664   -0.0001185     0.0018267   -0.0002013    -0.0039358   -0.1618163 
   0.133583392     0.6600675   -0.6636697     0.0020829   -0.0001766     0.0017359   -0.0000371    -0.0038762   -0.1614005 
   0.133683417     0.6623347   -0.6726621     0.0016292   -0.0001207     0.0016322   -0.0001496    -0.0042049   -0.1613951 
   0.133783442     0.6581822   -0.6665772     0.0016634   -0.0002738     0.0016484   -0.0001011    -0.0042288   -0.1612718 
   0.133883467     0.6560517   -0.6729553     0.0018240   -0.0002030     0.0019194   -0.0001869    -0.0042379   -0.1612145 
   0.133983492     0.6581253   -0.6675841     0.0017847    0.0000746     0.0017336   -0.0002459    -0.0042467   -0.1610728 
   0.134083517     0.6596498   -0.6674483     0.0015552   -0.0003318     0.0015654   -0.0001508    -0.0045575   -0.1603870 
   0.134183542     0.6543173   -0.6724436     0.0019154   -0.0004778     0.0016445   -0.0001417    -0.0046762   -0.1607162 
   0.134283567     0.6575591   -0.6724376     0.0018984    0.0001777     0.0017000   -0.0000836    -0.0042481   -0.1609316 
   0.134383592     0.6577079   -0.6701855     0.0015484    0.0000464     0.0017130   -0.0001671    -0.0044079   -0.1603871 
   0.134483617     0.6553836   -0.6733550     0.0016928   -0.0002419     0.0017927   -0.0000157    -0.0046530   -0.1608463 
   0.134583642     0.6575210   -0.6712620     0.0017499   -0.0008557     0.0017161   -0.0000901    -0.0048540   -0.1606861 
   0.134683667     0.6567282   -0.6720741     0.0019950   -0.0004187     0.0016638   -0.0002590    -0.0043713   -0.1604769 
   0.134783692     0.6532717   -0.6726612     0.0016058   -0.0001529     0.0018064   -0.0002496    -0.0044101   -0.1602566 
   0.134883717     0.6570482   -0.6755491     0.0021289   -0.0001713     0.0017884   -0.0001251    -0.0050201   -0.1601993 
   0.134983742     0.6516242   -0.6737787     0.0019977   -0.0001620     0.0019732   -0.0001238    -0.0053395   -0.1602273 
   0.135083767     0.6532944   -0.6745585     0.0017134   -0.0001597     0.0017161   -0.0001100    -0.0051597   -0.1606350 
   0.135183792     0.6521778   -0.6757688     0.0016956   -0.0001344     0.0019313   -0.0000339    -0.0052748   -0.1604202 
   0.135283817     0.6538025   -0.6754966     0.0018343   -0.0005532     0.0018330   -0.0001303    -0.0053568   -0.1605498 
   0.135383842     0.6495033   -0.6756240     0.0015689   -0.0002771     0.0017685   -0.0003648    -0.0057800   -0.1603818 
   0.135483867     0.6509132   -0.6732896     0.0016895   -0.0001589     0.0018686   -0.0001949    -0.0051973   -0.1607236 
   0.135583892     0.6524374   -0.6720758     0.0016049   -0.0002446     0.0015942   -0.0003326    -0.0049068   -0.1604758 
   0.135683917     0.6530623   -0.6779709     0.0021052   -0.0003164     0.0018562   -0.0002029    -0.0054055   -0.1607159 
   0.135783942     0.6557697   -0.6756927     0.0016338   -0.0000425     0.0016250   -0.0001485    -0.0057510   -0.1600996 
   0.135883967     0.6501123   -0.6734456     0.0016397   -0.0000729     0.0016324   -0.0003681    -0.0056850   -0.1599858 
   0.135983992     0.6531242   -0.6782331     0.0015421   -0.0005824     0.0018236   -0.0001863    -0.0055017   -0.1603320 
   0.136084017     0.6516293   -0.6801087     0.0013958   -0.0002005     0.0016395    0.0000370    -0.0058199   -0.1603890 
   0.136184042     0.6492613   -0.6788818     0.0016135   -0.0003728     0.0017560   -0.0002578    -0.0057380   -0.1603960 
   0.136284067     0.6497175   -0.6755196     0.0020415   -0.0002452     0.0017586   -0.0003226    -0.0062346   -0.1597110 
   0.136384092     0.6462989   -0.6756533     0.0015740   -0.0001311     0.0019478   -0.0003294    -0.0066867   -0.1596721 
   0.136484117     0.6447959   -0.6795561     0.0018497   -0.0000390     0.0017598   -0.0001614    -0.0061268   -0.1600629 
   0.136584142     0.6462759   -0.6811812     0.0017384   -0.0003342     0.0015864   -0.0001810    -0.0060726   -0.1597870 
   0.136684167     0.6498692   -0.6786195     0.0016442   -0.0002551     0.0016613   -0.0001638    -0.0062810   -0.1597444 
   0.136784192     0.6431687   -0.6807241     0.0018749   -0.0000843     0.0018618   -0.0002797    -0.0061391   -0.1596729 
   0.136884217     0.6478018   -0.6834903     0.0019073   -0.0000154     0.0017778   -0.0003115    -0.0068917   -0.1597672 
   0.136984242     0.6489750   -0.6845881     0.0019511   -0.0001731     0.0015660   -0.0002081    -0.0068241   -0.1597282 
   0.137084267     0.6497511   -0.6802182     0.0018439   -0.0002333     0.0016763   -0.0003206    -0.0070739   -0.1598687 
   0.137184292     0.6470366   -0.6795122     0.0015589   -0.0004608     0.0019106   -0.0001676    -0.0071793   -0.1595885 
   0.137284317     0.6425192   -0.6797420     0.0013587   -0.0000192     0.0020135   -0.0002950    -0.0069667   -0.1592529 
   0.137384342     0.6446897   -0.6827354     0.0020481   -0.0000789     0.0017351   -0.0000912    -0.0064947   -0.1596340 
   0.137484367     0.6416399   -0.6864322     0.0017327   -0.0000692     0.0017385   -0.0004733    -0.0071413   -0.1598130 
   0.137584392     0.6433994   -0.6827877     0.0012170   -0.0000894     0.0017836   -0.0004046    -0.0071548   -0.1595138 
   0.137684417     0.6427927   -0.6819416     0.0015367    0.0000108     0.0019079   -0.0002722    -0.0068922   -0.1590919 
   0.137784442     0.6440439   -0.6846901     0.0018876   -0.0008274     0.0019452   -0.0002990    -0.0072039   -0.1589964 
   0.137884467     0.6425041   -0.6823567     0.0013858    0.0000024     0.0017620   -0.0002064    -0.0073321   -0.1597798 
   0.137984492     0.6382376   -0.6895251     0.0017270   -0.0002716     0.0019171   -0.0003595    -0.0077296   -0.1593345 
   0.138084517     0.6426710   -0.6851711     0.0019537   -0.0002489     0.0017026   -0.0001445    -0.0071661   -0.1592159 
   0.138184542     0.6385548   -0.6870465     0.0017658   -0.0003481     0.0016696   -0.0001842    -0.0073853   -0.1592048 
   0.138284567     0.6416375   -0.6884413     0.0017917   -0.0007431     0.0016668    0.0001427    -0.0073851   -0.1589966 
   0.138384592     0.6349872   -0.6842607     0.0017038   -0.0003862     0.0017836   -0.0003768    -0.0082112   -0.1589224 
   0.138484617     0.6374573   -0.6846504     0.0018153   -0.0003514     0.0016607   -0.0001198    -0.0072595   -0.1590044 
   0.138584642     0.6387383   -0.6884494     0.0019817   -0.0002899     0.0018189   -0.0002906    -0.0079376   -0.1593702 
   0.138684667     0.6393595   -0.6895790     0.0015500   -0.0003625     0.0017620   -0.0001974    -0.0078258   -0.1588174 
   0.138784692     0.6394938   -0.6855342     0.0017065    0.0000294     0.0018815   -0.0003721    -0.0081994   -0.1594978 
   0.138884717     0.6344030   -0.6886470     0.0017233   -0.0003374     0.0017778   -0.0005885    -0.0078836   -0.1591255 
   0.138984742     0.6403942   -0.6884617     0.0015635    0.0001061     0.0017765   -0.0001991    -0.0076950   -0.1587300 
   0.139084767     0.6391674   -0.6925147     0.0018582   -0.0000542     0.0019265   -0.0002001    -0.0082762   -0.1586927 
   0.139184792     0.6340625   -0.6912333     0.0017693   -0.0000117     0.0017299   -0.0001715    -0.0081929   -0.1584686 
   0.139284817     0.6343231   -0.6884075     0.0017486   -0.0005079     0.0019511   -0.0004778    -0.0081559   -0.1584771 
   0.139384842     0.6349664   -0.6940007     0.0012877   -0.0001520     0.0017703   -0.0004080    -0.0083905   -0.1587633 
   0.139484867     0.6374391   -0.6905390     0.0017329   -0.0003537     0.0018551   -0.0003442    -0.0086265   -0.1587352 
   0.139584892     0.6318778   -0.6896932     0.0019248   -0.0005202     0.0020379   -0.0003317    -0.0079694   -0.1584645 
   0.139684917     0.6363215   -0.6888049     0.0017971   -0.0001392     0.0019088   -0.0001978    -0.0089952   -0.1588103 
   0.139784942     0.6350297   -0.6952602     0.0014620   -0.0003382     0.0018497    0.0000999    -0.0087027   -0.1591229 
   0.139884967     0.6342046   -0.6891230     0.0020476   -0.0000551     0.0018410    0.0000105    -0.0087988   -0.1586249 
   0.139984992     0.6349165   -0.6936443     0.0018159   -0.0004449     0.0018120   -0.0002697    -0.0087755   -0.1585620 
   0.140085018     0.6359528   -0.6945640     0.0014529   -0.0000936     0.0014519   -0.0006201    -0.0085482   -0.1581689 
   0.140185043     0.6371855   -0.6904798     0.0017780    0.0000257     0.0018960   -0.0003723    -0.0092645   -0.1580305 
   0.140285068     0.6295037   -0.6907328     0.0023159   -0.0002769     0.0016989   -0.0002451    -0.0087524   -0.1580653 
   0.140385093     0.6327796   -0.6864764     0.0018970   -0.0005816     0.0020891   -0.0003515    -0.0087014   -0.1580785 
   0.140485118     0.6355272   -0.6972925     0.0017926   -0.0003284     0.0016992   -0.0000595    -0.0094891   -0.1576956 
   0.140585143     0.6298358   -0.6923892     0.0015081   -0.0003489     0.0019506   -0.0001729    -0.0088664   -0.1583370 
   0.140685168     0.6308609   -0.6959902     0.0017568   -0.0000204     0.0018956   -0.0002870    -0.0094226   -0.1583827 
   0.140785193     0.6283037   -0.6934440     0.0018700   -0.0001786     0.0018734   -0.0002640    -0.0093724   -0.1579043 
   0.140885218     0.6295291   -0.6933755     0.0020295   -0.0005813     0.0017544   -0.0003804    -0.0094603   -0.1578521 
   0.140985243     0.6300911   -0.6976951     0.0018817   -0.0003749     0.0019048   -0.0000224    -0.0097664   -0.1580371 
   0.141085268     0.6308851   -0.6957132     0.0015367   -0.0000980     0.0018951    0.0001280    -0.0097098   -0.1584835 
   0.141185293     0.6275327   -0.6986116     0.0020193   -0.0002581     0.0019002   -0.0004191    -0.0098283   -0.1575524 
   0.141285318     0.6293887   -0.6970745     0.0017271   -0.0003241     0.0018572   -0.0001792    -0.0098738   -0.1576578 
   0.141385343     0.6301435   -0.6986228     0.0013046   -0.0001588     0.0016095   -0.0004792    -0.0102365   -0.1577180 
   0.141485368     0.6227689   -0.6980307     0.0017166   -0.0005513     0.0018480   -0.0003317    -0.0099134   -0.1580433 
   0.141585393     0.6259633   -0.6990127     0.0018206   -0.0002419     0.0020707   -0.0005419    -0.0097543   -0.1581832 
   0.141685418     0.6287016   -0.6977696     0.0018110   -0.0004443     0.0018502   -0.0002351    -0.0101917   -0.1577084 
   0.141785443     0.6276820   -0.7038200     0.0024888   -0.0003480     0.0019118   -0.0001403    -0.0101725   -0.1573938 
   0.141885468     0.6273146   -0.6980298     0.0020693   -0.0002085     0.0017499   -0.0002594    -0.0099251   -0.1572681 
   0.141985493     0.6250413   -0.7032424     0.0018365   -0.0004708     0.0018327   -0.0004390    -0.0108777   -0.1577924 
   0.142085518     0.6263918   -0.7033991     0.0019176   -0.0000712     0.0017535   -0.0003277    -0.0112579   -0.1576344 
   0.142185543     0.6242570   -0.7062193     0.0020141    0.0002162     0.0019196   -0.0003435    -0.0109704   -0.1575556 
   0.142285568     0.6251923   -0.7012140     0.0018882   -0.0006043     0.0017610    0.0000206    -0.0110688   -0.1576319 
   0.142385593     0.6233233   -0.7001354     0.0020357    0.0001428     0.0018688   -0.0000132    -0.0107436   -0.1570590 
   0.142485618     0.6189677   -0.7012540     0.0019826    0.0000928     0.0017433   -0.0006694    -0.0112784   -0.1575853 
   0.142585643     0.6231180   -0.7022623     0.0019452    0.0000978     0.0018001   -0.0002413    -0.0109770   -0.1573389 
   0.142685668     0.6219089   -0.7051880     0.0015455    0.0001242     0.0017273    0.0000712    -0.0109915   -0.1575742 
   0.142785693     0.6240638   -0.7083505     0.0017431   -0.0004646     0.0017517   -0.0000848    -0.0111326   -0.1571176 
   0.142885718     0.6193426   -0.7013960     0.0019331   -0.0004687     0.0017538   -0.0003223    -0.0116158   -0.1570816 
   0.142985743     0.6164798   -0.7012658     0.0019841    0.0000190     0.0018119   -0.0003361    -0.0113467   -0.1573581 
   0.143085768     0.6227918   -0.6990613     0.0019079   -0.0004131     0.0019326   -0.0004180    -0.0114166   -0.1572011 
   0.143185793     0.6238281   -0.7085680     0.0021618   -0.0004212     0.0016545   -0.0002058    -0.0119159   -0.1571398 
   0.143285818     0.6244281   -0.7055249     0.0020326    0.0003221     0.0019915   -0.0006419    -0.0122865   -0.1569190 
   0.143385843     0.6206686   -0.7096515     0.0019469   -0.0005095     0.0018694   -0.0004365    -0.0115746   -0.1568793 
   0.143485868     0.6243328   -0.7044613     0.0014436   -0.0000291     0.0018593   -0.0001026    -0.0115328   -0.1566209 
   0.143585893     0.6235466   -0.7134779     0.0021681   -0.0003761     0.0021712   -0.0005643    -0.0119778   -0.1570065 
   0.143685918     0.6177394   -0.7053069     0.0015074   -0.0004744     0.0019706   -0.0004311    -0.0122350   -0.1570510 
   0.143785943     0.6194215   -0.7115083     0.0018722   -0.0005760     0.0020802   -0.0001199    -0.0123878   -0.1567726 
   0.143885968     0.6184250   -0.7115701     0.0017761   -0.0000059     0.0017828   -0.0005209    -0.0117956   -0.1569536 
   0.143985993     0.6197906   -0.7082971     0.0018978   -0.0008112     0.0016745   -0.0002231    -0.0118919   -0.1571532 
   0.144086018     0.6184561   -0.7090800     0.0018153   -0.0004735     0.0016992   -0.0003524    -0.0120943   -0.1565649 
   0.144186043     0.6211483   -0.7132167     0.0017599   -0.0000138     0.0018398   -0.0002759    -0.0128307   -0.1565624 
   0.144286068     0.6198211   -0.7068955     0.0018355   -0.0003701     0.0019941   -0.0000276    -0.0121726   -0.1564314 
   0.144386093     0.6141855   -0.7090262     0.0015351   -0.0005961     0.0020242   -0.0004929    -0.0121265   -0.1571805 
   0.144486118     0.6194028   -0.7069977     0.0018810   -0.0003470     0.0019564   -0.0004593    -0.0123695   -0.1567744 
   0.144586143     0.6160046   -0.7054793     0.0016684   -0.0002535     0.0019958   -0.0001828    -0.0125227   -0.1566370 
   0.144686168     0.6154539   -0.7021127     0.0020163   -0.0004905     0.0019471   -0.0001580    -0.0125411   -0.1559551 
   0.144786193     0.6131293   -0.7081949     0.0020724    0.0000604     0.0018717   -0.0003917    -0.0128351   -0.1564380 
   0.144886218     0.6142857   -0.7104366     0.0015157   -0.0006545     0.0018572   -0.0006892    -0.0128771   -0.1565471 
   0.144986243     0.6129335   -0.7059987     0.0017024   -0.0003253     0.0018232   -0.0000122    -0.0123269   -0.1563539 
   0.145086268     0.6192683   -0.7129906     0.0016701   -0.0002464     0.0019161   -0.0003364    -0.0127347   -0.1567077 
   0.145186293     0.6109059   -0.7149359     0.0020589   -0.0005874     0.0017104   -0.0007682    -0.0134692   -0.1567163 
   0.145286318     0.6124606   -0.7112072     0.0021671   -0.0005685     0.0020242   -0.0004017    -0.0127717   -0.1561599 
   0.145386343     0.6126940   -0.7110599     0.0016769   -0.0001257     0.0020095   -0.0001201    -0.0132069   -0.1560238 
   0.145486368     0.6112798   -0.7135522     0.0020716   -0.0004895     0.0018935   -0.0003324    -0.0132750   -0.1558207 
   0.145586393     0.6063641   -0.7126389     0.0020865   -0.0008291     0.0015742   -0.0002886    -0.0132094   -0.1564531 
   0.145686418     0.6127380   -0.7136336     0.0015335   -0.0004229     0.0018381   -0.0006100    -0.0136008   -0.1559887 
   0.145786443     0.6099291   -0.7139602     0.0019242   -0.0006324     0.0016798   -0.0000917    -0.0136851   -0.1558511 
   0.145886468     0.6086991   -0.7119574     0.0021206   -0.0005268     0.0017898   -0.0002578    -0.0138246   -0.1566207 
   0.145986493     0.6111817   -0.7108387     0.0017169   -0.0006403     0.0016325   -0.0004670    -0.0134498   -0.1552981 
   0.146086518     0.6080587   -0.7109703     0.0024136   -0.0007072     0.0018099   -0.0002408    -0.0138463   -0.1557494 
   0.146186543     0.6083000   -0.7129901     0.0020432   -0.0001464     0.0015973   -0.0005550    -0.0138275   -0.1557708 
   0.146286568     0.6071916   -0.7168641     0.0019450   -0.0005071     0.0018798   -0.0004260    -0.0139405   -0.1559716 
   0.146386593     0.6077939   -0.7166931     0.0018818   -0.0002616     0.0018874   -0.0002208    -0.0139080   -0.1557499 
   0.146486618     0.6068668   -0.7204684     0.0018337    0.0000129     0.0018651   -0.0004917    -0.0142977   -0.1562853 
   0.146586643     0.6062436   -0.7184016     0.0012828   -0.0007868     0.0018103   -0.0003720    -0.0146314   -0.1555045 
   0.146686668     0.6077853   -0.7148815     0.0015390   -0.0005759     0.0018169   -0.0004231    -0.0146036   -0.1555558 
   0.146786693     0.6064908   -0.7182569     0.0014730   -0.0003626     0.0019234   -0.0000358    -0.0140438   -0.1556221 
   0.146886718     0.6035315   -0.7180993     0.0019318   -0.0003454     0.0017353   -0.0005913    -0.0145891   -0.1550123 
   0.146986743     0.6078511   -0.7170018     0.0023813   -0.0008417     0.0017970   -0.0009688    -0.0148423   -0.1559096 
   0.147086768     0.5973710   -0.7143114     0.0019618   -0.0004361     0.0019307   -0.0003630    -0.0150039   -0.1555968 
   0.147186793     0.6058657   -0.7216541     0.0017582   -0.0004383     0.0017798   -0.0004371    -0.0152786   -0.1556127 
   0.147286818     0.6027093   -0.7188377     0.0018871   -0.0001328     0.0020767   -0.0003016    -0.0147271   -0.1556313 
   0.147386843     0.6058869   -0.7207494     0.0014289   -0.0006534     0.0016900   -0.0003272    -0.0154667   -0.1559361 
   0.147486868     0.6029260   -0.7211881     0.0025251   -0.0008976     0.0017641   -0.0002977    -0.0144247   -0.1554811 
   0.147586893     0.6010285   -0.7197764     0.0016411    0.0000899     0.0016960   -0.0003790    -0.0154149   -0.1553268 
   0.147686918     0.5999481   -0.7235018     0.0021290   -0.0003665     0.0018588   -0.0001105    -0.0148363   -0.1555832 
   0.147786943     0.6019086   -0.7185509     0.0015905   -0.0006410     0.0019192   -0.0005339    -0.0148981   -0.1550410 
   0.147886968     0.6012464   -0.7238937     0.0016379   -0.0003582     0.0021011   -0.0003425    -0.0153800   -0.1551319 
   0.147986993     0.6024264   -0.7243802     0.0018865   -0.0006012     0.0015201   -0.0000665    -0.0155369   -0.1547844 
   0.148087019     0.6050597   -0.7302101     0.0022638   -0.0000901     0.0021981   -0.0002734    -0.0146491   -0.1550251 
   0.148187044     0.6038240   -0.7258864     0.0018653   -0.0001324     0.0019034   -0.0006744    -0.0157249   -0.1550019 
   0.148287069     0.6058137   -0.7257851     0.0023397   -0.0002540     0.0017784   -0.0004683    -0.0161372   -0.1551751 
   0.148387094     0.5984410   -0.7250262     0.0022435    0.0000845     0.0018026   -0.0004263    -0.0155531   -0.1544419 
   0.148487119     0.6034343   -0.7221387     0.0013862   -0.0006631     0.0019226   -0.0003135    -0.0158025   -0.1551976 
   0.148587144     0.6055033   -0.7261090     0.0019819   -0.0010722     0.0018270   -0.0003979    -0.0155766   -0.1552163 
   0.148687169     0.5933551   -0.7218209     0.0015654   -0.0002589     0.0018862   -0.0005113    -0.0156136   -0.1548886 
   0.148787194     0.5979543   -0.7230083     0.0023037   -0.0003769     0.0020471   -0.0004024    -0.0156931   -0.1546511 
   0.148887219     0.5980741   -0.7261301     0.0019988   -0.0004497     0.0017461   -0.0003903    -0.0160986   -0.1547391 
   0.148987244     0.5941846   -0.7280080     0.0017530   -0.0008956     0.0019079   -0.0003024    -0.0154784   -0.1554790 
   0.149087269     0.5986299   -0.7292928     0.0020288   -0.0009220     0.0018748   -0.0004477    -0.0157378   -0.1543782 
   0.149187294     0.5952938   -0.7330331     0.0017877   -0.0002164     0.0020033   -0.0006495    -0.0160355   -0.1551169 
   0.149287319     0.5945849   -0.7271893     0.0022612   -0.0004088     0.0019364   -0.0003916    -0.0165230   -0.1548140 
   0.149387344     0.5916747   -0.7279496     0.0020330   -0.0005516     0.0016498   -0.0004631    -0.0162635   -0.1548078 
   0.149487369     0.5945997   -0.7289057     0.0015455   -0.0007199     0.0019669   -0.0005411    -0.0162424   -0.1549903 
   0.149587394     0.5959046   -0.7276617     0.0017889   -0.0001012     0.0018449   -0.0004173    -0.0166498   -0.1555593 
   0.149687419     0.5946401   -0.7243137     0.0021796   -0.0009653     0.0019407   -0.0003302    -0.0164764   -0.1548365 
   0.149787444     0.5891667   -0.7288577     0.0017685    0.0005967     0.0016490   -0.0004503    -0.0168069   -0.1539646 
   0.149887469     0.5954077   -0.7302923     0.0017209   -0.0005383     0.0018621   -0.0001697    -0.0165533   -0.1546893 
   0.149987494     0.5950701   -0.7306623     0.0018790   -0.0003265     0.0018093   -0.0005726    -0.0166644   -0.1537924 
   0.150087519     0.5944008   -0.7269968     0.0019822   -0.0008229     0.0021743   -0.0006494    -0.0167914   -0.1543892 
   0.150187544     0.5901867   -0.7277610     0.0017581   -0.0006465     0.0018693   -0.0005691    -0.0172949   -0.1544566 
   0.150287569     0.5925508   -0.7325093     0.0021570   -0.0006274     0.0020962   -0.0006224    -0.0173076   -0.1543951 
   0.150387594     0.5897741   -0.7262430     0.0016699   -0.0003516     0.0019396   -0.0008515    -0.0168215   -0.1541327 
   0.150487619     0.5901319   -0.7250150     0.0020648   -0.0005356     0.0019416   -0.0006021    -0.0174252   -0.1543983 
   0.150587644     0.5894886   -0.7368260     0.0017106   -0.0008033     0.0021722   -0.0007203    -0.0170697   -0.1541724 
   0.150687669     0.5851362   -0.7299042     0.0017137   -0.0006028     0.0017293   -0.0004956    -0.0171056   -0.1546187 
   0.150787694     0.5894095   -0.7347279     0.0020076   -0.0004152     0.0021356   -0.0001839    -0.0174161   -0.1542819 
   0.150887719     0.5897549   -0.7295037     0.0020311   -0.0005091     0.0021585   -0.0006188    -0.0174883   -0.1537093 
   0.150987744     0.5919466   -0.7298863     0.0016687    0.0001508     0.0018245   -0.0002914    -0.0173242   -0.1538756 
   0.151087769     0.5835385   -0.7317232     0.0021134   -0.0003747     0.0018289   -0.0006611    -0.0178343   -0.1541090 
   0.151187794     0.5833268   -0.7292122     0.0021476   -0.0003528     0.0022632   -0.0003657    -0.0179023   -0.1539850 
   0.151287819     0.5884437   -0.7354615     0.0019659   -0.0009362     0.0022099   -0.0007402    -0.0170872   -0.1541621 
   0.151387844     0.5888821   -0.7300153     0.0018882   -0.0002329     0.0021023   -0.0005512    -0.0175028   -0.1538942 
   0.151487869     0.5850837   -0.7323502     0.0015152   -0.0003059     0.0019362   -0.0002264    -0.0180646   -0.1540876 
   0.151587894     0.5841249   -0.7396989     0.0017961   -0.0009102     0.0020245   -0.0003304    -0.0179344   -0.1539658 
   0.151687919     0.5778655   -0.7350666     0.0020789   -0.0006562     0.0019168   -0.0005289    -0.0177657   -0.1536512 
   0.151787944     0.5831613   -0.7350399     0.0014774   -0.0007624     0.0016137   -0.0003066    -0.0183814   -0.1532426 
   0.151887969     0.5833912   -0.7370263     0.0016641   -0.0004999     0.0015444   -0.0001353    -0.0179597   -0.1538984 
   0.151987994     0.5786119   -0.7356561     0.0018076   -0.0007491     0.0016853   -0.0004714    -0.0183851   -0.1532155 
   0.152088019     0.5851166   -0.7320709     0.0022420   -0.0000930     0.0019150   -0.0004911    -0.0181442   -0.1536622 
   0.152188044     0.5842865   -0.7393094     0.0018469   -0.0009804     0.0017056   -0.0003990    -0.0182645   -0.1536257 
   0.152288069     0.5819787   -0.7342873     0.0019269   -0.0002382     0.0018548   -0.0006807    -0.0180375   -0.1532813 
   0.152388094     0.5801774   -0.7353187     0.0014341   -0.0010013     0.0016548   -0.0005867    -0.0184158   -0.1531537 
   0.152488119     0.5843405   -0.7384503     0.0013996   -0.0004463     0.0020068   -0.0007558    -0.0188711   -0.1536975 
   0.152588144     0.5783445   -0.7405031     0.0016590   -0.0007302     0.0018361   -0.0003842    -0.0184494   -0.1529114 
   0.152688169     0.5845544   -0.7321948     0.0020851   -0.0001497     0.0017039   -0.0003635    -0.0186576   -0.1537274 
   0.152788194     0.5851073   -0.7384525     0.0014438   -0.0005980     0.0021088   -0.0003178    -0.0185973   -0.1532353 
   0.152888219     0.5852967   -0.7417755     0.0017990   -0.0004246     0.0018078   -0.0004781    -0.0192243   -0.1527888 
   0.152988244     0.5780895   -0.7383314     0.0019053   -0.0001772     0.0016998   -0.0004511    -0.0189908   -0.1538114 
   0.153088269     0.5772549   -0.7396622     0.0019203   -0.0005230     0.0021369   -0.0005681    -0.0185425   -0.1532295 
   0.153188294     0.5757589   -0.7444029     0.0017129    0.0000677     0.0020043   -0.0005666    -0.0192910   -0.1531212 
   0.153288319     0.5792129   -0.7427952     0.0018576   -0.0012119     0.0020333   -0.0003500    -0.0190593   -0.1525403 
   0.153388344     0.5791367   -0.7399459     0.0025343   -0.0007424     0.0018340   -0.0006076    -0.0194058   -0.1525581 
   0.153488369     0.5796103   -0.7447122     0.0021607   -0.0005926     0.0017593   -0.0004854    -0.0186060   -0.1526396 
   0.153588394     0.5762888   -0.7431248     0.0016995   -0.0002497     0.0023593   -0.0004689    -0.0192897   -0.1525082 
   0.153688419     0.5749489   -0.7403482     0.0020852   -0.0007195     0.0018833   -0.0003755    -0.0201290   -0.1526816 
   0.153788444     0.5685545   -0.7425113     0.0016821   -0.0001923     0.0018234   -0.0003300    -0.0197556   -0.1529239 
   0.153888469     0.5762628   -0.7469096     0.0017213   -0.0004678     0.0020466   -0.0009292    -0.0197020   -0.1526373 
   0.153988494     0.5786114   -0.7444034     0.0015960   -0.0000866     0.0020897   -0.0005641    -0.0195398   -0.1526660 
   0.154088519     0.5767741   -0.7442718     0.0025644   -0.0007273     0.0022110   -0.0006873    -0.0201021   -0.1525820 
   0.154188544     0.5747558   -0.7409263     0.0014385   -0.0007873     0.0018838   -0.0004496    -0.0197073   -0.1527776 
   0.154288569     0.5710047   -0.7476397     0.0020440   -0.0003719     0.0018483   -0.0004220    -0.0202489   -0.1526514 
   0.154388594     0.5702306   -0.7433989     0.0019135   -0.0007016     0.0019499   -0.0003375    -0.0198135   -0.1521772 
   0.154488619     0.5687876   -0.7453268     0.0023068   -0.0005584     0.0015905   -0.0005259    -0.0201078   -0.1527097 
   0.154588644     0.5684003   -0.7404752     0.0016732   -0.0007254     0.0018835   -0.0003298    -0.0203324   -0.1519009 
   0.154688669     0.5689076   -0.7468392     0.0020687   -0.0002759     0.0017244   -0.0006003    -0.0202108   -0.1527165 
   0.154788694     0.5759128   -0.7471373     0.0023420   -0.0004462     0.0018130   -0.0005147    -0.0204887   -0.1526296 
   0.154888719     0.5638240   -0.7428063     0.0019199   -0.0005731     0.0018519   -0.0003929    -0.0201964   -0.1524695 
   0.154988744     0.5714450   -0.7436705     0.0021118   -0.0004655     0.0018202   -0.0006543    -0.0206120   -0.1520986 
   0.155088769     0.5682685   -0.7483150     0.0020103   -0.0007532     0.0015851   -0.0004161    -0.0207067   -0.1526343 
   0.155188794     0.5677283   -0.7463133     0.0020168   -0.0005542     0.0018350   -0.0007600    -0.0204844   -0.1522304 
   0.155288819     0.5712360   -0.7499778     0.0016551   -0.0005418     0.0021058   -0.0003447    -0.0210649   -0.1523345 
   0.155388844     0.5693957   -0.7426375     0.0019044   -0.0004932     0.0017044   -0.0006289    -0.0211300   -0.1523494 
   0.155488869     0.5693538   -0.7445962     0.0019639   -0.0011216     0.0018986   -0.0004598    -0.0208981   -0.1522468 
   0.155588894     0.5672978   -0.7511201     0.0021348   -0.0009443     0.0021268   -0.0004182    -0.0210514   -0.1521379 
   0.155688919     0.5663094   -0.7508920     0.0017121   -0.0008390     0.0021568   -0.0004533    -0.0207392   -0.1522164 
   0.155788944     0.5741138   -0.7517397     0.0017914   -0.0004503     0.0018079   -0.0008734    -0.0205116   -0.1520287 
   0.155888969     0.5683589   -0.7481023     0.0022916   -0.0012228     0.0017910   -0.0007668    -0.0210894   -0.1521855 
   0.155988994     0.5715384   -0.7560660     0.0016203   -0.0007451     0.0018844   -0.0005487    -0.0215126   -0.1516492 
   0.156089020     0.5626588   -0.7481043     0.0014951   -0.0007800     0.0018146   -0.0008701    -0.0215143   -0.1518129 
   0.156189045     0.5638152   -0.7511728     0.0016951   -0.0005484     0.0022382   -0.0006291    -0.0209558   -0.1520391 
   0.156289070     0.5628880   -0.7530172     0.0020861   -0.0002594     0.0017555   -0.0004932    -0.0211060   -0.1512851 
   0.156389095     0.5711622   -0.7519462     0.0020937   -0.0006663     0.0022640   -0.0005918    -0.0213731   -0.1519465 
   0.156489120     0.5660141   -0.7478520     0.0015277   -0.0003005     0.0018903   -0.0006631    -0.0214137   -0.1513843 
   0.156589145     0.5634733   -0.7501183     0.0019675   -0.0006179     0.0020872   -0.0007550    -0.0214403   -0.1520314 
   0.156689170     0.5553911   -0.7510908     0.0020236   -0.0007397     0.0015693   -0.0006775    -0.0221517   -0.1514087 
   0.156789195     0.5610386   -0.7548254     0.0019576   -0.0004541     0.0020433   -0.0007916    -0.0219009   -0.1520026 
   0.156889220     0.5667237   -0.7537209     0.0018500   -0.0003494     0.0022474   -0.0006838    -0.0212187   -0.1516372 
   0.156989245     0.5619715   -0.7503765     0.0014833   -0.0005416     0.0017538   -0.0005524    -0.0220785   -0.1515288 
   0.157089270     0.5538890   -0.7520290     0.0016920   -0.0009706     0.0020381   -0.0007827    -0.0223152   -0.1517989 
   0.157189295     0.5593998   -0.7538805     0.0016696   -0.0010042     0.0015934   -0.0006653    -0.0223512   -0.1515439 
   0.157289320     0.5579935   -0.7527389     0.0020325   -0.0003367     0.0018268   -0.0005887    -0.0224983   -0.1515412 
   0.157389345     0.5658704   -0.7498423     0.0020545   -0.0006667     0.0019465   -0.0006817    -0.0227857   -0.1511977 
   0.157489370     0.5547828   -0.7554836     0.0020541   -0.0011019     0.0020974   -0.0005179    -0.0222119   -0.1503383 
   0.157589395     0.5580779   -0.7564388     0.0021648   -0.0008548     0.0021042   -0.0005723    -0.0221801   -0.1511797 
   0.157689420     0.5634323   -0.7565132     0.0021791   -0.0007753     0.0019902   -0.0006295    -0.0220276   -0.1511549 
   0.157789445     0.5621110   -0.7542113     0.0022792   -0.0006430     0.0017586   -0.0009056    -0.0221808   -0.1511704 
   0.157889470     0.5576003   -0.7566350     0.0016557   -0.0014938     0.0015978   -0.0007191    -0.0226676   -0.1506490 
   0.157989495     0.5567269   -0.7539634     0.0021025   -0.0009840     0.0021519   -0.0003045    -0.0225852   -0.1507765 
   0.158089520     0.5601251   -0.7508650     0.0021134   -0.0008575     0.0020838   -0.0006568    -0.0227126   -0.1513025 
   0.158189545     0.5590956   -0.7559430     0.0015203   -0.0011874     0.0019453   -0.0006298    -0.0226483   -0.1510694 
   0.158289570     0.5598335   -0.7570011     0.0018534   -0.0005334     0.0019725   -0.0005543    -0.0227743   -0.1518172 
   0.158389595     0.5589172   -0.7554490     0.0022166   -0.0004645     0.0021311   -0.0006920    -0.0229279   -0.1507140 
   0.158489620     0.5516544   -0.7541197     0.0023537   -0.0009634     0.0020113   -0.0007069    -0.0231497   -0.1504186 
   0.158589645     0.5503434   -0.7614226     0.0018022   -0.0006465     0.0016977   -0.0005979    -0.0232881   -0.1506610 
   0.158689670     0.5529223   -0.7599422     0.0015247   -0.0007530     0.0015467   -0.0006788    -0.0231402   -0.1509248 
   0.158789695     0.5544004   -0.7554649     0.0017070   -0.0010870     0.0017598   -0.0005199    -0.0234396   -0.1509045 
   0.158889720     0.5549473   -0.7582766     0.0017107   -0.0001929     0.0016750   -0.0006620    -0.0229875   -0.1505836 
   0.158989745     0.5539330   -0.7608004     0.0022444   -0.0007597     0.0016181   -0.0006916    -0.0233160   -0.1510498 
   0.159089770     0.5522814   -0.7563119     0.0018569   -0.0002781     0.0019420   -0.0003999    -0.0232849   -0.1503303 
   0.159189795     0.5476042   -0.7587047     0.0019454   -0.0005072     0.0021347   -0.0007263    -0.0233518   -0.1506494 
   0.159289820     0.5503098   -0.7623635     0.0016524   -0.0009216     0.0018919   -0.0004001    -0.0235769   -0.1502658 
   0.159389845     0.5474254   -0.7645088     0.0020723   -0.0004618     0.0019241   -0.0007221    -0.0233943   -0.1510898 
   0.159489870     0.5485517   -0.7615490     0.0019472   -0.0005162     0.0020493   -0.0007594    -0.0238277   -0.1505466 
   0.159589895     0.5473125   -0.7530325     0.0015687   -0.0004926     0.0018267   -0.0007452    -0.0238467   -0.1504084 
   0.159689920     0.5502102   -0.7643237     0.0018709   -0.0010434     0.0018324   -0.0005768    -0.0236564   -0.1502306 
   0.159789945     0.5476684   -0.7604628     0.0021811   -0.0003010     0.0018331   -0.0007257    -0.0237842   -0.1503663 
   0.159889970     0.5476286   -0.7638265     0.0021847   -0.0007797     0.0021065   -0.0005527    -0.0239466   -0.1498543 
   0.159989995     0.5466051   -0.7617599     0.0023880   -0.0007072     0.0022679   -0.0004935    -0.0243761   -0.1502152 
   0.160090020     0.5485428   -0.7610640     0.0017450   -0.0003219     0.0019179   -0.0006909    -0.0249294   -0.1505046 
   0.160190045     0.5472583   -0.7552711     0.0020663   -0.0007054     0.0018581   -0.0008009    -0.0242539   -0.1502758 
   0.160290070     0.5439029   -0.7667178     0.0017258   -0.0010660     0.0019054   -0.0006266    -0.0247876   -0.1501413 
   0.160390095     0.5478302   -0.7609304     0.0010676   -0.0005033     0.0014461   -0.0007174    -0.0236173   -0.1496861 
   0.160490120     0.5412751   -0.7627350     0.0018999   -0.0008699     0.0017376   -0.0007401    -0.0248657   -0.1500688 
   0.160590145     0.5390919   -0.7604983     0.0025012   -0.0010630     0.0017819   -0.0006417    -0.0245109   -0.1503755 
   0.160690170     0.5468048   -0.7607856     0.0022595   -0.0005406     0.0019173   -0.0009704    -0.0249956   -0.1498978 
   0.160790195     0.5444990   -0.7675375     0.0022366   -0.0007569     0.0020341   -0.0004807    -0.0245693   -0.1492714 
   0.160890220     0.5451746   -0.7639803     0.0017069   -0.0005125     0.0020442   -0.0005697    -0.0245774   -0.1500885 
   0.160990245     0.5416564   -0.7714460     0.0022341   -0.0006429     0.0019056   -0.0008442    -0.0249166   -0.1495115 
   0.161090270     0.5434037   -0.7713614     0.0020084   -0.0005268     0.0021287   -0.0005753    -0.0249279   -0.1491775 
   0.161190295     0.5355312   -0.7668048     0.0018951   -0.0006312     0.0016001   -0.0008592    -0.0259914   -0.1492847 
   0.161290320     0.5414008   -0.7624269     0.0018150   -0.0008099     0.0019232   -0.0007328    -0.0253835   -0.1497067 
   0.161390345     0.5420758   -0.7684792     0.0022046   -0.0005608     0.0022451   -0.0005016    -0.0251854   -0.1498154 
   0.161490370     0.5430030   -0.7615600     0.0021098   -0.0009052     0.0017942   -0.0006402    -0.0256417   -0.1498391 
   0.161590395     0.5407822   -0.7660270     0.0020616   -0.0006236     0.0019345   -0.0007616    -0.0254199   -0.1500510 
   0.161690420     0.5388449   -0.7648781     0.0015055   -0.0007646     0.0019585   -0.0004222    -0.0254225   -0.1500260 
   0.161790445     0.5382057   -0.7650474     0.0022004   -0.0008058     0.0018419   -0.0009164    -0.0251454   -0.1494751 
   0.161890470     0.5349159   -0.7705852     0.0018663   -0.0009698     0.0017559   -0.0009790    -0.0253149   -0.1492265 
   0.161990495     0.5376931   -0.7666391     0.0024299   -0.0006287     0.0019154   -0.0008461    -0.0254008   -0.1497449 
   0.162090520     0.5360143   -0.7640824     0.0014665   -0.0008371     0.0019336   -0.0007392    -0.0258261   -0.1489668 
   0.162190545     0.5327642   -0.7696721     0.0018960   -0.0004877     0.0019949   -0.0008982    -0.0261940   -0.1491757 
   0.162290570     0.5364265   -0.7722307     0.0012966   -0.0008904     0.0017361   -0.0010599    -0.0257335   -0.1494883 
   0.162390595     0.5374123   -0.7714503     0.0018106   -0.0006939     0.0018450   -0.0006784    -0.0256284   -0.1488800 
   0.162490620     0.5286154   -0.7737523     0.0021103   -0.0008523     0.0018317   -0.0006687    -0.0259841   -0.1490594 
   0.162590645     0.5283577   -0.7653966     0.0019651   -0.0007232     0.0019907   -0.0005706    -0.0267613   -0.1491770 
   0.162690670     0.5364984   -0.7731366     0.0020445   -0.0010089     0.0016754   -0.0007456    -0.0259069   -0.1495603 
   0.162790695     0.5331227   -0.7681401     0.0019618   -0.0011033     0.0017791   -0.0006911    -0.0260412   -0.1494449 
   0.162890720     0.5373423   -0.7672980     0.0019118   -0.0005861     0.0019839   -0.0004808    -0.0268778   -0.1488541 
   0.162990745     0.5374846   -0.7697260     0.0017635   -0.0010026     0.0019864   -0.0007152    -0.0262869   -0.1487566 
   0.163090770     0.5339677   -0.7732388     0.0014942   -0.0005991     0.0016876   -0.0009096    -0.0266680   -0.1486464 
   0.163190795     0.5333352   -0.7755046     0.0015949   -0.0007581     0.0019692   -0.0006756    -0.0262963   -0.1494877 
   0.163290820     0.5284004   -0.7720338     0.0018642   -0.0005286     0.0020919   -0.0007236    -0.0266609   -0.1486652 
   0.163390845     0.5252882   -0.7738283     0.0019668   -0.0009687     0.0017225   -0.0008805    -0.0273158   -0.1488752 
   0.163490870     0.5299982   -0.7745770     0.0020813   -0.0012667     0.0020074   -0.0007716    -0.0262027   -0.1492992 
   0.163590895     0.5315800   -0.7682944     0.0018728   -0.0006632     0.0019490   -0.0006804    -0.0266851   -0.1488329 
   0.163690920     0.5309472   -0.7804232     0.0022189   -0.0007509     0.0017139   -0.0005962    -0.0270063   -0.1485097 
   0.163790945     0.5247265   -0.7722657     0.0018388   -0.0012843     0.0020060   -0.0007578    -0.0269540   -0.1478617 
   0.163890970     0.5280398   -0.7733445     0.0021602   -0.0011460     0.0020660   -0.0008116    -0.0266958   -0.1489017 
   0.163990995     0.5282278   -0.7759074     0.0019015   -0.0006548     0.0020519   -0.0007842    -0.0273647   -0.1483448 
   0.164091021     0.5279099   -0.7700500     0.0021118   -0.0008492     0.0020073   -0.0006585    -0.0270822   -0.1486762 
   0.164191046     0.5250196   -0.7763714     0.0018803   -0.0007169     0.0018667   -0.0009010    -0.0273722   -0.1484777 
   0.164291071     0.5314197   -0.7694967     0.0021351   -0.0003933     0.0019674   -0.0009419    -0.0272962   -0.1486865 
   0.164391096     0.5270173   -0.7765251     0.0017287   -0.0010827     0.0019607   -0.0009949    -0.0276244   -0.1482789 
   0.164491121     0.5219339   -0.7753356     0.0020407   -0.0004095     0.0020815   -0.0008769    -0.0276588   -0.1478875 
   0.164591146     0.5216479   -0.7734764     0.0019438   -0.0005687     0.0018846   -0.0009200    -0.0274043   -0.1482785 
   0.164691171     0.5258175   -0.7747111     0.0024544   -0.0006509     0.0019727   -0.0006318    -0.0277234   -0.1484409 
   0.164791196     0.5232466   -0.7702615     0.0018458   -0.0010459     0.0018722   -0.0005705    -0.0277202   -0.1481651 
   0.164891221     0.5285240   -0.7784860     0.0018712   -0.0011412     0.0020543   -0.0007722    -0.0280104   -0.1482179 
   0.164991246     0.5216614   -0.7730454     0.0024556   -0.0005969     0.0017905   -0.0007082    -0.0280954   -0.1476179 
   0.165091271     0.5223246   -0.7780125     0.0017273   -0.0013168     0.0020475   -0.0006982    -0.0274767   -0.1480287 
   0.165191296     0.5269900   -0.7763084     0.0016742   -0.0013248     0.0019536   -0.0006687    -0.0278233   -0.1482382 
   0.165291321     0.5218116   -0.7746602     0.0021444   -0.0004466     0.0019524   -0.0007010    -0.0282899   -0.1477323 
   0.165391346     0.5204747   -0.7749962     0.0022099   -0.0007000     0.0021656   -0.0006831    -0.0286892   -0.1479301 
   0.165491371     0.5216261   -0.7756381     0.0017521   -0.0010386     0.0018220   -0.0009475    -0.0284415   -0.1468913 
   0.165591396     0.5197685   -0.7762322     0.0016684   -0.0006471     0.0017902   -0.0007425    -0.0285504   -0.1473313 
   0.165691421     0.5181461   -0.7762234     0.0023173   -0.0005022     0.0016383   -0.0006819    -0.0294245   -0.1476412 
   0.165791446     0.5139626   -0.7800092     0.0016898   -0.0011395     0.0021414   -0.0009865    -0.0288371   -0.1482595 
   0.165891471     0.5209571   -0.7827834     0.0018174   -0.0006099     0.0022527   -0.0010058    -0.0282701   -0.1474364 
   0.165991496     0.5195781   -0.7775379     0.0020536   -0.0007070     0.0021387   -0.0007031    -0.0285106   -0.1477951 
   0.166091521     0.5163209   -0.7767237     0.0026019   -0.0008949     0.0019856   -0.0008332    -0.0285433   -0.1471635 
   0.166191546     0.5176087   -0.7814627     0.0019743   -0.0009505     0.0017104   -0.0007791    -0.0286159   -0.1477001 
   0.166291571     0.5140814   -0.7790527     0.0018267   -0.0006797     0.0021181   -0.0009707    -0.0285050   -0.1474323 
   0.166391596     0.5128041   -0.7850528     0.0018907   -0.0014585     0.0020585   -0.0008876    -0.0295967   -0.1472150 
   0.166491621     0.5155625   -0.7789187     0.0017992   -0.0011096     0.0019201   -0.0004808    -0.0285168   -0.1474827 
   0.166591646     0.5140650   -0.7807667     0.0020666   -0.0010409     0.0020220   -0.0008122    -0.0295838   -0.1469781 
   0.166691671     0.5189708   -0.7855090     0.0018749   -0.0007445     0.0019133   -0.0011148    -0.0298725   -0.1477044 
   0.166791696     0.5125638   -0.7840998     0.0025196   -0.0010903     0.0018829   -0.0009118    -0.0298703   -0.1467452 
   0.166891721     0.5103567   -0.7844124     0.0015909   -0.0009033     0.0018252   -0.0009597    -0.0295058   -0.1465888 
   0.166991746     0.5166614   -0.7803157     0.0025724   -0.0004681     0.0019779   -0.0008566    -0.0289324   -0.1470401 
   0.167091771     0.5170104   -0.7816873     0.0022497   -0.0006674     0.0020482   -0.0009424    -0.0293602   -0.1470094 
   0.167191796     0.5152464   -0.7834581     0.0014429   -0.0005547     0.0019572   -0.0008107    -0.0294942   -0.1465006 
   0.167291821     0.5152291   -0.7803488     0.0018138   -0.0014481     0.0019482   -0.0008731    -0.0293573   -0.1473417 
   0.167391846     0.5143400   -0.7814534     0.0020939   -0.0008514     0.0020478   -0.0011496    -0.0298785   -0.1472327 
   0.167491871     0.5091961   -0.7801350     0.0017178   -0.0010763     0.0020134   -0.0008764    -0.0299518   -0.1474775 
   0.167591896     0.5112841   -0.7880307     0.0019803   -0.0008859     0.0019109   -0.0006910    -0.0306054   -0.1461921 
   0.167691921     0.5054583   -0.7824952     0.0020039   -0.0007781     0.0018861   -0.0008520    -0.0302473   -0.1469264 
   0.167791946     0.5171623   -0.7854940     0.0021168   -0.0007041     0.0018433   -0.0009435    -0.0304226   -0.1465701 
   0.167891971     0.5084057   -0.7861097     0.0017405   -0.0009708     0.0021104   -0.0007575    -0.0296444   -0.1466557 
   0.167991996     0.5095820   -0.7874544     0.0015044   -0.0006884     0.0020722   -0.0011217    -0.0296769   -0.1465636 
   0.168092021     0.5127391   -0.7861138     0.0021762   -0.0009769     0.0018700   -0.0008139    -0.0304194   -0.1463874 
   0.168192046     0.5042675   -0.7896104     0.0021200   -0.0012008     0.0019295   -0.0010543    -0.0301634   -0.1462586 
   0.168292071     0.5085007   -0.7855135     0.0019402   -0.0009255     0.0016733   -0.0009928    -0.0301051   -0.1467504 
   0.168392096     0.5089368   -0.7911701     0.0018109   -0.0011398     0.0021522   -0.0010896    -0.0302718   -0.1472326 
   0.168492121     0.5088176   -0.7861709     0.0018243   -0.0009944     0.0019190   -0.0008122    -0.0297754   -0.1470396 
   0.168592146     0.5041392   -0.7906748     0.0014949   -0.0007312     0.0016564   -0.0007573    -0.0303499   -0.1466588 
   0.168692171     0.5048348   -0.7860412     0.0015939   -0.0007954     0.0021358   -0.0012498    -0.0310858   -0.1462355 
   0.168792196     0.5069525   -0.7858790     0.0015563   -0.0007377     0.0021270   -0.0009377    -0.0310725   -0.1462018 
   0.168892221     0.5033881   -0.7809073     0.0019243   -0.0008282     0.0020511   -0.0008766    -0.0305095   -0.1459560 
   0.168992246     0.5025503   -0.7887015     0.0017489   -0.0004074     0.0019635   -0.0007030    -0.0310990   -0.1461587 
   0.169092271     0.5021603   -0.7896219     0.0022797   -0.0003861     0.0017198   -0.0009216    -0.0307728   -0.1461560 
   0.169192296     0.5044296   -0.7911807     0.0017140   -0.0012838     0.0021506   -0.0010158    -0.0314785   -0.1464424 
   0.169292321     0.4978178   -0.7838415     0.0020490   -0.0006974     0.0020148   -0.0009526    -0.0303337   -0.1457595 
   0.169392346     0.4953184   -0.7914187     0.0019986   -0.0011183     0.0019800   -0.0009685    -0.0308573   -0.1462859 
   0.169492371     0.5018424   -0.7908831     0.0024479   -0.0011780     0.0020608   -0.0010534    -0.0312213   -0.1459038 
   0.169592396     0.4991433   -0.7893112     0.0021425   -0.0009852     0.0020813   -0.0007324    -0.0309738   -0.1455069 
   0.169692421     0.4988900   -0.7869384     0.0022578   -0.0008371     0.0018945   -0.0008217    -0.0319899   -0.1455118 
   0.169792446     0.4993627   -0.7943836     0.0018526   -0.0010930     0.0021463   -0.0009142    -0.0309857   -0.1458940 
   0.169892471     0.4982978   -0.7871739     0.0021817   -0.0008448     0.0020663   -0.0012265    -0.0321763   -0.1452275 
   0.169992496     0.4939013   -0.7922875     0.0021624   -0.0009942     0.0017008   -0.0010574    -0.0315012   -0.1452091 
   0.170092521     0.5042915   -0.7903475     0.0020628   -0.0003664     0.0020609   -0.0003569    -0.0321749   -0.1460180 
   0.170192546     0.4975848   -0.7868888     0.0017906   -0.0013071     0.0017451   -0.0010110    -0.0319317   -0.1455143 
   0.170292571     0.4954681   -0.7937137     0.0019632   -0.0004286     0.0018521   -0.0007488    -0.0319414   -0.1457250 
   0.170392596     0.4963355   -0.7921509     0.0020967   -0.0012314     0.0023510   -0.0008482    -0.0315682   -0.1456105 
   0.170492621     0.4996972   -0.7911147     0.0021673   -0.0009477     0.0018136   -0.0010459    -0.0323933   -0.1453830 
   0.170592646     0.4933811   -0.7952532     0.0018494   -0.0005959     0.0019731   -0.0010611    -0.0329785   -0.1459496 
   0.170692671     0.4941863   -0.7928739     0.0021875   -0.0011279     0.0020994   -0.0009088    -0.0320740   -0.1453679 
   0.170792696     0.4935676   -0.7912075     0.0022873   -0.0012789     0.0018777   -0.0006842    -0.0317464   -0.1454535 
   0.170892721     0.4930261   -0.7985342     0.0021193   -0.0012634     0.0019546   -0.0007284    -0.0321982   -0.1452452 
   0.170992746     0.4938226   -0.7917172     0.0020815   -0.0010854     0.0020427   -0.0010088    -0.0325700   -0.1450809 
   0.171092771     0.5013949   -0.7889221     0.0021762   -0.0008572     0.0022375   -0.0010214    -0.0323671   -0.1449821 
   0.171192796     0.4897186   -0.7958109     0.0017749   -0.0005345     0.0020212   -0.0004893    -0.0323708   -0.1456380 
   0.171292821     0.4924144   -0.7916155     0.0018053   -0.0007981     0.0017341   -0.0010364    -0.0329781   -0.1450755 
   0.171392846     0.4898552   -0.7985848     0.0019408   -0.0010168     0.0021161   -0.0011457    -0.0327341   -0.1446554 
   0.171492871     0.4917759   -0.7943881     0.0018356   -0.0010081     0.0017909   -0.0011157    -0.0325476   -0.1445415 
   0.171592896     0.4942058   -0.7916958     0.0018382   -0.0005192     0.0019343   -0.0010292    -0.0330861   -0.1447408 
   0.171692921     0.4932511   -0.7943737     0.0022014   -0.0006737     0.0021139   -0.0010041    -0.0328910   -0.1450070 
   0.171792946     0.4915340   -0.7977428     0.0019640   -0.0008058     0.0018574   -0.0010220    -0.0335476   -0.1450247 
   0.171892971     0.4898714   -0.7990330     0.0017508   -0.0005900     0.0018482   -0.0010239    -0.0333531   -0.1452563 
   0.171992996     0.4872091   -0.7926661     0.0019826   -0.0010493     0.0019629   -0.0012444    -0.0330471   -0.1451803 
   0.172093022     0.4828975   -0.7976885     0.0018912   -0.0010791     0.0017504   -0.0010358    -0.0333527   -0.1451134 
   0.172193047     0.4921269   -0.8027599     0.0022843   -0.0013618     0.0021087   -0.0010270    -0.0334259   -0.1452814 
   0.172293072     0.4872928   -0.7985415     0.0020687   -0.0007356     0.0021237   -0.0010958    -0.0341013   -0.1450046 
   0.172393097     0.4921216   -0.7971823     0.0021895   -0.0010385     0.0019596   -0.0009938    -0.0333849   -0.1446362 
   0.172493122     0.4906060   -0.7994996     0.0024107   -0.0012406     0.0018924   -0.0010058    -0.0341200   -0.1447589 
   0.172593147     0.4905769   -0.8004749     0.0018342   -0.0007111     0.0018506   -0.0011149    -0.0333485   -0.1448052 
   0.172693172     0.4868295   -0.7967965     0.0021744   -0.0011755     0.0022150   -0.0010205    -0.0335877   -0.1445581 
   0.172793197     0.4901749   -0.8016616     0.0016841   -0.0008460     0.0019859   -0.0009987    -0.0343331   -0.1443039 
   0.172893222     0.4800848   -0.8027540     0.0017986   -0.0010126     0.0018441   -0.0008346    -0.0339381   -0.1442496 
   0.172993247     0.4834242   -0.8002592     0.0014785   -0.0011527     0.0021508   -0.0009132    -0.0340777   -0.1448827 
   0.173093272     0.4832006   -0.8009316     0.0018468   -0.0011375     0.0018985   -0.0010543    -0.0339803   -0.1438070 
   0.173193297     0.4800068   -0.7980281     0.0017846   -0.0009814     0.0019280   -0.0012904    -0.0337118   -0.1439214 
   0.173293322     0.4864109   -0.8001006     0.0017704   -0.0011457     0.0019411   -0.0010478    -0.0340283   -0.1442448 
   0.173393347     0.4817943   -0.8009145     0.0018678   -0.0010796     0.0022737   -0.0010927    -0.0342267   -0.1438317 
   0.173493372     0.4820762   -0.8011005     0.0019067   -0.0013333     0.0021539   -0.0010479    -0.0342263   -0.1445636 
   0.173593397     0.4880327   -0.8011752     0.0016472   -0.0006612     0.0018794   -0.0011473    -0.0346942   -0.1440418 
   0.173693422     0.4843563   -0.8018419     0.0019276   -0.0010576     0.0020546   -0.0010350    -0.0353224   -0.1441587 
   0.173793447     0.4892268   -0.7985410     0.0020384   -0.0011240     0.0020918   -0.0009849    -0.0344781   -0.1437674 
   0.173893472     0.4809461   -0.8030120     0.0021282   -0.0009630     0.0020195   -0.0012387    -0.0347999   -0.1445644 
   0.173993497     0.4824280   -0.8030114     0.0020160   -0.0012973     0.0019391   -0.0012974    -0.0349653   -0.1439616 
   0.174093522     0.4809758   -0.8018696     0.0015056   -0.0011350     0.0019136   -0.0011539    -0.0342538   -0.1439262 
   0.174193547     0.4775656   -0.8031992     0.0019875   -0.0012569     0.0017229   -0.0009972    -0.0349309   -0.1437335 
   0.174293572     0.4790371   -0.8027899     0.0019504   -0.0014059     0.0022500   -0.0008929    -0.0345888   -0.1435355 
   0.174393597     0.4808302   -0.7984461     0.0015436   -0.0007616     0.0020526   -0.0010373    -0.0350747   -0.1436885 
   0.174493622     0.4798056   -0.8056015     0.0020100   -0.0010441     0.0021434   -0.0007453    -0.0345135   -0.1437016 
   0.174593647     0.4774641   -0.8044695     0.0019348   -0.0010112     0.0021715   -0.0012523    -0.0354562   -0.1442317 
   0.174693672     0.4779101   -0.8061229     0.0022161   -0.0012026     0.0020599   -0.0010302    -0.0358561   -0.1438078 
   0.174793697     0.4736534   -0.8068830     0.0022587   -0.0012391     0.0019415   -0.0012056    -0.0353116   -0.1431237 
   0.174893722     0.4808406   -0.7955953     0.0022326   -0.0004958     0.0017531   -0.0010591    -0.0357105   -0.1438337 
   0.174993747     0.4704349   -0.8031784     0.0022681   -0.0007454     0.0017183   -0.0013496    -0.0355291   -0.1434754 
   0.175093772     0.4785302   -0.8063804     0.0022004   -0.0013231     0.0018387   -0.0011698    -0.0357401   -0.1437387 
   0.175193797     0.4748992   -0.8063028     0.0016507   -0.0011956     0.0015710   -0.0012116    -0.0360155   -0.1426340 
   0.175293822     0.4742554   -0.8061157     0.0023176   -0.0008988     0.0021232   -0.0010602    -0.0358974   -0.1433624 
   0.175393847     0.4742157   -0.8027138     0.0020853   -0.0011209     0.0018499   -0.0012346    -0.0354009   -0.1436614 
   0.175493872     0.4737020   -0.8019691     0.0016620   -0.0005792     0.0019519   -0.0009360    -0.0361707   -0.1431095 
   0.175593897     0.4734707   -0.8005477     0.0019543   -0.0011310     0.0020321   -0.0009891    -0.0361814   -0.1429904 
   0.175693922     0.4767810   -0.8088822     0.0018039   -0.0008247     0.0022079   -0.0012009    -0.0352542   -0.1435135 
   0.175793947     0.4742286   -0.8055919     0.0020889   -0.0008223     0.0019704   -0.0008601    -0.0359973   -0.1432145 
   0.175893972     0.4722133   -0.8096651     0.0017323   -0.0009284     0.0020657   -0.0010018    -0.0362025   -0.1436902 
   0.175993997     0.4713561   -0.8062835     0.0016876   -0.0008677     0.0019081   -0.0007932    -0.0363849   -0.1431599 
   0.176094022     0.4729143   -0.8104441     0.0020981   -0.0012814     0.0020480   -0.0008072    -0.0359982   -0.1431028 
   0.176194047     0.4717264   -0.8080994     0.0018625   -0.0010299     0.0023303   -0.0009230    -0.0365524   -0.1427465 
   0.176294072     0.4718722   -0.8083233     0.0020067   -0.0011098     0.0019252   -0.0011627    -0.0369279   -0.1426978 
   0.176394097     0.4672576   -0.8066472     0.0020398   -0.0011193     0.0021261   -0.0010510    -0.0373300   -0.1421999 
   0.176494122     0.4708929   -0.8030167     0.0021338   -0.0008018     0.0017959   -0.0013031    -0.0362073   -0.1424732 
   0.176594147     0.4705969   -0.8107055     0.0017156   -0.0008401     0.0020789   -0.0011328    -0.0365324   -0.1427390 
   0.176694172     0.4707563   -0.8103669     0.0023499   -0.0009594     0.0020182   -0.0012394    -0.0367048   -0.1420629 
   0.176794197     0.4661313   -0.8078144     0.0017458   -0.0010461     0.0020846   -0.0009181    -0.0365320   -0.1423754 
   0.176894222     0.4678270   -0.8144743     0.0021113   -0.0012675     0.0021456   -0.0009876    -0.0368366   -0.1430285 
   0.176994247     0.4707217   -0.8108510     0.0021996   -0.0011213     0.0020197   -0.0009300    -0.0367689   -0.1427977 
   0.177094272     0.4686478   -0.8108953     0.0021634   -0.0007294     0.0020388   -0.0010116    -0.0374349   -0.1425826 
   0.177194297     0.4700617   -0.8140737     0.0017407   -0.0007110     0.0021929   -0.0012570    -0.0373840   -0.1430687 
   0.177294322     0.4647120   -0.8149369     0.0017880   -0.0010382     0.0021154   -0.0010374    -0.0372761   -0.1425460 
   0.177394347     0.4650811   -0.8103498     0.0017437   -0.0008321     0.0020695   -0.0012673    -0.0376983   -0.1414070 
   0.177494372     0.4653036   -0.8129452     0.0017479   -0.0014955     0.0019148   -0.0011018    -0.0375870   -0.1424885 
   0.177594397     0.4628460   -0.8126312     0.0020471   -0.0011413     0.0020932   -0.0011294    -0.0370145   -0.1421923 
   0.177694422     0.4644351   -0.8174205     0.0021179   -0.0008069     0.0019599   -0.0011165    -0.0378717   -0.1419865 
   0.177794447     0.4626563   -0.8089466     0.0019198   -0.0011621     0.0020003   -0.0011941    -0.0378006   -0.1419236 
   0.177894472     0.4626197   -0.8145933     0.0020644   -0.0010052     0.0016316   -0.0010242    -0.0378662   -0.1417182 
   0.177994497     0.4627855   -0.8138190     0.0020457   -0.0010764     0.0018458   -0.0010663    -0.0382214   -0.1411860 
   0.178094522     0.4635252   -0.8122669     0.0016967   -0.0012102     0.0016892   -0.0011549    -0.0373353   -0.1415411 
   0.178194547     0.4609184   -0.8131067     0.0019652   -0.0010766     0.0020473   -0.0009605    -0.0375822   -0.1418891 
   0.178294572     0.4623451   -0.8124569     0.0020710   -0.0012996     0.0019569   -0.0012428    -0.0376006   -0.1423365 
   0.178394597     0.4630343   -0.8157534     0.0021238   -0.0012848     0.0021588   -0.0010029    -0.0380795   -0.1421577 
   0.178494622     0.4556964   -0.8138270     0.0017468   -0.0010987     0.0018408   -0.0011263    -0.0379355   -0.1423311 
   0.178594647     0.4581026   -0.8189094     0.0019402   -0.0010667     0.0018924   -0.0012053    -0.0381272   -0.1413067 
   0.178694672     0.4606979   -0.8196746     0.0020578   -0.0011979     0.0020919   -0.0012167    -0.0387387   -0.1416106 
   0.178794697     0.4609496   -0.8174566     0.0020301   -0.0011833     0.0019163   -0.0010619    -0.0381892   -0.1417228 
   0.178894722     0.4589722   -0.8165207     0.0021929   -0.0011428     0.0021823   -0.0011562    -0.0382908   -0.1413416 
   0.178994747     0.4578096   -0.8149237     0.0017328   -0.0009146     0.0019561   -0.0011238    -0.0384875   -0.1415805 
   0.179094772     0.4606203   -0.8160535     0.0020031   -0.0011275     0.0019737   -0.0010313    -0.0381836   -0.1410034 
   0.179194797     0.4553883   -0.8158777     0.0018626   -0.0008826     0.0020576   -0.0011651    -0.0392527   -0.1415572 
   0.179294822     0.4586976   -0.8168209     0.0023608   -0.0012705     0.0020958   -0.0011165    -0.0385752   -0.1413531 
   0.179394847     0.4518169   -0.8155289     0.0020197   -0.0011475     0.0020676   -0.0009559    -0.0388001   -0.1411646 
   0.179494872     0.4556485   -0.8193690     0.0020420   -0.0013733     0.0021221   -0.0010947    -0.0393211   -0.1417181 
   0.179594897     0.4569849   -0.8172429     0.0022416   -0.0010878     0.0017529   -0.0011619    -0.0388232   -0.1409292 
   0.179694922     0.4557832   -0.8168487     0.0019927   -0.0010372     0.0021596   -0.0013128    -0.0395009   -0.1410275 
   0.179794947     0.4520378   -0.8157831     0.0019782   -0.0008982     0.0019362   -0.0012224    -0.0390084   -0.1419137 
   0.179894972     0.4541874   -0.8177524     0.0018352   -0.0009920     0.0018756   -0.0011762    -0.0389994   -0.1405367 
   0.179994997     0.4513541   -0.8182971     0.0019126   -0.0010641     0.0019068   -0.0010577    -0.0384236   -0.1416796 
   0.180095023     0.4522313   -0.8229383     0.0019416   -0.0008369     0.0018373   -0.0013029    -0.0396181   -0.1408101 
   0.180195048     0.4553809   -0.8211199     0.0021945   -0.0008095     0.0019249   -0.0012110    -0.0396672   -0.1414010 
   0.180295073     0.4490593   -0.8218204     0.0020401   -0.0009211     0.0019223   -0.0012966    -0.0390980   -0.1403496 
   0.180395098     0.4580150   -0.8223398     0.0019398   -0.0011525     0.0019761   -0.0012235    -0.0394526   -0.1410555 
   0.180495123     0.4495289   -0.8158410     0.0019136   -0.0009944     0.0021812   -0.0013035    -0.0396624   -0.1401714 
   0.180595148     0.4487919   -0.8193490     0.0019886   -0.0012525     0.0019611   -0.0011429    -0.0401779   -0.1409580 
   0.180695173     0.4499086   -0.8194656     0.0020518   -0.0008201     0.0019589   -0.0013506    -0.0402301   -0.1408318 
   0.180795198     0.4529576   -0.8220034     0.0020277   -0.0009772     0.0021548   -0.0011072    -0.0404995   -0.1403539 
   0.180895223     0.4499184   -0.8188568     0.0021645   -0.0015761     0.0021336   -0.0012381    -0.0401650   -0.1407056 
   0.180995248     0.4481171   -0.8223990     0.0023010   -0.0011960     0.0019655   -0.0012655    -0.0403026   -0.1402777 
   0.181095273     0.4491050   -0.8230013     0.0017315   -0.0012315     0.0019177   -0.0012068    -0.0393617   -0.1406829 
   0.181195298     0.4449098   -0.8226285     0.0018802   -0.0012116     0.0019273   -0.0013403    -0.0398253   -0.1397372 
   0.181295323     0.4459182   -0.8258850     0.0018930   -0.0012573     0.0019264   -0.0012969    -0.0397087   -0.1403508 
   0.181395348     0.4445499   -0.8234843     0.0020374   -0.0012489     0.0020404   -0.0012306    -0.0405329   -0.1405103 
   0.181495373     0.4454568   -0.8229296     0.0017933   -0.0013500     0.0018801   -0.0011606    -0.0401099   -0.1406007 
   0.181595398     0.4441191   -0.8237882     0.0017481   -0.0010643     0.0021529   -0.0010994    -0.0406178   -0.1401558 
   0.181695423     0.4451488   -0.8247199     0.0020529   -0.0013324     0.0019370   -0.0011363    -0.0403402   -0.1405190 
   0.181795448     0.4433901   -0.8241007     0.0018519   -0.0010787     0.0018077   -0.0013895    -0.0404562   -0.1402773 
   0.181895473     0.4463790   -0.8233422     0.0020463   -0.0011359     0.0019751   -0.0010934    -0.0410431   -0.1401699 
   0.181995498     0.4417566   -0.8272263     0.0019394   -0.0010507     0.0019673   -0.0012232    -0.0409117   -0.1395820 
   0.182095523     0.4423061   -0.8278167     0.0019515   -0.0012004     0.0020932   -0.0012010    -0.0399225   -0.1405268 
   0.182195548     0.4398319   -0.8240546     0.0018888   -0.0010808     0.0020316   -0.0012241    -0.0411807   -0.1396707 
   0.182295573     0.4390358   -0.8268644     0.0018511   -0.0014124     0.0018911   -0.0011219    -0.0412104   -0.1399540 
   0.182395598     0.4447350   -0.8227546     0.0019406   -0.0012622     0.0020021   -0.0012646    -0.0408045   -0.1397789 
   0.182495623     0.4421095   -0.8275092     0.0021547   -0.0013298     0.0021251   -0.0013085    -0.0418576   -0.1401281 
   0.182595648     0.4390053   -0.8201599     0.0019354   -0.0013395     0.0020041   -0.0012640    -0.0409901   -0.1401769 
   0.182695673     0.4386252   -0.8283733     0.0018816   -0.0011381     0.0019001   -0.0012506    -0.0420291   -0.1396135 
   0.182795698     0.4403479   -0.8277436     0.0017928   -0.0010886     0.0019467   -0.0012974    -0.0416651   -0.1397922 
   0.182895723     0.4388480   -0.8246837     0.0018004   -0.0011894     0.0019920   -0.0012867    -0.0418142   -0.1395419 
   0.182995748     0.4391113   -0.8259895     0.0019431   -0.0013578     0.0020887   -0.0011928    -0.0418588   -0.1395928 
   0.183095773     0.4388541   -0.8266962     0.0017628   -0.0012168     0.0020411   -0.0011518    -0.0418476   -0.1398453 
   0.183195798     0.4373252   -0.8226102     0.0023471   -0.0010076     0.0020831   -0.0013050    -0.0410341   -0.1395933 
   0.183295823     0.4360274   -0.8260423     0.0018636   -0.0014429     0.0021284   -0.0013431    -0.0417121   -0.1396125 
   0.183395848     0.4399801   -0.8245513     0.0019397   -0.0011902     0.0019416   -0.0011959    -0.0421844   -0.1393187 
   0.183495873     0.4378519   -0.8289489     0.0023242   -0.0012371     0.0020224   -0.0012544    -0.0420488   -0.1398467 
   0.183595898     0.4345746   -0.8301779     0.0017110   -0.0012491     0.0021109   -0.0012030    -0.0420099   -0.1394539 
   0.183695923     0.4341179   -0.8303481     0.0019882   -0.0011802     0.0018246   -0.0012265    -0.0418454   -0.1390047 
   0.183795948     0.4359317   -0.8296167     0.0019778   -0.0012417     0.0019783   -0.0014131    -0.0429225   -0.1397978 
   0.183895973     0.4343775   -0.8263495     0.0019734   -0.0011620     0.0018005   -0.0012737    -0.0429000   -0.1395306 
   0.183995998     0.4312136   -0.8304676     0.0017988   -0.0012255     0.0018836   -0.0010671    -0.0428188   -0.1389130 
   0.184096023     0.4346588   -0.8302462     0.0018241   -0.0013746     0.0020904   -0.0014169    -0.0429637   -0.1387751 
   0.184196048     0.4341215   -0.8308302     0.0019540   -0.0013446     0.0020843   -0.0012435    -0.0427414   -0.1387596 
   0.184296073     0.4340009   -0.8284034     0.0020227   -0.0013035     0.0018439   -0.0012969    -0.0434719   -0.1390923 
   0.184396098     0.4295623   -0.8317125     0.0019421   -0.0011916     0.0020868   -0.0013241    -0.0430112   -0.1387549 
   0.184496123     0.4309177   -0.8317277     0.0020520   -0.0012659     0.0019142   -0.0013103    -0.0428885   -0.1383041 
   0.184596148     0.4294232   -0.8326129     0.0016534   -0.0013548     0.0019550   -0.0012127    -0.0429142   -0.1389277 
   0.184696173     0.4282183   -0.8310070     0.0019382   -0.0009671     0.0017726   -0.0013605    -0.0426039   -0.1383701 
   0.184796198     0.4285967   -0.8294567     0.0019034   -0.0014011     0.0018524   -0.0012615    -0.0434298   -0.1383371 
   0.184896223     0.4278867   -0.8343709     0.0016761   -0.0013035     0.0020603   -0.0013318    -0.0434147   -0.1388530 
   0.184996248     0.4284594   -0.8367517     0.0019489   -0.0013465     0.0020768   -0.0013549    -0.0435383   -0.1383961 
   0.185096273     0.4265678   -0.8311556     0.0019718   -0.0015053     0.0021272   -0.0013866    -0.0437449   -0.1382276 
   0.185196298     0.4272814   -0.8356682     0.0019304   -0.0012813     0.0020245   -0.0013029    -0.0430733   -0.1392237 
   0.185296323     0.4254584   -0.8364793     0.0019067   -0.0011437     0.0018233   -0.0012722    -0.0430536   -0.1382880 
   0.185396348     0.4254995   -0.8317008     0.0020862   -0.0009466     0.0017859   -0.0013529    -0.0438075   -0.1383657 
   0.185496373     0.4283120   -0.8331118     0.0020780   -0.0012100     0.0019752   -0.0013369    -0.0432972   -0.1377862 
   0.185596398     0.4258171   -0.8333933     0.0018825   -0.0012122     0.0019651   -0.0013096    -0.0440607   -0.1381856 
   0.185696423     0.4244391   -0.8342610     0.0020109   -0.0012585     0.0020340   -0.0015450    -0.0436839   -0.1378156 
   0.185796448     0.4236933   -0.8326262     0.0021476   -0.0012363     0.0020073   -0.0015161    -0.0438262   -0.1381340 
   0.185896473     0.4248902   -0.8322785     0.0019462   -0.0012718     0.0020892   -0.0015443    -0.0442759   -0.1375796 
   0.185996498     0.4237841   -0.8361102     0.0018855   -0.0010046     0.0019228   -0.0012733    -0.0438445   -0.1376898 
   0.186096523     0.4250396   -0.8352630     0.0019961   -0.0013706     0.0019846   -0.0013145    -0.0437993   -0.1374222 
   0.186196548     0.4185450   -0.8330388     0.0019891   -0.0011859     0.0019457   -0.0013001    -0.0441254   -0.1375586 
   0.186296573     0.4257675   -0.8377131     0.0019325   -0.0012060     0.0019591   -0.0012710    -0.0434307   -0.1379384 
   0.186396598     0.4213821   -0.8383862     0.0017116   -0.0013321     0.0020430   -0.0013358    -0.0440720   -0.1377799 
   0.186496623     0.4206211   -0.8345473     0.0021035   -0.0011407     0.0020530   -0.0013356    -0.0441456   -0.1376930 
   0.186596648     0.4183188   -0.8384461     0.0018998   -0.0012785     0.0018876   -0.0013397    -0.0446900   -0.1377426 
   0.186696673     0.4226881   -0.8376690     0.0018796   -0.0012713     0.0019430   -0.0012669    -0.0447694   -0.1372916 
   0.186796698     0.4175607   -0.8383758     0.0017780   -0.0012046     0.0019949   -0.0014191    -0.0445055   -0.1376995 
   0.186896723     0.4217030   -0.8383197     0.0018987   -0.0012199     0.0019809   -0.0012293    -0.0447653   -0.1374353 
   0.186996748     0.4192479   -0.8372113     0.0019014   -0.0014882     0.0019623   -0.0014425    -0.0447676   -0.1372545 
   0.187096773     0.4145706   -0.8390222     0.0019696   -0.0013014     0.0020278   -0.0013720    -0.0457858   -0.1376452 
   0.187196798     0.4154375   -0.8378696     0.0019442   -0.0014233     0.0019284   -0.0013053    -0.0453290   -0.1375843 
   0.187296823     0.4187597   -0.8371626     0.0019408   -0.0014202     0.0019455   -0.0013701    -0.0450383   -0.1374870 
   0.187396848     0.4167519   -0.8381015     0.0019426   -0.0011820     0.0018556   -0.0014176    -0.0449381   -0.1371958 
   0.187496873     0.4163892   -0.8423920     0.0018279   -0.0010682     0.0020149   -0.0013633    -0.0447920   -0.1370692 
   0.187596898     0.4183691   -0.8429653     0.0018724   -0.0012624     0.0020162   -0.0013923    -0.0448657   -0.1374393 
   0.187696923     0.4158543   -0.8416886     0.0018785   -0.0014878     0.0020222   -0.0014939    -0.0454780   -0.1373632 
   0.187796948     0.4163351   -0.8386154     0.0020364   -0.0013865     0.0019364   -0.0013742    -0.0453001   -0.1372167 
   0.187896973     0.4174368   -0.8392811     0.0019166   -0.0013972     0.0020437   -0.0014419    -0.0463459   -0.1372172 
   0.187996998     0.4121954   -0.8378240     0.0019538   -0.0013030     0.0019795   -0.0013696    -0.0445962   -0.1366202 
   0.188097024     0.4100000   -0.8410355     0.0019252   -0.0015423     0.0019689   -0.0012425    -0.0452569   -0.1371032 
   0.188197049     0.4166274   -0.8408935     0.0018474   -0.0014422     0.0018729   -0.0013987    -0.0459715   -0.1365684 
   0.188297074     0.4122120   -0.8397342     0.0019764   -0.0014298     0.0020710   -0.0014323    -0.0463962   -0.1368227 
   0.188397099     0.4097197   -0.8435736     0.0019228   -0.0014258     0.0018987   -0.0014638    -0.0461525   -0.1363007 
   0.188497124     0.4134201   -0.8418893     0.0018409   -0.0013349     0.0017651   -0.0014798    -0.0458685   -0.1377101 
   0.188597149     0.4124123   -0.8420716     0.0018618   -0.0011475     0.0020159   -0.0013832    -0.0461442   -0.1370358 
   0.188697174     0.4109828   -0.8447402     0.0020245   -0.0014614     0.0019857   -0.0015178    -0.0466388   -0.1360713 
   0.188797199     0.4107473   -0.8444600     0.0017869   -0.0014061     0.0019283   -0.0013904    -0.0467529   -0.1366196 
   0.188897224     0.4081961   -0.8445489     0.0018939   -0.0013740     0.0019422   -0.0014285    -0.0467351   -0.1361330 
   0.188997249     0.4125953   -0.8481514     0.0019599   -0.0014842     0.0019975   -0.0014232    -0.0470127   -0.1365333 
   0.189097274     0.4106058   -0.8439180     0.0018889   -0.0012446     0.0019599   -0.0015503    -0.0469078   -0.1359583 
   0.189197299     0.4109127   -0.8458687     0.0020281   -0.0013523     0.0019624   -0.0013471    -0.0469997   -0.1359010 
   0.189297324     0.4091948   -0.8418807     0.0019537   -0.0012994     0.0019842   -0.0014321    -0.0466798   -0.1358884 
   0.189397349     0.4074644   -0.8437232     0.0018964   -0.0013479     0.0019416   -0.0013955    -0.0475002   -0.1357598 
   0.189497374     0.4077882   -0.8429523     0.0019864   -0.0012886     0.0018163   -0.0014879    -0.0466444   -0.1364088 
   0.189597399     0.4063150   -0.8475885     0.0019871   -0.0013490     0.0018932   -0.0015373    -0.0469703   -0.1362468 
   0.189697424     0.4064588   -0.8461804     0.0019301   -0.0012840     0.0018146   -0.0014506    -0.0467890   -0.1352796 
   0.189797449     0.4073340   -0.8426443     0.0020693   -0.0013183     0.0020390   -0.0015380    -0.0469377   -0.1367355 
   0.189897474     0.4035479   -0.8481866     0.0020780   -0.0013719     0.0019627   -0.0014450    -0.0478073   -0.1362434 
   0.189997499     0.4049825   -0.8458551     0.0018274   -0.0014057     0.0018655   -0.0013123    -0.0472508   -0.1356355 
   0.190097524     0.4024845   -0.8483779     0.0018078   -0.0012326     0.0019879   -0.0014423    -0.0472500   -0.1361963 
   0.190197549     0.4019485   -0.8447191     0.0019486   -0.0012696     0.0019165   -0.0014289    -0.0467603   -0.1354050 
   0.190297574     0.4042650   -0.8465148     0.0018206   -0.0014378     0.0019556   -0.0014445    -0.0473774   -0.1358076 
   0.190397599     0.4050598   -0.8461363     0.0020676   -0.0014717     0.0019149   -0.0014224    -0.0479030   -0.1354345 
   0.190497624     0.3987173   -0.8491672     0.0018272   -0.0013196     0.0017851   -0.0014459    -0.0482382   -0.1348855 
   0.190597649     0.4066195   -0.8479571     0.0020575   -0.0012756     0.0019368   -0.0015302    -0.0477901   -0.1356562 
   0.190697674     0.4046520   -0.8494330     0.0019144   -0.0014540     0.0019100   -0.0014489    -0.0484892   -0.1357927 
   0.190797699     0.4024712   -0.8467194     0.0019976   -0.0014784     0.0018765   -0.0014449    -0.0479497   -0.1358103 
   0.190897724     0.3972906   -0.8457521     0.0021534   -0.0015056     0.0019631   -0.0015112    -0.0481881   -0.1347758 
   0.190997749     0.4022511   -0.8475201     0.0019907   -0.0013470     0.0018841   -0.0015251    -0.0476197   -0.1354847 
   0.191097774     0.4012627   -0.8540336     0.0018838   -0.0015301     0.0018693   -0.0016320    -0.0479461   -0.1352958 
   0.191197799     0.4014142   -0.8491448     0.0018707   -0.0015940     0.0019802   -0.0016287    -0.0477679   -0.1347423 
   0.191297824     0.3990541   -0.8473470     0.0017218   -0.0013441     0.0020139   -0.0015623    -0.0482755   -0.1349799 
   0.191397849     0.3979712   -0.8515331     0.0018590   -0.0016078     0.0019289   -0.0014809    -0.0484239   -0.1346941 
   0.191497874     0.3960109   -0.8516572     0.0018799   -0.0014590     0.0018864   -0.0015944    -0.0484838   -0.1351656 
   0.191597899     0.3957012   -0.8521032     0.0019523   -0.0014583     0.0018885   -0.0015173    -0.0487290   -0.1350554 
   0.191697924     0.3995558   -0.8520126     0.0019670   -0.0014474     0.0019908   -0.0015518    -0.0490073   -0.1353218 
   0.191797949     0.3965085   -0.8503544     0.0019854   -0.0013631     0.0019214   -0.0015518    -0.0489234   -0.1352463 
   0.191897974     0.3978489   -0.8548293     0.0019245   -0.0013833     0.0017454   -0.0015008    -0.0486640   -0.1352557 
   0.191997999     0.3933415   -0.8503131     0.0018792   -0.0012806     0.0019239   -0.0016979    -0.0495409   -0.1343593 
   0.192098024     0.3958932   -0.8530602     0.0020143   -0.0013849     0.0018729   -0.0015817    -0.0488325   -0.1341403 
   0.192198049     0.3949844   -0.8486765     0.0018475   -0.0014779     0.0019816   -0.0015614    -0.0490548   -0.1348165 
   0.192298074     0.3922123   -0.8475180     0.0020216   -0.0013771     0.0018021   -0.0016336    -0.0496970   -0.1350569 
   0.192398099     0.3939670   -0.8512647     0.0019984   -0.0014144     0.0018798   -0.0015494    -0.0495477   -0.1351434 
   0.192498124     0.3931887   -0.8488349     0.0020705   -0.0015169     0.0019243   -0.0015355    -0.0493194   -0.1343252 
   0.192598149     0.3888788   -0.8498604     0.0020590   -0.0014615     0.0018827   -0.0014823    -0.0493960   -0.1348776 
   0.192698174     0.3905476   -0.8474985     0.0019407   -0.0015835     0.0019299   -0.0015200    -0.0491146   -0.1340940 
   0.192798199     0.3881207   -0.8470784     0.0018711   -0.0014655     0.0018966   -0.0015521    -0.0495471   -0.1351667 
   0.192898224     0.3878940   -0.8521104     0.0021041   -0.0013647     0.0017916   -0.0014750    -0.0496434   -0.1340122 
   0.192998249     0.3889866   -0.8536471     0.0020059   -0.0015043     0.0019047   -0.0014264    -0.0499362   -0.1343136 
   0.193098274     0.3885499   -0.8540177     0.0018311   -0.0013942     0.0019414   -0.0016170    -0.0500826   -0.1341480 
   0.193198299     0.3862816   -0.8548202     0.0019896   -0.0014412     0.0019811   -0.0015407    -0.0498907   -0.1346147 
   0.193298324     0.3882473   -0.8507164     0.0018637   -0.0015793     0.0019346   -0.0016311    -0.0494998   -0.1341967 
   0.193398349     0.3860016   -0.8544561     0.0019872   -0.0014998     0.0018001   -0.0016293    -0.0505245   -0.1344581 
   0.193498374     0.3926904   -0.8529358     0.0018629   -0.0014421     0.0019217   -0.0015844    -0.0505823   -0.1342034 
   0.193598399     0.3867852   -0.8545908     0.0017615   -0.0013762     0.0018840   -0.0017181    -0.0505457   -0.1342559 
   0.193698424     0.3912936   -0.8535967     0.0019549   -0.0016205     0.0018325   -0.0014800    -0.0505181   -0.1342038 
   0.193798449     0.3854650   -0.8569350     0.0020590   -0.0013477     0.0018050   -0.0015286    -0.0507629   -0.1344573 
   0.193898474     0.3854870   -0.8545291     0.0018078   -0.0014914     0.0018177   -0.0016442    -0.0494548   -0.1340060 
   0.193998499     0.3825246   -0.8557537     0.0018968   -0.0014128     0.0018454   -0.0015724    -0.0508526   -0.1342346 
   0.194098524     0.3853908   -0.8557405     0.0019485   -0.0015807     0.0017829   -0.0016198    -0.0504550   -0.1340214 
   0.194198549     0.3851089   -0.8580496     0.0018705   -0.0013636     0.0018773   -0.0015534    -0.0501502   -0.1335707 
   0.194298574     0.3845338   -0.8533585     0.0019726   -0.0015189     0.0017968   -0.0015594    -0.0507005   -0.1328790 
   0.194398599     0.3804508   -0.8561128     0.0020001   -0.0016155     0.0018437   -0.0014968    -0.0505052   -0.1340809 
   0.194498624     0.3806213   -0.8532836     0.0017838   -0.0014486     0.0018384   -0.0015654    -0.0505063   -0.1329625 
   0.194598649     0.3797081   -0.8555824     0.0018967   -0.0015465     0.0018197   -0.0015431    -0.0514928   -0.1334688 
   0.194698674     0.3838383   -0.8561343     0.0018126   -0.0016721     0.0017790   -0.0015511    -0.0514916   -0.1330748 
   0.194798699     0.3816823   -0.8549628     0.0019175   -0.0014321     0.0018504   -0.0016308    -0.0509807   -0.1330651 
   0.194898724     0.3796944   -0.8573074     0.0020737   -0.0014420     0.0017899   -0.0015635    -0.0512772   -0.1336343 
   0.194998749     0.3806880   -0.8595441     0.0017892   -0.0015028     0.0018320   -0.0017298    -0.0507050   -0.1327933 
   0.195098774     0.3777694   -0.8559731     0.0021039   -0.0014896     0.0018376   -0.0015816    -0.0512334   -0.1329820 
   0.195198799     0.3803415   -0.8578971     0.0018663   -0.0016321     0.0017327   -0.0016253    -0.0511665   -0.1330082 
   0.195298824     0.3740801   -0.8601874     0.0018341   -0.0015777     0.0019095   -0.0015480    -0.0518314   -0.1322786 
   0.195398849     0.3787709   -0.8591161     0.0019269   -0.0013733     0.0018550   -0.0016000    -0.0518541   -0.1328776 
   0.195498874     0.3772241   -0.8592895     0.0019729   -0.0014600     0.0018013   -0.0015930    -0.0523781   -0.1332329 
   0.195598899     0.3792958   -0.8572978     0.0018113   -0.0015729     0.0017979   -0.0015414    -0.0517090   -0.1326077 
   0.195698924     0.3746267   -0.8608720     0.0019475   -0.0015270     0.0018488   -0.0016358    -0.0521256   -0.1327338 
   0.195798949     0.3779788   -0.8586223     0.0019729   -0.0015057     0.0018756   -0.0015315    -0.0518267   -0.1328792 
   0.195898974     0.3744412   -0.8574139     0.0018839   -0.0014880     0.0018211   -0.0016692    -0.0521915   -0.1320106 
   0.195998999     0.3739682   -0.8579755     0.0019012   -0.0015947     0.0018672   -0.0015641    -0.0521485   -0.1328384 
   0.196099025     0.3737614   -0.8593227     0.0018587   -0.0013899     0.0018105   -0.0015160    -0.0523620   -0.1328949 
   0.196199050     0.3728493   -0.8583904     0.0020049   -0.0014978     0.0018602   -0.0016296    -0.0525773   -0.1326819 
   0.196299075     0.3752948   -0.8568463     0.0020220   -0.0015520     0.0017702   -0.0016155    -0.0525086   -0.1327598 
   0.196399100     0.3726732   -0.8609180     0.0018987   -0.0015997     0.0018223   -0.0016655    -0.0516194   -0.1325222 
   0.196499125     0.3753036   -0.8603273     0.0018904   -0.0015965     0.0017143   -0.0016296    -0.0521356   -0.1328120 
   0.196599150     0.3713711   -0.8587331     0.0019551   -0.0014146     0.0018168   -0.0015747    -0.0532461   -0.1332138 
   0.196699175     0.3728688   -0.8609406     0.0019070   -0.0014826     0.0017206   -0.0015871    -0.0527066   -0.1326223 
   0.196799200     0.3718714   -0.8579224     0.0019758   -0.0017006     0.0018000   -0.0015690    -0.0529794   -0.1324493 
   0.196899225     0.3707643   -0.8593405     0.0019053   -0.0016272     0.0017414   -0.0016804    -0.0525020   -0.1319832 
   0.196999250     0.3696848   -0.8619189     0.0019363   -0.0014322     0.0018154   -0.0016399    -0.0530256   -0.1325217 
   0.197099275     0.3700027   -0.8587394     0.0017747   -0.0016320     0.0018341   -0.0015901    -0.0530975   -0.1330778 
   0.197199300     0.3700210   -0.8608367     0.0018655   -0.0013851     0.0017907   -0.0015900    -0.0533670   -0.1321286 
   0.197299325     0.3694834   -0.8611789     0.0019293   -0.0015230     0.0018292   -0.0016259    -0.0528887   -0.1324213 
   0.197399350     0.3682996   -0.8638587     0.0019952   -0.0016371     0.0018010   -0.0016278    -0.0534164   -0.1320466 
   0.197499375     0.3709236   -0.8635050     0.0018976   -0.0015172     0.0017649   -0.0015567    -0.0533670   -0.1316228 
   0.197599400     0.3678757   -0.8637520     0.0019689   -0.0015671     0.0017684   -0.0016724    -0.0533493   -0.1323574 
   0.197699425     0.3657700   -0.8591185     0.0019335   -0.0015204     0.0018112   -0.0016422    -0.0531930   -0.1313725 
   0.197799450     0.3656510   -0.8608840     0.0019504   -0.0016890     0.0017778   -0.0015940    -0.0539735   -0.1318003 
   0.197899475     0.3647876   -0.8634844     0.0017612   -0.0016050     0.0017554   -0.0015001    -0.0535657   -0.1311829 
   0.197999500     0.3673574   -0.8614980     0.0018465   -0.0016479     0.0017646   -0.0016929    -0.0539325   -0.1318135 
   0.198099525     0.3635156   -0.8642716     0.0018712   -0.0015761     0.0017914   -0.0016728    -0.0535747   -0.1315929 
   0.198199550     0.3642209   -0.8625078     0.0019975   -0.0015970     0.0017534   -0.0016077    -0.0536942   -0.1320213 
   0.198299575     0.3648546   -0.8647155     0.0018425   -0.0014609     0.0017981   -0.0015784    -0.0537088   -0.1311904 
   0.198399600     0.3635077   -0.8619252     0.0018063   -0.0016035     0.0017158   -0.0016747    -0.0537692   -0.1314300 
   0.198499625     0.3615931   -0.8646783     0.0017742   -0.0014103     0.0018755   -0.0016148    -0.0544148   -0.1313278 
   0.198599650     0.3620841   -0.8625801     0.0018745   -0.0015667     0.0017894   -0.0016396    -0.0539195   -0.1311660 
   0.198699675     0.3625486   -0.8624399     0.0019755   -0.0015391     0.0017231   -0.0015811    -0.0544241   -0.1314905 
   0.198799700     0.3609633   -0.8637652     0.0021252   -0.0015662     0.0017320   -0.0017512    -0.0544704   -0.1312364 
   0.198899725     0.3579088   -0.8640600     0.0019335   -0.0016250     0.0016899   -0.0016012    -0.0548438   -0.1317020 
   0.198999750     0.3583040   -0.8660050     0.0018238   -0.0016737     0.0018205   -0.0016664    -0.0545282   -0.1307434 
   0.199099775     0.3602861   -0.8654386     0.0019374   -0.0014791     0.0016985   -0.0015790    -0.0547284   -0.1306930 
   0.199199800     0.3588606   -0.8666042     0.0019552   -0.0017850     0.0017248   -0.0016235    -0.0547305   -0.1311191 
   0.199299825     0.3612364   -0.8651886     0.0019850   -0.0017592     0.0017107   -0.0016091    -0.0561861   -0.1305013 
   0.199399850     0.3566362   -0.8644267     0.0019441   -0.0016614     0.0017335   -0.0016854    -0.0546369   -0.1312520 
   0.199499875     0.3578056   -0.8653689     0.0020144   -0.0015906     0.0017432   -0.0015965    -0.0549678   -0.1315745 
   0.199599900     0.3583145   -0.8641383     0.0018949   -0.0017232     0.0018351   -0.0016112    -0.0550193   -0.1317106 
   0.199699925     0.3619257   -0.8639845     0.0018246   -0.0017226     0.0017453   -0.0015636    -0.0553063   -0.1302475 
   0.199799950     0.3571616   -0.8664865     0.0018483   -0.0015952     0.0017613   -0.0016997    -0.0552837   -0.1306124 
   0.199899975     0.3574384   -0.8663322     0.0019312   -0.0017364     0.0017227   -0.0015704    -0.0553628   -0.1302230 
   0.200000000     0.3561611   -0.8674818     0.0018991   -0.0016807     0.0017894   -0.0016062    -0.0555359   -0.1304081 
