! 27-Aug-26 2:15:52 PM
! E:\20260827_VNA\T1T1E4_NOISEDIODE_0.S2P
! CHANNEL.1
! TR.MEASUREMENT
! CORRECTED.DATA
# GHZ S RI R 50.0
! FREQ.GHZ         S11RE         S11IM         S21RE         S21IM         S12RE         S12IM         S22RE         S22IM         
!; PortSelection: Port_12
   0.000050000     0.9566866    0.1721788    -0.4353635    0.0864625     0.0027111    0.0021887     0.9509299   -0.0185998 
   0.000150025     0.0806647   -0.2178381    -0.2834538    1.4290890    -0.0001717   -0.0028540     1.0132100   -0.0274874 
   0.000250050    -0.4671247   -0.3230935     0.0078526    0.0003736     0.0001432    0.0002038     1.0088570   -0.0171211 
   0.000350075     0.9873977   -0.0520173     0.0033370   -0.0066875    -0.0006867   -0.0001833     0.9998146   -0.0391688 
   0.000450100     0.9411818   -0.0607962    -0.0037540   -0.0108557    -0.0012929    0.0012447     0.9911109   -0.0215476 
   0.000550125     0.9848241    0.0116203     0.0002840   -0.0138548    -0.0001682   -0.0004096     0.9912129   -0.0314087 
   0.000650150     0.9874446    0.0090804    -0.0058003   -0.0101815     0.0009185   -0.0011628     1.0106070   -0.0546771 
   0.000750175     0.9750258   -0.0784447    -0.0061999   -0.0060799    -0.0008375    0.0003039     1.0018580   -0.0575865 
   0.000850200     0.9716229   -0.0836867    -0.0061132   -0.0102998     0.0002941   -0.0012448     0.9960945   -0.0620360 
   0.000950225     1.0003600   -0.0427382    -0.0088105   -0.0024764    -0.0011875    0.0007316     0.9879174   -0.0758788 
   0.001050250     0.9832616   -0.0649205    -0.0100354   -0.0061030    -0.0014136    0.0002369     0.9972472   -0.0715735 
   0.001150275     0.9986427   -0.1083551    -0.0086113   -0.0044102     0.0004314   -0.0007367     0.9905739   -0.0733681 
   0.001250300     0.9626646   -0.0466752    -0.0046637   -0.0041928    -0.0010028    0.0006005     0.9874688   -0.0897138 
   0.001350325     0.9887478   -0.1104081    -0.0143916   -0.0024153    -0.0004787    0.0002070     0.9830793   -0.0949420 
   0.001450350     0.9881212   -0.0890100    -0.0105778   -0.0012758     0.0006879   -0.0004098     0.9917912   -0.1108649 
   0.001550375     0.9752101   -0.0790856    -0.0109572   -0.0047927     0.0001251   -0.0005264     0.9878454   -0.1060198 
   0.001650400     1.0307390   -0.0445499    -0.0123669    0.0025424     0.0006221   -0.0003890     0.9836722   -0.1132823 
   0.001750425     1.0007840   -0.0951852    -0.0090435   -0.0023734     0.0005087    0.0004199     0.9885440   -0.1292465 
   0.001850450     1.0126470   -0.0539321    -0.0109684    0.0019316    -0.0003782   -0.0002678     0.9885970   -0.1328222 
   0.001950475     1.0423700   -0.0020381    -0.0059775   -0.0004058     0.0000782    0.0005899     0.9867995   -0.1392184 
   0.002050500     0.9973236   -0.0379256    -0.0067532    0.0042448     0.0000938    0.0004801     0.9738410   -0.1518600 
   0.002150525     1.0211360   -0.0925201    -0.0057381    0.0020635     0.0006321    0.0010833     0.9728531   -0.1484599 
   0.002250550     0.9527017   -0.1096426    -0.0052800    0.0016426     0.0001348    0.0001037     0.9770084   -0.1678504 
   0.002350575     0.9825398   -0.1217757    -0.0058495    0.0013094     0.0000132    0.0003401     0.9739156   -0.1605469 
   0.002450600     0.9844030   -0.0845151    -0.0069297    0.0024915     0.0004153    0.0000041     0.9717351   -0.1745847 
   0.002550625     0.9962292   -0.0857482    -0.0010900    0.0051568     0.0001501    0.0003756     0.9758898   -0.1816754 
   0.002650650     0.9703600   -0.0753956    -0.0067673    0.0028501     0.0002591   -0.0003589     0.9688438   -0.1902976 
   0.002750675     0.9852006   -0.0817168    -0.0061317    0.0076605    -0.0005558    0.0004273     0.9654382   -0.1982400 
   0.002850700     0.9584226   -0.1239805    -0.0031988    0.0035982    -0.0000626   -0.0006734     0.9580567   -0.2054225 
   0.002950725     0.9736171   -0.1055377    -0.0051719    0.0046185    -0.0001575    0.0006661     0.9600305   -0.2051944 
   0.003050750     0.9928688   -0.1021899    -0.0041138    0.0036853    -0.0001401    0.0006209     0.9497086   -0.2164133 
   0.003150775     0.9666256   -0.1659176    -0.0028024    0.0012246    -0.0005131    0.0004772     0.9387662   -0.2164965 
   0.003250800     0.9740577   -0.1168674    -0.0036549   -0.0010482    -0.0000591   -0.0002570     0.9499399   -0.2213810 
   0.003350825     1.0155690   -0.0974761    -0.0035202    0.0053793     0.0007574    0.0002330     0.9437181   -0.2366292 
   0.003450850     0.9393101   -0.1727820    -0.0014728    0.0017070     0.0000839   -0.0001361     0.9430891   -0.2393079 
   0.003550875     0.9595274   -0.1287894    -0.0040506    0.0016927    -0.0002991    0.0005172     0.9380774   -0.2471878 
   0.003650900     0.9617140   -0.1345610    -0.0003234    0.0027544     0.0001220    0.0006871     0.9311144   -0.2492719 
   0.003750925     0.9528019   -0.1459285     0.0000390    0.0008925    -0.0001002    0.0003170     0.9220183   -0.2619479 
   0.003850950     0.9937667   -0.1385569     0.0008433    0.0026645    -0.0006585   -0.0005377     0.9256250   -0.2697133 
   0.003950975     0.9930549   -0.1323649    -0.0014963    0.0038574     0.0002867    0.0003430     0.9231237   -0.2633111 
   0.004051001     0.9679741   -0.1940300    -0.0023606    0.0024287     0.0006574   -0.0002597     0.9135426   -0.2720895 
   0.004151026     1.0140920   -0.1518985     0.0010265    0.0035692    -0.0000894   -0.0002283     0.9098057   -0.2812474 
   0.004251051     0.9522269   -0.1482938    -0.0010656    0.0028668     0.0002110    0.0011405     0.9106208   -0.2880595 
   0.004351076     0.9717889   -0.1260084    -0.0020870    0.0008545    -0.0000849   -0.0002737     0.9036807   -0.2899244 
   0.004451101     1.0133790   -0.2011015     0.0014712   -0.0007975     0.0009284   -0.0001588     0.9014029   -0.2905974 
   0.004551126     0.9694437   -0.1838333    -0.0009032    0.0024843     0.0009846    0.0005208     0.9001872   -0.2994140 
   0.004651151     0.9814767   -0.1663196    -0.0016234    0.0016438     0.0004320    0.0000211     0.8987847   -0.3069867 
   0.004751176     0.9663811   -0.2011577     0.0011504    0.0018186     0.0005190    0.0002003     0.8944426   -0.3108185 
   0.004851201     0.9281848   -0.1649277    -0.0005516   -0.0009349     0.0000715    0.0001325     0.8813838   -0.3105280 
   0.004951226     0.9567471   -0.1492602    -0.0004430    0.0018472     0.0001254    0.0006098     0.8873013   -0.3180100 
   0.005051251     0.9899097   -0.1986426    -0.0020459    0.0021639    -0.0003033    0.0006056     0.8828353   -0.3204783 
   0.005151276     0.9503978   -0.1663357    -0.0007906    0.0001659    -0.0005053    0.0003852     0.8750886   -0.3306611 
   0.005251301     0.9122376   -0.1892034    -0.0005470    0.0009721     0.0006773   -0.0001485     0.8723479   -0.3314923 
   0.005351326     0.9365751   -0.1917706    -0.0004443    0.0038544    -0.0001458    0.0002563     0.8703022   -0.3427717 
   0.005451351     0.9374824   -0.1874425    -0.0008672   -0.0006479     0.0003478   -0.0000220     0.8624305   -0.3456397 
   0.005551376     0.9709157   -0.1986421    -0.0011268    0.0009343    -0.0000144   -0.0008093     0.8551024   -0.3455287 
   0.005651401     0.9591728   -0.2010300     0.0018665   -0.0001989    -0.0005374    0.0006125     0.8530476   -0.3594979 
   0.005751426     0.9246136   -0.2074307     0.0005103    0.0011388    -0.0000105   -0.0003123     0.8455947   -0.3556735 
   0.005851451     0.9557382   -0.2153614     0.0006505    0.0004075    -0.0004733    0.0000435     0.8468211   -0.3597243 
   0.005951476     0.9258050   -0.2008665     0.0005659    0.0003108     0.0000668   -0.0001022     0.8416998   -0.3653384 
   0.006051501     0.9398604   -0.2281517     0.0015911    0.0009120     0.0001212   -0.0004877     0.8364379   -0.3691075 
   0.006151526     0.9596063   -0.2285600     0.0030088   -0.0009714    -0.0006217   -0.0000749     0.8307742   -0.3748705 
   0.006251551     0.9273029   -0.2007394    -0.0022299   -0.0005953    -0.0006035    0.0002061     0.8287271   -0.3767578 
   0.006351576     0.9413427   -0.2170656     0.0006743    0.0017086    -0.0002274    0.0000766     0.8211126   -0.3811385 
   0.006451601     0.9209599   -0.2370658    -0.0003583   -0.0013772     0.0000866    0.0001015     0.8141399   -0.3892179 
   0.006551626     0.9115466   -0.2279666    -0.0010459    0.0017884    -0.0005612    0.0002301     0.8106194   -0.3900638 
   0.006651651     0.9451723   -0.2427133     0.0014521   -0.0011041    -0.0003135    0.0004054     0.8013886   -0.3936340 
   0.006751676     0.9069928   -0.2424063    -0.0015869   -0.0000334     0.0004125   -0.0003083     0.8068490   -0.3944544 
   0.006851701     0.9525549   -0.2477248     0.0003614    0.0018764     0.0006726    0.0001177     0.8000441   -0.3999181 
   0.006951726     0.8977792   -0.2405932     0.0002497    0.0002538    -0.0001842   -0.0001920     0.7910780   -0.4021591 
   0.007051751     0.9223951   -0.2343205     0.0012084   -0.0000455     0.0004596   -0.0005059     0.7852625   -0.4024887 
   0.007151776     0.9103930   -0.2297364     0.0002309    0.0011242    -0.0000480    0.0000276     0.7760273   -0.4123080 
   0.007251801     0.9345816   -0.2575454    -0.0013169   -0.0005511     0.0000252    0.0001202     0.7778547   -0.4132955 
   0.007351826     0.9196090   -0.2643241     0.0012109    0.0003027    -0.0003040   -0.0004960     0.7724594   -0.4161581 
   0.007451851     0.9145325   -0.2428389    -0.0015740    0.0022776    -0.0001120    0.0002991     0.7645975   -0.4171163 
   0.007551876     0.9289922   -0.2609511     0.0008615    0.0001727     0.0004030   -0.0002630     0.7638508   -0.4241495 
   0.007651901     0.9223534   -0.2770653    -0.0004656    0.0000676    -0.0002160    0.0000029     0.7618405   -0.4240952 
   0.007751926     0.9149946   -0.2559138     0.0004199   -0.0004669    -0.0001474    0.0001163     0.7567318   -0.4294401 
   0.007851951     0.9109218   -0.2562073     0.0006408    0.0010837     0.0001032   -0.0002406     0.7492394   -0.4265979 
   0.007951976     0.9258612   -0.2938581     0.0002263    0.0011921    -0.0001485    0.0000940     0.7436444   -0.4318168 
   0.008052001     0.9134176   -0.2709392    -0.0009675   -0.0000977     0.0003892    0.0001840     0.7419900   -0.4364867 
   0.008152026     0.9035565   -0.2931903    -0.0006656   -0.0016326    -0.0004089    0.0005161     0.7339520   -0.4414217 
   0.008252051     0.8997601   -0.2788092     0.0016462    0.0004588     0.0001007   -0.0003818     0.7301773   -0.4421719 
   0.008352076     0.9135303   -0.2799317    -0.0017110   -0.0006836     0.0002565   -0.0003527     0.7276039   -0.4468201 
   0.008452101     0.9280047   -0.2808661     0.0008463    0.0009656     0.0001812   -0.0000890     0.7220189   -0.4442016 
   0.008552126     0.9000730   -0.2929876    -0.0000631   -0.0002245    -0.0002489    0.0003714     0.7136406   -0.4485327 
   0.008652151     0.9069163   -0.2779732    -0.0013092    0.0002034    -0.0001152    0.0000159     0.7095291   -0.4501830 
   0.008752176     0.8885573   -0.2775123     0.0010081   -0.0001727    -0.0003680   -0.0000786     0.7078165   -0.4554110 
   0.008852201     0.8931146   -0.2752927     0.0005643    0.0005620    -0.0001593   -0.0001647     0.7022957   -0.4517563 
   0.008952226     0.8958546   -0.3060730    -0.0003334   -0.0003064     0.0000245    0.0004986     0.6992062   -0.4562729 
   0.009052251     0.8920407   -0.2858086    -0.0002597   -0.0001296     0.0000170    0.0000751     0.6943262   -0.4606995 
   0.009152276     0.8908924   -0.2922956    -0.0000689    0.0005199    -0.0003519    0.0002440     0.6867356   -0.4608738 
   0.009252301     0.9047363   -0.2827516    -0.0014026   -0.0004538     0.0003761   -0.0003738     0.6845000   -0.4620123 
   0.009352326     0.9142556   -0.3126287    -0.0015303    0.0002115     0.0001069   -0.0000404     0.6808007   -0.4603400 
   0.009452351     0.8997206   -0.3046125    -0.0002116   -0.0006945     0.0001184   -0.0001150     0.6735375   -0.4648830 
   0.009552376     0.8905019   -0.3296867    -0.0002179    0.0003427    -0.0000430   -0.0001506     0.6679550   -0.4645139 
   0.009652401     0.8765720   -0.2981078    -0.0001723   -0.0002432    -0.0000107    0.0000650     0.6632992   -0.4673633 
   0.009752426     0.8834770   -0.3142635    -0.0001277   -0.0003343     0.0002905   -0.0001708     0.6599913   -0.4683171 
   0.009852451     0.8891372   -0.3218073    -0.0001275    0.0004942    -0.0001838    0.0000371     0.6531078   -0.4707590 
   0.009952476     0.8815247   -0.3387314    -0.0001672   -0.0002584     0.0002788    0.0000347     0.6478708   -0.4702858 
   0.010052501     0.8760102   -0.3218731     0.0004348   -0.0008746     0.0003189    0.0000110     0.6471924   -0.4695148 
   0.010152526     0.8699513   -0.3220423    -0.0006981   -0.0006022    -0.0000273   -0.0003452     0.6415835   -0.4739603 
   0.010252551     0.8583707   -0.3190933     0.0000961   -0.0009132    -0.0000073   -0.0000931     0.6389207   -0.4786654 
   0.010352576     0.8791331   -0.3333180    -0.0002776    0.0000305     0.0000986    0.0001343     0.6328689   -0.4753681 
   0.010452601     0.8694862   -0.3025617     0.0005824    0.0002196    -0.0000626    0.0000170     0.6274801   -0.4794952 
   0.010552626     0.8419721   -0.3353974    -0.0006335    0.0006949    -0.0004018   -0.0000614     0.6243610   -0.4812765 
   0.010652651     0.8549553   -0.3321688    -0.0000872   -0.0003600    -0.0000628   -0.0002806     0.6174784   -0.4780499 
   0.010752676     0.8649915   -0.3488641    -0.0005965    0.0007957     0.0000074   -0.0000571     0.6160333   -0.4798434 
   0.010852701     0.8677412   -0.3225549     0.0006243   -0.0004653    -0.0001831    0.0001076     0.6185194   -0.4804362 
   0.010952726     0.8596869   -0.3521027     0.0012505    0.0004480     0.0001582   -0.0002080     0.6051244   -0.4820571 
   0.011052751     0.8631483   -0.3534011     0.0002798    0.0006445    -0.0000389   -0.0001016     0.6018977   -0.4848032 
   0.011152776     0.8631771   -0.3445616     0.0005441    0.0001172     0.0001619   -0.0000505     0.5964324   -0.4846347 
   0.011252801     0.8505300   -0.3605771    -0.0005420    0.0013203     0.0002708    0.0000377     0.5932830   -0.4853123 
   0.011352826     0.8490056   -0.3702699    -0.0002023   -0.0005382     0.0000754    0.0001245     0.5926109   -0.4838174 
   0.011452851     0.8451419   -0.3609481    -0.0006792   -0.0003260     0.0001272   -0.0000120     0.5863512   -0.4875439 
   0.011552876     0.8342865   -0.3741604     0.0000842   -0.0000529    -0.0001821    0.0000427     0.5824339   -0.4895441 
   0.011652901     0.8282377   -0.3713499     0.0000303   -0.0001979     0.0001194    0.0000657     0.5770654   -0.4873045 
   0.011752926     0.8335056   -0.3549138    -0.0006378   -0.0002308    -0.0000505   -0.0001169     0.5732502   -0.4876826 
   0.011852951     0.8351733   -0.3733942     0.0002854    0.0000616     0.0000970    0.0002374     0.5715582   -0.4882581 
   0.011952976     0.8314145   -0.3713610    -0.0007052   -0.0001189    -0.0000588   -0.0002389     0.5650508   -0.4890024 
   0.012053002     0.8199375   -0.3822915     0.0000566    0.0001103    -0.0003048    0.0000836     0.5624984   -0.4906033 
   0.012153027     0.8291659   -0.3812924    -0.0008532    0.0002497    -0.0002055    0.0001610     0.5585376   -0.4927033 
   0.012253052     0.8000726   -0.3775665     0.0004086   -0.0000547    -0.0001798   -0.0000842     0.5556301   -0.4916098 
   0.012353077     0.8292522   -0.3718366    -0.0007018    0.0009989    -0.0000980   -0.0000286     0.5522556   -0.4908493 
   0.012453102     0.8229868   -0.3811348     0.0005209   -0.0000336     0.0000414   -0.0001213     0.5455114   -0.4946843 
   0.012553127     0.8181855   -0.3921012     0.0003636    0.0009697    -0.0000218   -0.0000052     0.5385688   -0.4899119 
   0.012653152     0.8275174   -0.3748523    -0.0008224    0.0000054     0.0002202   -0.0000939     0.5367403   -0.4939509 
   0.012753177     0.8137673   -0.3823738     0.0004937    0.0009616    -0.0000357   -0.0002370     0.5344024   -0.4926294 
   0.012853202     0.8118514   -0.3755606    -0.0000767   -0.0005418    -0.0002029    0.0000980     0.5273842   -0.4919001 
   0.012953227     0.8170827   -0.3866584    -0.0006286   -0.0008444     0.0001689   -0.0000672     0.5284846   -0.4936816 
   0.013053252     0.8017815   -0.4054554    -0.0012680    0.0005976    -0.0001493    0.0001096     0.5237384   -0.4926716 
   0.013153277     0.8033345   -0.3878936    -0.0006492   -0.0001553    -0.0006571   -0.0001791     0.5159087   -0.4936765 
   0.013253302     0.7974710   -0.3871639     0.0002906   -0.0006896    -0.0000351    0.0000775     0.5168433   -0.4908897 
   0.013353327     0.8085523   -0.3808422     0.0008094   -0.0010394    -0.0003017    0.0002575     0.5128472   -0.4921132 
   0.013453352     0.8083840   -0.3794287     0.0005859   -0.0004794     0.0002181    0.0000287     0.5086906   -0.4939543 
   0.013553377     0.7874479   -0.3996688     0.0001564    0.0001898     0.0000823   -0.0000898     0.5038012   -0.4927621 
   0.013653402     0.7954615   -0.3983571     0.0006165    0.0007782    -0.0003622    0.0000497     0.5002381   -0.4915950 
   0.013753427     0.7957862   -0.4067863    -0.0000950   -0.0003646    -0.0002766    0.0001134     0.4970998   -0.4919640 
   0.013853452     0.7933733   -0.4152658    -0.0003647   -0.0003529     0.0000321    0.0001257     0.4960907   -0.4928168 
   0.013953477     0.7871014   -0.3933302    -0.0006896   -0.0005867     0.0000579    0.0000635     0.4910983   -0.4924281 
   0.014053502     0.7973642   -0.4132313    -0.0000643    0.0010927    -0.0002109    0.0000115     0.4874046   -0.4908904 
   0.014153527     0.7832475   -0.4060335     0.0001038   -0.0001235     0.0001534    0.0000210     0.4849403   -0.4909999 
   0.014253552     0.7938932   -0.4198532     0.0001557   -0.0011227    -0.0000090    0.0000127     0.4830986   -0.4931534 
   0.014353577     0.7701067   -0.4093832     0.0001024   -0.0004385    -0.0001870   -0.0000294     0.4769560   -0.4908611 
   0.014453602     0.7588002   -0.4067180    -0.0001161   -0.0000510    -0.0001486    0.0000801     0.4737696   -0.4908941 
   0.014553627     0.7716301   -0.4121884    -0.0002778    0.0003580    -0.0002355   -0.0000236     0.4724999   -0.4922421 
   0.014653652     0.7853034   -0.4130781     0.0003661    0.0004819    -0.0000501    0.0001568     0.4650607   -0.4902704 
   0.014753677     0.7641385   -0.4218614    -0.0003414   -0.0004506    -0.0003169   -0.0002261     0.4646042   -0.4897768 
   0.014853702     0.7780828   -0.4271526     0.0001392    0.0002548     0.0000672    0.0000743     0.4584224   -0.4890698 
   0.014953727     0.7579435   -0.4390945     0.0004490   -0.0005942     0.0001469   -0.0001441     0.4569414   -0.4887265 
   0.015053752     0.7639272   -0.4187770     0.0006287   -0.0003792    -0.0001816   -0.0002174     0.4530115   -0.4892071 
   0.015153777     0.7669739   -0.4271633    -0.0002411   -0.0008063     0.0001520   -0.0000205     0.4534891   -0.4900852 
   0.015253802     0.7584029   -0.4169764     0.0000720   -0.0007807     0.0000861   -0.0002971     0.4480764   -0.4884751 
   0.015353827     0.7478875   -0.4345415     0.0000816    0.0002494     0.0002034   -0.0000276     0.4450242   -0.4882674 
   0.015453852     0.7665769   -0.4354847    -0.0002473    0.0003447    -0.0000151   -0.0001677     0.4404586   -0.4865903 
   0.015553877     0.7527201   -0.4407258    -0.0005595    0.0003728     0.0000036   -0.0000420     0.4390494   -0.4866991 
   0.015653902     0.7474822   -0.4356157    -0.0005951    0.0000988    -0.0001068    0.0000895     0.4364181   -0.4886845 
   0.015753927     0.7435898   -0.4308828    -0.0003238    0.0005935    -0.0000869    0.0000277     0.4307216   -0.4857096 
   0.015853952     0.7459641   -0.4482075    -0.0008626   -0.0008274    -0.0000097    0.0000871     0.4305595   -0.4836813 
   0.015953977     0.7547334   -0.4365638     0.0004099    0.0005552    -0.0002260   -0.0001393     0.4256965   -0.4852051 
   0.016054002     0.7399685   -0.4290142     0.0003111    0.0004408     0.0000596   -0.0002464     0.4232499   -0.4848862 
   0.016154027     0.7473400   -0.4456559     0.0002830   -0.0005616    -0.0001894   -0.0001290     0.4187765   -0.4857591 
   0.016254052     0.7358022   -0.4371693     0.0001825   -0.0005475     0.0000645   -0.0000534     0.4157717   -0.4843478 
   0.016354077     0.7290567   -0.4384514     0.0006298    0.0002044    -0.0001631   -0.0003292     0.4155547   -0.4829293 
   0.016454102     0.7353939   -0.4479143    -0.0003923    0.0002004    -0.0000681   -0.0000058     0.4107237   -0.4831125 
   0.016554127     0.7202514   -0.4448861     0.0009542   -0.0000109    -0.0002386    0.0000528     0.4084071   -0.4821140 
   0.016654152     0.7375593   -0.4455070    -0.0008607   -0.0002617    -0.0001556   -0.0000420     0.4066587   -0.4831888 
   0.016754177     0.7233040   -0.4459885     0.0007369   -0.0000946    -0.0001893   -0.0000078     0.4029175   -0.4806205 
   0.016854202     0.7279012   -0.4491650    -0.0002515    0.0000529    -0.0000517    0.0000883     0.4007899   -0.4811897 
   0.016954227     0.7289833   -0.4654926     0.0005722   -0.0000065     0.0000201   -0.0000079     0.4003689   -0.4800174 
   0.017054252     0.7181774   -0.4595526    -0.0007223   -0.0001312     0.0000981    0.0000169     0.3934587   -0.4783583 
   0.017154277     0.7147965   -0.4491685     0.0005825   -0.0001182     0.0000883   -0.0000347     0.3925827   -0.4781329 
   0.017254302     0.7158456   -0.4521187    -0.0000207    0.0007624    -0.0000166   -0.0001538     0.3899807   -0.4788094 
   0.017354327     0.7236927   -0.4584749    -0.0000342    0.0001654    -0.0000747    0.0000277     0.3873147   -0.4776599 
   0.017454352     0.6981818   -0.4648428    -0.0007039   -0.0007255    -0.0002500    0.0001190     0.3850801   -0.4774555 
   0.017554377     0.7050693   -0.4661311    -0.0002203   -0.0000322     0.0001045    0.0001068     0.3842340   -0.4762570 
   0.017654402     0.7093814   -0.4606234     0.0001237   -0.0000271    -0.0001186   -0.0000550     0.3794497   -0.4747824 
   0.017754427     0.6928086   -0.4691436    -0.0007014    0.0003017     0.0000501   -0.0000401     0.3774052   -0.4752535 
   0.017854452     0.6952784   -0.4704520     0.0004964    0.0003549     0.0000626    0.0000299     0.3750886   -0.4736778 
   0.017954477     0.6956921   -0.4543703    -0.0005905   -0.0005433     0.0000340    0.0000912     0.3738844   -0.4724210 
   0.018054502     0.6999373   -0.4694653    -0.0002992    0.0000745    -0.0000227   -0.0000158     0.3695365   -0.4735518 
   0.018154527     0.6952397   -0.4678067    -0.0003595   -0.0001764    -0.0003455    0.0002192     0.3679415   -0.4732487 
   0.018254552     0.6912558   -0.4676495    -0.0002641   -0.0003221     0.0001497    0.0000194     0.3642713   -0.4702924 
   0.018354577     0.6858830   -0.4702764    -0.0003710    0.0003019    -0.0000151    0.0000814     0.3616826   -0.4695386 
   0.018454602     0.6818888   -0.4752271     0.0003801   -0.0006316    -0.0001140    0.0002445     0.3595063   -0.4695745 
   0.018554627     0.6755420   -0.4811679     0.0002982   -0.0000780    -0.0000786    0.0002051     0.3574615   -0.4687023 
   0.018654652     0.6791140   -0.4773089    -0.0004796    0.0002008    -0.0002413    0.0001675     0.3557764   -0.4663190 
   0.018754677     0.6751451   -0.4724328    -0.0002275   -0.0002593     0.0000179    0.0000410     0.3528875   -0.4676362 
   0.018854702     0.6842790   -0.4750170    -0.0002421   -0.0001743    -0.0002198   -0.0000381     0.3527670   -0.4670832 
   0.018954727     0.6763197   -0.4830276    -0.0000012    0.0000136    -0.0001953   -0.0000390     0.3497739   -0.4656525 
   0.019054752     0.6706306   -0.4721292    -0.0010138   -0.0000667     0.0000619    0.0001727     0.3458520   -0.4663899 
   0.019154777     0.6628399   -0.4802696     0.0004398   -0.0002076    -0.0000796    0.0000909     0.3424642   -0.4637703 
   0.019254802     0.6660897   -0.4827204    -0.0002435   -0.0005089     0.0000984    0.0000894     0.3394135   -0.4639371 
   0.019354827     0.6550726   -0.4865718    -0.0005588    0.0003551     0.0001135    0.0000998     0.3399071   -0.4644019 
   0.019454852     0.6556647   -0.4747685    -0.0002268   -0.0000907     0.0000274   -0.0000780     0.3386119   -0.4618705 
   0.019554877     0.6461581   -0.4818653    -0.0003787   -0.0002506     0.0000163   -0.0000759     0.3365054   -0.4623501 
   0.019654902     0.6649981   -0.4825799    -0.0004976    0.0007875     0.0000354    0.0001620     0.3342602   -0.4614364 
   0.019754927     0.6516233   -0.4825954    -0.0003571    0.0002246    -0.0001654    0.0002340     0.3316796   -0.4601035 
   0.019854952     0.6493138   -0.4764277    -0.0004165    0.0001527    -0.0000218    0.0000218     0.3315740   -0.4571055 
   0.019954977     0.6429415   -0.4854815    -0.0002726    0.0005441    -0.0000193   -0.0000325     0.3287102   -0.4566512 
   0.020055003     0.6504631   -0.4882106     0.0004166   -0.0003802     0.0000424    0.0000527     0.3270895   -0.4577395 
   0.020155028     0.6423110   -0.4784185     0.0003079    0.0007058    -0.0000753    0.0000700     0.3231635   -0.4577534 
   0.020255053     0.6466424   -0.4959795     0.0002832   -0.0003511     0.0000715    0.0000821     0.3221131   -0.4562856 
   0.020355078     0.6415386   -0.4884506     0.0003336   -0.0001795    -0.0001404    0.0000707     0.3180561   -0.4558056 
   0.020455103     0.6379155   -0.4870506    -0.0007178    0.0000300    -0.0000784    0.0000911     0.3181765   -0.4551893 
   0.020555128     0.6360075   -0.4932938     0.0000545    0.0003537    -0.0000818   -0.0000299     0.3146029   -0.4552255 
   0.020655153     0.6422587   -0.4899728     0.0004109   -0.0003251    -0.0002027    0.0002742     0.3128925   -0.4514156 
   0.020755178     0.6205130   -0.4957974     0.0002969    0.0004614    -0.0002200   -0.0001226     0.3106548   -0.4508440 
   0.020855203     0.6325650   -0.4890102    -0.0004252    0.0002513    -0.0000731   -0.0000862     0.3085673   -0.4521040 
   0.020955228     0.6247859   -0.4880034     0.0006214   -0.0000141    -0.0001963    0.0001922     0.3067941   -0.4505862 
   0.021055253     0.6204681   -0.4989576    -0.0007598    0.0003027     0.0000289    0.0001688     0.3042363   -0.4483556 
   0.021155278     0.6285955   -0.5013478     0.0003791    0.0007143    -0.0001025    0.0000484     0.3048038   -0.4489711 
   0.021255303     0.6164241   -0.4918331    -0.0003319    0.0002718    -0.0001726   -0.0000287     0.3015843   -0.4486949 
   0.021355328     0.6278883   -0.4924394    -0.0001876   -0.0004320    -0.0000183   -0.0001177     0.3016870   -0.4453053 
   0.021455353     0.6047431   -0.4977657    -0.0005062   -0.0001673    -0.0002020    0.0000175     0.2973963   -0.4457060 
   0.021555378     0.6125375   -0.5034528    -0.0000785    0.0003722    -0.0000142   -0.0002301     0.2966965   -0.4439436 
   0.021655403     0.6093048   -0.4982334    -0.0006855   -0.0000450     0.0000836   -0.0000152     0.2950128   -0.4442816 
   0.021755428     0.6074008   -0.4975690    -0.0001483   -0.0000390    -0.0000965    0.0001159     0.2935477   -0.4431864 
   0.021855453     0.6070795   -0.5010799    -0.0002717   -0.0003818    -0.0000963    0.0000360     0.2911352   -0.4408247 
   0.021955478     0.6014440   -0.4986076     0.0001295   -0.0000951    -0.0000619   -0.0001066     0.2890235   -0.4418779 
   0.022055503     0.6073018   -0.5035273     0.0005606    0.0000160    -0.0000943   -0.0000161     0.2870383   -0.4407409 
   0.022155528     0.5998729   -0.5010460    -0.0000139   -0.0000905    -0.0002207   -0.0000901     0.2859657   -0.4398241 
   0.022255553     0.5928853   -0.5025416    -0.0004249   -0.0007534    -0.0003280    0.0001134     0.2832992   -0.4386891 
   0.022355578     0.5926691   -0.4983718    -0.0001211    0.0001033    -0.0000268    0.0002103     0.2814482   -0.4383847 
   0.022455603     0.5943595   -0.5150866     0.0001679    0.0001337    -0.0000580    0.0001753     0.2807582   -0.4366042 
   0.022555628     0.5925736   -0.5059626     0.0003887    0.0001283    -0.0000833   -0.0000315     0.2798487   -0.4372943 
   0.022655653     0.5981821   -0.5034100     0.0000476   -0.0002892    -0.0000090    0.0000043     0.2778170   -0.4363466 
   0.022755678     0.5825741   -0.5022837    -0.0001876    0.0002336    -0.0001286    0.0001881     0.2765448   -0.4335307 
   0.022855703     0.5792243   -0.5038114    -0.0000548    0.0003569    -0.0001837    0.0001491     0.2745008   -0.4331751 
   0.022955728     0.5879704   -0.5020447     0.0002725   -0.0000711     0.0000030    0.0001184     0.2734874   -0.4332713 
   0.023055753     0.5771089   -0.5061613     0.0000313    0.0003279    -0.0004079    0.0001215     0.2722600   -0.4313703 
   0.023155778     0.5812830   -0.5071097    -0.0000081   -0.0002912    -0.0000610    0.0000976     0.2708327   -0.4318748 
   0.023255803     0.5745792   -0.5087882     0.0005725    0.0004396    -0.0001098    0.0000878     0.2681940   -0.4295595 
   0.023355828     0.5721789   -0.5069875    -0.0000664    0.0004150    -0.0001306   -0.0000865     0.2671176   -0.4296093 
   0.023455853     0.5705565   -0.5089815    -0.0004325    0.0003228    -0.0002162    0.0000252     0.2645977   -0.4286070 
   0.023555878     0.5696169   -0.5128596     0.0001768    0.0004753     0.0000374    0.0000397     0.2642208   -0.4276264 
   0.023655903     0.5670004   -0.5048118    -0.0004377    0.0001415    -0.0000662    0.0000479     0.2629524   -0.4265552 
   0.023755928     0.5641209   -0.5041142     0.0000449   -0.0000997    -0.0000592    0.0000212     0.2602604   -0.4242998 
   0.023855953     0.5615181   -0.5112838     0.0002915    0.0004341    -0.0002283    0.0000066     0.2582179   -0.4261372 
   0.023955978     0.5528743   -0.5059232    -0.0000114   -0.0001025    -0.0001111    0.0000382     0.2578247   -0.4248333 
   0.024056003     0.5657734   -0.5085741     0.0003813   -0.0002692    -0.0000278   -0.0000954     0.2545511   -0.4248331 
   0.024156028     0.5557262   -0.5096793    -0.0000009   -0.0003319    -0.0001409   -0.0000476     0.2546421   -0.4235086 
   0.024256053     0.5543523   -0.5085973     0.0000064   -0.0002863     0.0000428    0.0001458     0.2532120   -0.4225477 
   0.024356078     0.5498083   -0.5074500    -0.0004968    0.0003593    -0.0001288    0.0000061     0.2519406   -0.4220824 
   0.024456103     0.5458885   -0.5059721     0.0003846   -0.0004369    -0.0001332    0.0000087     0.2501082   -0.4203409 
   0.024556128     0.5534775   -0.5100853     0.0000222    0.0000055    -0.0001413   -0.0000104     0.2488195   -0.4199859 
   0.024656153     0.5459945   -0.5127560    -0.0000108   -0.0003769    -0.0000694    0.0001557     0.2476081   -0.4185206 
   0.024756178     0.5444043   -0.5153586    -0.0000743   -0.0003401    -0.0000739    0.0002836     0.2464419   -0.4182460 
   0.024856203     0.5454727   -0.5136812    -0.0001413    0.0001935    -0.0000894    0.0001501     0.2441444   -0.4168555 
   0.024956228     0.5452041   -0.5082628     0.0000387   -0.0001950    -0.0000483   -0.0000677     0.2435320   -0.4160835 
   0.025056253     0.5351087   -0.5081581    -0.0001889    0.0002312    -0.0002685    0.0001166     0.2433589   -0.4159371 
   0.025156278     0.5394157   -0.5189786    -0.0006842    0.0002007    -0.0001013    0.0001924     0.2409454   -0.4144241 
   0.025256303     0.5329264   -0.5107285    -0.0001066   -0.0000792     0.0001131   -0.0000173     0.2410606   -0.4133544 
   0.025356328     0.5391593   -0.5137811     0.0002122    0.0000423    -0.0003188   -0.0000341     0.2381630   -0.4133905 
   0.025456353     0.5276130   -0.5143954     0.0003264    0.0000452    -0.0000739    0.0000255     0.2373181   -0.4124236 
   0.025556378     0.5290892   -0.5162529     0.0000161   -0.0000980    -0.0002972    0.0000493     0.2371624   -0.4115744 
   0.025656403     0.5290336   -0.5186561     0.0000313    0.0002326    -0.0001598    0.0001222     0.2358980   -0.4109068 
   0.025756428     0.5266221   -0.5224468    -0.0002572   -0.0002098    -0.0000749    0.0000964     0.2331650   -0.4079945 
   0.025856453     0.5247806   -0.5173061    -0.0000175   -0.0002272    -0.0000129    0.0001153     0.2319432   -0.4077882 
   0.025956478     0.5228233   -0.5139192    -0.0002828    0.0001713    -0.0000625    0.0001742     0.2315697   -0.4078828 
   0.026056503     0.5165589   -0.5141648     0.0001214   -0.0000113    -0.0001501    0.0001130     0.2305041   -0.4063838 
   0.026156528     0.5145904   -0.5132973    -0.0000778   -0.0000484     0.0000533    0.0001853     0.2277459   -0.4056766 
   0.026256553     0.5213065   -0.5173106    -0.0001718   -0.0003895    -0.0000540   -0.0000027     0.2273997   -0.4049164 
   0.026356578     0.5195381   -0.5186087    -0.0004627   -0.0001086    -0.0002307    0.0000308     0.2254301   -0.4056450 
   0.026456603     0.5073910   -0.5197826     0.0002927    0.0003413    -0.0002117    0.0001157     0.2253365   -0.4035736 
   0.026556628     0.5145556   -0.5192314    -0.0002651    0.0004676    -0.0000166   -0.0000425     0.2238044   -0.4028081 
   0.026656653     0.5024708   -0.5157447     0.0001226   -0.0003211    -0.0001061    0.0000237     0.2219008   -0.4013928 
   0.026756678     0.5034354   -0.5168149    -0.0003525   -0.0004139    -0.0001266    0.0001956     0.2226569   -0.4022916 
   0.026856703     0.5053922   -0.5192007     0.0000822    0.0000881    -0.0000947    0.0000447     0.2214679   -0.4010751 
   0.026956728     0.5035803   -0.5154755    -0.0003819    0.0000567    -0.0002235    0.0000335     0.2189507   -0.3992836 
   0.027056753     0.4997227   -0.5214511     0.0000399    0.0000820    -0.0000573   -0.0000160     0.2173905   -0.3981136 
   0.027156778     0.4985922   -0.5215462    -0.0004847    0.0001564    -0.0001732   -0.0000417     0.2158707   -0.3966292 
   0.027256803     0.4970027   -0.5136831    -0.0001333    0.0000313    -0.0000543    0.0000084     0.2153351   -0.3967128 
   0.027356828     0.4961745   -0.5198452    -0.0000302    0.0000556    -0.0001154    0.0001589     0.2138082   -0.3963317 
   0.027456853     0.4890968   -0.5185382     0.0003195    0.0000994    -0.0001118    0.0000538     0.2136130   -0.3966684 
   0.027556878     0.4914213   -0.5206985    -0.0003578    0.0001404    -0.0001476    0.0000972     0.2125241   -0.3941354 
   0.027656903     0.4905452   -0.5217313    -0.0002555    0.0001356    -0.0000933    0.0001428     0.2118425   -0.3938156 
   0.027756928     0.4845240   -0.5158332    -0.0002891   -0.0000599    -0.0003082    0.0002326     0.2093328   -0.3933285 
   0.027856953     0.4879381   -0.5183444    -0.0003099    0.0002072    -0.0001264    0.0000932     0.2089691   -0.3918561 
   0.027956978     0.4830018   -0.5165077    -0.0000744    0.0003514    -0.0001644    0.0001293     0.2074894   -0.3911814 
   0.028057004     0.4802204   -0.5160411    -0.0004411   -0.0000083    -0.0001650    0.0000963     0.2068937   -0.3899271 
   0.028157029     0.4783206   -0.5198816    -0.0001908    0.0001732    -0.0000657    0.0001383     0.2053510   -0.3904028 
   0.028257054     0.4737204   -0.5157014    -0.0001041    0.0004297    -0.0000506    0.0000839     0.2054322   -0.3896816 
   0.028357079     0.4702678   -0.5177784    -0.0007190    0.0004363    -0.0001901    0.0000090     0.2026724   -0.3880651 
   0.028457104     0.4732699   -0.5163564    -0.0001719    0.0003936    -0.0001136    0.0000871     0.2021378   -0.3872375 
   0.028557129     0.4696606   -0.5223972    -0.0005533   -0.0003168    -0.0001337    0.0002010     0.2022874   -0.3873284 
   0.028657154     0.4700128   -0.5176486    -0.0002223   -0.0002450    -0.0000622    0.0000308     0.2020761   -0.3855764 
   0.028757179     0.4702314   -0.5180824    -0.0003224   -0.0000532    -0.0001761    0.0000098     0.2000639   -0.3845464 
   0.028857204     0.4655887   -0.5204087    -0.0005833   -0.0001543    -0.0000253    0.0001692     0.1986994   -0.3851243 
   0.028957229     0.4601120   -0.5173731    -0.0001607    0.0002829    -0.0000651    0.0001080     0.1980548   -0.3832060 
   0.029057254     0.4669269   -0.5262216    -0.0000432   -0.0002083     0.0000175    0.0000289     0.1979536   -0.3834780 
   0.029157279     0.4579744   -0.5170333    -0.0002078    0.0002041    -0.0002146    0.0001860     0.1958287   -0.3822771 
   0.029257304     0.4563323   -0.5235330     0.0002325    0.0003036    -0.0000116    0.0001053     0.1953660   -0.3805300 
   0.029357329     0.4532726   -0.5161928    -0.0001703   -0.0000602    -0.0000474    0.0001109     0.1949387   -0.3801780 
   0.029457354     0.4565119   -0.5195532    -0.0001614    0.0000522    -0.0000998    0.0000437     0.1930718   -0.3791421 
   0.029557379     0.4522111   -0.5221682     0.0001183    0.0001608    -0.0000310    0.0001344     0.1922244   -0.3793953 
   0.029657404     0.4537558   -0.5201195     0.0000402    0.0001387    -0.0001549    0.0000598     0.1920777   -0.3786112 
   0.029757429     0.4462610   -0.5232173     0.0002461    0.0002615    -0.0001545    0.0000159     0.1904696   -0.3774445 
   0.029857454     0.4418598   -0.5187604    -0.0000331    0.0002670    -0.0002031    0.0001827     0.1909883   -0.3761528 
   0.029957479     0.4450895   -0.5175130    -0.0000545    0.0002177    -0.0000485    0.0001002     0.1896648   -0.3752384 
   0.030057504     0.4431419   -0.5189101    -0.0003490   -0.0000960    -0.0001744    0.0000014     0.1884006   -0.3745072 
   0.030157529     0.4443543   -0.5163817    -0.0001330    0.0000111    -0.0000931    0.0000575     0.1862910   -0.3739420 
   0.030257554     0.4415020   -0.5125538    -0.0000232   -0.0002210    -0.0000678    0.0000365     0.1860340   -0.3727614 
   0.030357579     0.4394960   -0.5121966    -0.0001623    0.0002092    -0.0002139    0.0002198     0.1842157   -0.3729160 
   0.030457604     0.4363481   -0.5187986    -0.0002306    0.0002369    -0.0002259    0.0001239     0.1854945   -0.3721774 
   0.030557629     0.4354360   -0.5149283    -0.0002786    0.0002583    -0.0000217    0.0000910     0.1836620   -0.3708320 
   0.030657654     0.4321343   -0.5187694     0.0002741   -0.0002908    -0.0000197    0.0001428     0.1827557   -0.3711316 
   0.030757679     0.4312748   -0.5171733     0.0001218    0.0003410    -0.0000655    0.0000909     0.1825225   -0.3712384 
   0.030857704     0.4283706   -0.5152362    -0.0003154   -0.0003166    -0.0000388    0.0001734     0.1816996   -0.3695461 
   0.030957729     0.4297130   -0.5231045    -0.0001697   -0.0000892    -0.0000360    0.0001319     0.1801768   -0.3698561 
   0.031057754     0.4278641   -0.5152373    -0.0001039   -0.0000929    -0.0002121    0.0002882     0.1788843   -0.3682731 
   0.031157779     0.4251179   -0.5221230     0.0000253    0.0002205    -0.0002132    0.0001943     0.1782995   -0.3666193 
   0.031257804     0.4229854   -0.5160068    -0.0002406   -0.0000384    -0.0002262   -0.0000038     0.1776409   -0.3667444 
   0.031357829     0.4193558   -0.5163603    -0.0002816    0.0001652    -0.0000953    0.0003348     0.1766439   -0.3643841 
   0.031457854     0.4184779   -0.5135785    -0.0003718    0.0000888    -0.0001707    0.0001842     0.1754649   -0.3652147 
   0.031557879     0.4192362   -0.5198926    -0.0001760    0.0000068     0.0000214    0.0000255     0.1746964   -0.3639866 
   0.031657904     0.4131256   -0.5147139    -0.0001580    0.0001365    -0.0001156    0.0002389     0.1747955   -0.3642729 
   0.031757929     0.4160412   -0.5164400    -0.0005500    0.0001815    -0.0001889    0.0000740     0.1734584   -0.3626501 
   0.031857954     0.4117785   -0.5141172    -0.0002803    0.0004648    -0.0001100    0.0000794     0.1739447   -0.3621733 
   0.031957979     0.4130093   -0.5153808    -0.0007395    0.0001371    -0.0002482    0.0001966     0.1725892   -0.3616450 
   0.032058004     0.4134075   -0.5152535    -0.0002305    0.0000411    -0.0000968    0.0002029     0.1713811   -0.3609282 
   0.032158029     0.4093949   -0.5172704     0.0001501   -0.0000564    -0.0002083    0.0002126     0.1712536   -0.3599464 
   0.032258054     0.4087542   -0.5160552    -0.0003867    0.0002332    -0.0000463    0.0001914     0.1696559   -0.3592876 
   0.032358079     0.4081995   -0.5158073    -0.0001865   -0.0001589    -0.0000979    0.0001972     0.1690391   -0.3578936 
   0.032458104     0.4049560   -0.5169964    -0.0002033    0.0000080    -0.0000731    0.0001961     0.1691013   -0.3588268 
   0.032558129     0.4031446   -0.5093237    -0.0001181   -0.0000629    -0.0001672    0.0001015     0.1676417   -0.3574637 
   0.032658154     0.4002159   -0.5119637    -0.0003193    0.0004196    -0.0000806    0.0001971     0.1667288   -0.3562069 
   0.032758179     0.3989115   -0.5139799    -0.0001664    0.0003298    -0.0000587    0.0001498     0.1674116   -0.3561862 
   0.032858204     0.3973442   -0.5124284    -0.0005915   -0.0000716    -0.0001682    0.0000793     0.1650126   -0.3554731 
   0.032958229     0.3970252   -0.5089007    -0.0001645   -0.0000824    -0.0001421    0.0001261     0.1647061   -0.3538412 
   0.033058254     0.3935030   -0.5121627     0.0000226   -0.0001929    -0.0001416    0.0000798     0.1639535   -0.3541482 
   0.033158279     0.3919971   -0.5118118     0.0002441    0.0004512    -0.0000380    0.0002647     0.1637915   -0.3531453 
   0.033258304     0.3891656   -0.5138502    -0.0002441    0.0001023    -0.0002241    0.0000181     0.1622345   -0.3520932 
   0.033358329     0.3887713   -0.5109975    -0.0002476   -0.0001750    -0.0001875    0.0001414     0.1628720   -0.3523596 
   0.033458354     0.3866201   -0.5088721    -0.0005935    0.0001347    -0.0001885    0.0000314     0.1613266   -0.3506214 
   0.033558379     0.3841331   -0.5142162    -0.0005079    0.0003546    -0.0000066    0.0001126     0.1603842   -0.3503196 
   0.033658404     0.3794866   -0.5130648    -0.0001509    0.0005319    -0.0000376    0.0001361     0.1603485   -0.3494560 
   0.033758429     0.3824319   -0.5100856    -0.0002200    0.0002009    -0.0000421    0.0002215     0.1589496   -0.3497304 
   0.033858454     0.3788937   -0.5129159    -0.0002820    0.0001034    -0.0001174    0.0001980     0.1585057   -0.3487712 
   0.033958479     0.3816585   -0.5181564     0.0001594    0.0002005    -0.0000283    0.0000945     0.1577984   -0.3482592 
   0.034058504     0.3792465   -0.5086924    -0.0000499    0.0002396    -0.0001134    0.0001839     0.1560860   -0.3474824 
   0.034158529     0.3712834   -0.5106803     0.0004030    0.0002974    -0.0002569    0.0000462     0.1570983   -0.3464479 
   0.034258554     0.3752635   -0.5093496    -0.0003742   -0.0001615    -0.0000195    0.0001891     0.1565341   -0.3468762 
   0.034358579     0.3736582   -0.5065338    -0.0003179   -0.0000443    -0.0001044    0.0003888     0.1550830   -0.3452970 
   0.034458604     0.3738422   -0.5110095    -0.0000083    0.0001218    -0.0001389    0.0000904     0.1557439   -0.3448019 
   0.034558629     0.3711191   -0.5084378    -0.0002179    0.0003307    -0.0001473    0.0000996     0.1536786   -0.3437878 
   0.034658654     0.3677891   -0.5081220    -0.0001645    0.0003143     0.0000426    0.0002712     0.1536637   -0.3432398 
   0.034758679     0.3677192   -0.5084729    -0.0001020    0.0003463    -0.0000957    0.0003585     0.1532650   -0.3423204 
   0.034858704     0.3673489   -0.5086390     0.0000553    0.0002648     0.0000212    0.0002515     0.1511276   -0.3415310 
   0.034958729     0.3653531   -0.5060767    -0.0001223    0.0001196    -0.0001526    0.0002627     0.1519951   -0.3425738 
   0.035058754     0.3627549   -0.5081211    -0.0002990    0.0003135    -0.0002144    0.0000336     0.1502997   -0.3421115 
   0.035158779     0.3636906   -0.5099776    -0.0001964   -0.0000561    -0.0001115    0.0000874     0.1494969   -0.3401439 
   0.035258804     0.3612209   -0.5055977     0.0002039   -0.0001719    -0.0000006    0.0002159     0.1500087   -0.3397310 
   0.035358829     0.3599266   -0.5031927    -0.0001889    0.0002707    -0.0001286    0.0000869     0.1492620   -0.3382309 
   0.035458854     0.3565805   -0.5070404    -0.0000633    0.0002164    -0.0000438    0.0001952     0.1479392   -0.3385799 
   0.035558879     0.3577974   -0.5034368     0.0003622   -0.0000146    -0.0001577    0.0001586     0.1481205   -0.3378460 
   0.035658904     0.3549576   -0.5056570    -0.0003287    0.0002459    -0.0001154    0.0001387     0.1475247   -0.3371339 
   0.035758929     0.3553779   -0.5008922    -0.0002747   -0.0001628    -0.0000247    0.0001497     0.1473231   -0.3362735 
   0.035858954     0.3505164   -0.5042994    -0.0003081    0.0002098    -0.0001167    0.0000938     0.1464311   -0.3357036 
   0.035958979     0.3530036   -0.5059666    -0.0001838    0.0005485    -0.0000313    0.0002029     0.1452823   -0.3352520 
   0.036059005     0.3514686   -0.5031899    -0.0001901    0.0006334    -0.0002233    0.0001554     0.1453923   -0.3340043 
   0.036159030     0.3505081   -0.5010440    -0.0001193    0.0003260    -0.0002596    0.0001465     0.1447732   -0.3350862 
   0.036259055     0.3424805   -0.5027221     0.0001309    0.0001328    -0.0000613    0.0001680     0.1431228   -0.3340977 
   0.036359080     0.3412709   -0.4985504    -0.0002046    0.0003293    -0.0003102    0.0002814     0.1435661   -0.3337119 
   0.036459105     0.3449898   -0.5059668    -0.0002438    0.0001039    -0.0001568    0.0002335     0.1427894   -0.3327833 
   0.036559130     0.3445962   -0.4977782    -0.0000748    0.0000842    -0.0001002    0.0002356     0.1420147   -0.3311511 
   0.036659155     0.3410453   -0.5047295    -0.0003078    0.0006752    -0.0000013    0.0002230     0.1410358   -0.3306537 
   0.036759180     0.3401935   -0.5028491    -0.0006819   -0.0000029    -0.0002399    0.0002350     0.1415538   -0.3307830 
   0.036859205     0.3413678   -0.5024002     0.0000274    0.0005703     0.0000010    0.0002406     0.1401593   -0.3304866 
   0.036959230     0.3365147   -0.4996786    -0.0000971    0.0006113    -0.0002801    0.0003470     0.1398590   -0.3300677 
   0.037059255     0.3343249   -0.5020544    -0.0004441   -0.0002094    -0.0001099    0.0001326     0.1395626   -0.3286970 
   0.037159280     0.3352260   -0.5005419     0.0000711    0.0001066    -0.0002130    0.0002376     0.1401466   -0.3287487 
   0.037259305     0.3308451   -0.5035887     0.0000888    0.0001454    -0.0001139    0.0003401     0.1376986   -0.3282707 
   0.037359330     0.3325002   -0.5010937     0.0000464   -0.0002770    -0.0001275    0.0002599     0.1376464   -0.3277840 
   0.037459355     0.3315106   -0.4984794     0.0006437   -0.0001153     0.0000032    0.0002612     0.1375571   -0.3266683 
   0.037559380     0.3287772   -0.4990844     0.0004388    0.0001196    -0.0001763    0.0004055     0.1367773   -0.3256472 
   0.037659405     0.3283745   -0.4973437     0.0000398    0.0002556    -0.0001262    0.0001855     0.1358488   -0.3251196 
   0.037759430     0.3271506   -0.5020561    -0.0002569    0.0004819    -0.0000847    0.0001258     0.1351659   -0.3249021 
   0.037859455     0.3233802   -0.4940563    -0.0001596   -0.0000202     0.0000190    0.0001805     0.1350094   -0.3246307 
   0.037959480     0.3214502   -0.4920736     0.0003536    0.0005984    -0.0001545    0.0002330     0.1345935   -0.3240167 
   0.038059505     0.3229114   -0.4972072    -0.0002388    0.0003873    -0.0002637    0.0001710     0.1343482   -0.3236741 
   0.038159530     0.3205993   -0.4967254    -0.0003903    0.0000558     0.0001085    0.0000924     0.1340616   -0.3217473 
   0.038259555     0.3191574   -0.4976159    -0.0000967    0.0000819    -0.0001505    0.0003984     0.1332474   -0.3220373 
   0.038359580     0.3166807   -0.4931912    -0.0002192   -0.0000998    -0.0001371    0.0002388     0.1328808   -0.3208209 
   0.038459605     0.3202821   -0.4982016    -0.0000973   -0.0000806    -0.0001997    0.0001854     0.1312078   -0.3206301 
   0.038559630     0.3155539   -0.4981468    -0.0002376   -0.0001074    -0.0001223    0.0003693     0.1313831   -0.3211493 
   0.038659655     0.3194769   -0.4954363    -0.0001140    0.0000737    -0.0001016    0.0000584     0.1315131   -0.3197398 
   0.038759680     0.3131220   -0.4896860     0.0001243    0.0001748    -0.0000928    0.0002648     0.1298721   -0.3197818 
   0.038859705     0.3075458   -0.4952334     0.0001081    0.0000051    -0.0002532    0.0002500     0.1312704   -0.3185228 
   0.038959730     0.3123878   -0.4956788    -0.0003046    0.0002442     0.0000265    0.0002279     0.1304673   -0.3188797 
   0.039059755     0.3086262   -0.4950713    -0.0009148    0.0000088    -0.0002399    0.0001114     0.1300140   -0.3170782 
   0.039159780     0.3084251   -0.4921257     0.0001241   -0.0001016    -0.0001650    0.0002476     0.1287168   -0.3171631 
   0.039259805     0.3067541   -0.4910980    -0.0005733    0.0003245    -0.0001429    0.0001124     0.1278666   -0.3172910 
   0.039359830     0.3047138   -0.4883047    -0.0005866    0.0003758     0.0000341    0.0001598     0.1276571   -0.3156585 
   0.039459855     0.3052808   -0.4911884     0.0001482    0.0004263    -0.0000999    0.0002076     0.1281203   -0.3161228 
   0.039559880     0.3031511   -0.4899178     0.0000041    0.0001080    -0.0001479    0.0001413     0.1277878   -0.3152477 
   0.039659905     0.3025238   -0.4891463     0.0000079    0.0009150    -0.0000510    0.0002652     0.1261629   -0.3138440 
   0.039759930     0.2992722   -0.4892139    -0.0010267    0.0000547    -0.0000579    0.0000596     0.1257707   -0.3133441 
   0.039859955     0.3015268   -0.4908557    -0.0009278    0.0006170    -0.0000603    0.0001751     0.1261717   -0.3140603 
   0.039959980     0.2973404   -0.4893333     0.0000764   -0.0000559    -0.0001059    0.0003039     0.1250366   -0.3133669 
   0.040060005     0.2988292   -0.4898509     0.0001396    0.0002026    -0.0003812    0.0001168     0.1251361   -0.3125711 
   0.040160030     0.2957757   -0.4907149    -0.0001964    0.0004091    -0.0000780    0.0002610     0.1241430   -0.3113546 
   0.040260055     0.2950268   -0.4853886     0.0002878    0.0000999    -0.0000724    0.0002327     0.1239787   -0.3111801 
   0.040360080     0.2935919   -0.4862931     0.0000885    0.0005071    -0.0000287    0.0002179     0.1223450   -0.3103711 
   0.040460105     0.2948834   -0.4879327    -0.0004748    0.0006145     0.0000423    0.0002402     0.1230609   -0.3102752 
   0.040560130     0.2931004   -0.4834765    -0.0005266    0.0004979    -0.0001956    0.0001969     0.1227409   -0.3100276 
   0.040660155     0.2910397   -0.4924021     0.0003039    0.0000978    -0.0001473    0.0003029     0.1217735   -0.3083015 
   0.040760180     0.2881535   -0.4819981    -0.0005338   -0.0003571    -0.0002068    0.0003669     0.1205559   -0.3089467 
   0.040860205     0.2867795   -0.4830549    -0.0001320    0.0006846    -0.0002690    0.0002851     0.1209628   -0.3084225 
   0.040960230     0.2859471   -0.4853966    -0.0001963    0.0002366    -0.0001240    0.0003009     0.1202567   -0.3076911 
   0.041060255     0.2908451   -0.4838537    -0.0001092    0.0005235    -0.0001365    0.0001868     0.1203270   -0.3064519 
   0.041160280     0.2851487   -0.4860708     0.0004157   -0.0000087    -0.0002336    0.0001211     0.1199633   -0.3069084 
   0.041260305     0.2832409   -0.4844754    -0.0000817    0.0003314    -0.0002026    0.0004203     0.1190683   -0.3059311 
   0.041360330     0.2784308   -0.4842201     0.0002396    0.0003445    -0.0000685    0.0001813     0.1192315   -0.3058534 
   0.041460355     0.2809203   -0.4815165    -0.0000284   -0.0000752    -0.0001313    0.0001761     0.1188455   -0.3056198 
   0.041560380     0.2792190   -0.4801077    -0.0000618    0.0005206    -0.0002716    0.0001718     0.1183920   -0.3042870 
   0.041660405     0.2790761   -0.4813535    -0.0004932    0.0006239     0.0000635    0.0001017     0.1179910   -0.3033977 
   0.041760430     0.2791940   -0.4825709     0.0004214    0.0004380    -0.0000506    0.0003105     0.1183534   -0.3033219 
   0.041860455     0.2764141   -0.4820338    -0.0000649   -0.0001724    -0.0001058    0.0001577     0.1179524   -0.3036702 
   0.041960480     0.2739925   -0.4819719    -0.0002013    0.0003087    -0.0002065    0.0001852     0.1167517   -0.3026370 
   0.042060505     0.2760234   -0.4765455     0.0000801    0.0000963    -0.0004347    0.0003259     0.1160977   -0.3020977 
   0.042160530     0.2733948   -0.4800708     0.0000698   -0.0001717    -0.0000783    0.0002427     0.1155310   -0.3015862 
   0.042260555     0.2683590   -0.4755160    -0.0001997    0.0004925    -0.0000544    0.0002263     0.1155679   -0.3009830 
   0.042360580     0.2710765   -0.4780967     0.0002354    0.0003559    -0.0001201    0.0001845     0.1147992   -0.3011285 
   0.042460605     0.2720242   -0.4818892     0.0001515    0.0004615    -0.0001725    0.0003928     0.1147913   -0.3009704 
   0.042560630     0.2646073   -0.4785702    -0.0001519    0.0005411    -0.0001073    0.0001644     0.1141953   -0.3003271 
   0.042660655     0.2681557   -0.4773054    -0.0004095    0.0004379    -0.0000307    0.0002775     0.1141088   -0.2992467 
   0.042760680     0.2675095   -0.4753221    -0.0006482    0.0011442     0.0001170    0.0002994     0.1133975   -0.2985127 
   0.042860705     0.2668170   -0.4814017    -0.0001160   -0.0000293    -0.0000825    0.0003452     0.1136533   -0.2986216 
   0.042960730     0.2610019   -0.4744510    -0.0002890   -0.0005112    -0.0002119    0.0003049     0.1122705   -0.2974365 
   0.043060755     0.2627501   -0.4739308    -0.0001194    0.0006950    -0.0001273    0.0000932     0.1124956   -0.2973480 
   0.043160780     0.2623343   -0.4763662    -0.0004125    0.0005596    -0.0003121    0.0001224     0.1115198   -0.2973690 
   0.043260805     0.2615238   -0.4775465    -0.0001095    0.0008814    -0.0000446    0.0003664     0.1113608   -0.2964722 
   0.043360830     0.2617327   -0.4765134    -0.0005287    0.0000951    -0.0001268    0.0002957     0.1107294   -0.2958810 
   0.043460855     0.2598910   -0.4702554    -0.0000777   -0.0000110    -0.0002744    0.0002297     0.1112228   -0.2961802 
   0.043560880     0.2631510   -0.4685390    -0.0007180    0.0006498    -0.0000574    0.0002559     0.1102627   -0.2956093 
   0.043660905     0.2591143   -0.4720391     0.0003405   -0.0000407    -0.0001868    0.0003646     0.1095932   -0.2950465 
   0.043760930     0.2569593   -0.4716147     0.0003341    0.0001559    -0.0001644    0.0002369     0.1097285   -0.2945687 
   0.043860955     0.2580643   -0.4667585    -0.0003416    0.0001578    -0.0001429    0.0004172     0.1088824   -0.2939976 
   0.043960980     0.2511190   -0.4678092    -0.0006100    0.0007309     0.0000444    0.0001319     0.1091205   -0.2931938 
   0.044061006     0.2604093   -0.4704628    -0.0003706    0.0001549     0.0000038    0.0002692     0.1091338   -0.2935169 
   0.044161031     0.2524625   -0.4722607    -0.0003990    0.0007938    -0.0000418    0.0003720     0.1084790   -0.2927246 
   0.044261056     0.2503650   -0.4711737    -0.0001456    0.0002312    -0.0000927    0.0003704     0.1077358   -0.2923644 
   0.044361081     0.2549852   -0.4670197    -0.0009059   -0.0000876    -0.0001577    0.0003960     0.1071481   -0.2916232 
   0.044461106     0.2502210   -0.4680502    -0.0001507    0.0002361    -0.0002559    0.0001118     0.1080473   -0.2902902 
   0.044561131     0.2493086   -0.4727676    -0.0002108    0.0001832    -0.0000918    0.0002295     0.1080733   -0.2903485 
   0.044661156     0.2465888   -0.4668059    -0.0010439    0.0001144    -0.0001284    0.0001454     0.1062816   -0.2913053 
   0.044761181     0.2481894   -0.4707241    -0.0001009    0.0007306    -0.0000115    0.0001768     0.1065943   -0.2900442 
   0.044861206     0.2464338   -0.4679520    -0.0003112   -0.0006595    -0.0002026    0.0002862     0.1061748   -0.2894610 
   0.044961231     0.2449202   -0.4655248    -0.0000806   -0.0002420    -0.0000092    0.0002143     0.1048689   -0.2886719 
   0.045061256     0.2437153   -0.4669153    -0.0009218    0.0007105    -0.0001525    0.0002311     0.1049798   -0.2885334 
   0.045161281     0.2447013   -0.4634075    -0.0000154    0.0008976    -0.0000845    0.0001865     0.1052046   -0.2878935 
   0.045261306     0.2415674   -0.4650441    -0.0003323    0.0004333     0.0000240    0.0002854     0.1042821   -0.2889048 
   0.045361331     0.2412259   -0.4667198    -0.0001363    0.0000835    -0.0000771    0.0003930     0.1036988   -0.2865149 
   0.045461356     0.2401093   -0.4644861    -0.0000694    0.0010221    -0.0002427    0.0001338     0.1037154   -0.2866328 
   0.045561381     0.2390531   -0.4634759    -0.0002630    0.0005927    -0.0002286    0.0001878     0.1040146   -0.2856960 
   0.045661406     0.2398740   -0.4618373    -0.0001309   -0.0002133     0.0000263    0.0003036     0.1027235   -0.2855636 
   0.045761431     0.2401165   -0.4648428    -0.0005172    0.0005361     0.0002282    0.0002244     0.1025784   -0.2855229 
   0.045861456     0.2392449   -0.4621351     0.0001208    0.0004987    -0.0000974    0.0002660     0.1025925   -0.2852261 
   0.045961481     0.2361713   -0.4560320    -0.0005527   -0.0001173    -0.0001454    0.0001661     0.1022827   -0.2846430 
   0.046061506     0.2293285   -0.4638684    -0.0002577    0.0001392    -0.0002647    0.0002725     0.1020192   -0.2838845 
   0.046161531     0.2320977   -0.4594125    -0.0004217   -0.0001755    -0.0001248    0.0003918     0.1013929   -0.2843044 
   0.046261556     0.2340810   -0.4588256    -0.0003106    0.0000525    -0.0001421    0.0004726     0.1011245   -0.2830069 
   0.046361581     0.2336694   -0.4577737    -0.0008950    0.0003377    -0.0001494    0.0004972     0.1004763   -0.2830342 
   0.046461606     0.2255699   -0.4583554     0.0004871    0.0001282    -0.0001238    0.0003604     0.1011338   -0.2815588 
   0.046561631     0.2274697   -0.4591255    -0.0010774    0.0004765    -0.0002117    0.0001590     0.1002408   -0.2813354 
   0.046661656     0.2279329   -0.4567903     0.0003815    0.0006247    -0.0001041    0.0003896     0.0996226   -0.2815168 
   0.046761681     0.2259665   -0.4567746     0.0001092    0.0000006    -0.0001579    0.0003324     0.0988684   -0.2817674 
   0.046861706     0.2265196   -0.4573774    -0.0004392   -0.0000945    -0.0003092    0.0004951     0.0989104   -0.2809151 
   0.046961731     0.2284543   -0.4544922    -0.0006897    0.0010596    -0.0001498    0.0003549     0.0995542   -0.2805767 
   0.047061756     0.2256148   -0.4537247     0.0004900    0.0002445    -0.0000283    0.0004067     0.0986489   -0.2800829 
   0.047161781     0.2305116   -0.4567079    -0.0001014    0.0009145    -0.0002307    0.0002361     0.0986943   -0.2796274 
   0.047261806     0.2221390   -0.4551292    -0.0006971    0.0007387    -0.0002721    0.0003318     0.0978647   -0.2794780 
   0.047361831     0.2263800   -0.4565870     0.0003365    0.0005387    -0.0003056    0.0001558     0.0974633   -0.2797718 
   0.047461856     0.2226640   -0.4522223    -0.0004943    0.0001048    -0.0000413    0.0000818     0.0971687   -0.2788808 
   0.047561881     0.2221857   -0.4540046     0.0005174    0.0002000    -0.0000736    0.0002657     0.0979572   -0.2779091 
   0.047661906     0.2188296   -0.4506924     0.0000570    0.0002595    -0.0003642    0.0002209     0.0978061   -0.2778455 
   0.047761931     0.2196395   -0.4566442     0.0001047    0.0008217     0.0000352    0.0003753     0.0969826   -0.2765156 
   0.047861956     0.2203156   -0.4524452     0.0003059   -0.0000101    -0.0001770    0.0004421     0.0973399   -0.2768486 
   0.047961981     0.2163161   -0.4478863    -0.0003237    0.0005983    -0.0002096    0.0003290     0.0961625   -0.2763749 
   0.048062006     0.2176896   -0.4520148    -0.0004076    0.0010456     0.0000279    0.0005752     0.0953199   -0.2763188 
   0.048162031     0.2134358   -0.4530474    -0.0000710    0.0006533    -0.0002482    0.0002594     0.0950703   -0.2749829 
   0.048262056     0.2175622   -0.4494304    -0.0002418   -0.0000701    -0.0000414    0.0000161     0.0948428   -0.2764233 
   0.048362081     0.2130156   -0.4482510    -0.0006763    0.0003372     0.0000572    0.0001326     0.0959957   -0.2753630 
   0.048462106     0.2199234   -0.4500670    -0.0002586    0.0000440    -0.0003790    0.0003396     0.0945859   -0.2745432 
   0.048562131     0.2120461   -0.4505684    -0.0003949    0.0000780    -0.0001658    0.0003577     0.0946126   -0.2743826 
   0.048662156     0.2093647   -0.4474481    -0.0002500    0.0011197    -0.0001039    0.0004009     0.0940034   -0.2732345 
   0.048762181     0.2107249   -0.4463628    -0.0001344   -0.0006145    -0.0000129    0.0005021     0.0937504   -0.2725668 
   0.048862206     0.2081915   -0.4499376     0.0000447    0.0002635    -0.0000812    0.0002140     0.0938833   -0.2736998 
   0.048962231     0.2125088   -0.4480423     0.0003701    0.0007832    -0.0002524    0.0003626     0.0929037   -0.2729286 
   0.049062256     0.2072206   -0.4463392    -0.0002068   -0.0001195    -0.0000027    0.0002733     0.0929298   -0.2728658 
   0.049162281     0.2066912   -0.4458316     0.0002151    0.0005379    -0.0000729    0.0003687     0.0921043   -0.2721717 
   0.049262306     0.2075315   -0.4471698     0.0002627    0.0000885     0.0000687    0.0004405     0.0922992   -0.2718429 
   0.049362331     0.2089639   -0.4446538     0.0003547    0.0000388    -0.0000496    0.0004395     0.0935634   -0.2713490 
   0.049462356     0.2054124   -0.4429258    -0.0000058    0.0006763    -0.0002318    0.0003375     0.0912703   -0.2709824 
   0.049562381     0.2061349   -0.4476281    -0.0003281   -0.0002623    -0.0001247    0.0003018     0.0921005   -0.2703024 
   0.049662406     0.2035194   -0.4454697     0.0000923   -0.0000616    -0.0002367    0.0003576     0.0919220   -0.2704335 
   0.049762431     0.2029931   -0.4481137     0.0003160    0.0000572    -0.0001667    0.0003564     0.0910907   -0.2697760 
   0.049862456     0.1981185   -0.4396477    -0.0006588    0.0005445    -0.0000561    0.0001247     0.0905132   -0.2698464 
   0.049962481     0.2035581   -0.4456373    -0.0005049    0.0000594     0.0000388    0.0001278     0.0910752   -0.2696523 
   0.050062506     0.2035184   -0.4415735    -0.0001816    0.0004701    -0.0001357    0.0002009     0.0894425   -0.2682662 
   0.050162531     0.1951525   -0.4400958     0.0000343    0.0009779    -0.0002552    0.0004488     0.0906213   -0.2683918 
   0.050262556     0.2003007   -0.4421884     0.0002915    0.0004487     0.0000177    0.0004400     0.0895558   -0.2674043 
   0.050362581     0.1973150   -0.4402193    -0.0004230   -0.0001586    -0.0002331    0.0004662     0.0891231   -0.2681591 
   0.050462606     0.1944083   -0.4382752    -0.0001786    0.0007332    -0.0001916    0.0004113     0.0901718   -0.2671689 
   0.050562631     0.1940968   -0.4352828    -0.0006873    0.0000705    -0.0000429    0.0004664     0.0897868   -0.2670114 
   0.050662656     0.1936826   -0.4405930    -0.0003464    0.0000656    -0.0004372    0.0003510     0.0890899   -0.2662230 
   0.050762681     0.1925439   -0.4365618    -0.0002176    0.0015112    -0.0003109    0.0003562     0.0883323   -0.2665721 
   0.050862706     0.1951638   -0.4427813    -0.0002414   -0.0002902    -0.0001385    0.0001028     0.0880758   -0.2660517 
   0.050962731     0.1895399   -0.4351072    -0.0000236    0.0004610    -0.0001706    0.0002460     0.0881825   -0.2652250 
   0.051062756     0.1908932   -0.4430521     0.0000262    0.0002061    -0.0000897    0.0001846     0.0880250   -0.2650205 
   0.051162781     0.1953107   -0.4361873     0.0007375    0.0000139    -0.0001364    0.0003812     0.0879676   -0.2651026 
   0.051262806     0.1880343   -0.4354717    -0.0001717    0.0010092    -0.0000464    0.0002870     0.0863054   -0.2644992 
   0.051362831     0.1911981   -0.4365694     0.0002491    0.0004230    -0.0000961    0.0005607     0.0866276   -0.2641335 
   0.051462856     0.1910783   -0.4363370    -0.0004131    0.0000579     0.0000680    0.0003859     0.0875173   -0.2634106 
   0.051562881     0.1893739   -0.4355956    -0.0000462   -0.0000421    -0.0001643   -0.0000660     0.0866820   -0.2634040 
   0.051662906     0.1897495   -0.4359184    -0.0000025    0.0010180     0.0000155    0.0002846     0.0861753   -0.2626469 
   0.051762931     0.1851017   -0.4360495     0.0003258   -0.0002705    -0.0000161    0.0006137     0.0857201   -0.2635923 
   0.051862956     0.1852830   -0.4306637    -0.0004314    0.0000948    -0.0000935    0.0005712     0.0865699   -0.2625695 
   0.051962981     0.1866519   -0.4298237     0.0000652    0.0001037    -0.0001448    0.0000560     0.0869102   -0.2624305 
   0.052063007     0.1854782   -0.4301705     0.0001323    0.0007996    -0.0001412    0.0002105     0.0851121   -0.2612107 
   0.052163032     0.1905042   -0.4315435    -0.0005468    0.0003567    -0.0001975    0.0002351     0.0851905   -0.2610628 
   0.052263057     0.1830204   -0.4343995    -0.0005833    0.0005597    -0.0000967    0.0003542     0.0849724   -0.2607696 
   0.052363082     0.1824409   -0.4322335    -0.0000360    0.0002259    -0.0000599    0.0004408     0.0843642   -0.2610511 
   0.052463107     0.1849548   -0.4325861    -0.0000894    0.0010808    -0.0003924    0.0002747     0.0840855   -0.2611153 
   0.052563132     0.1855115   -0.4280294    -0.0013986    0.0000497    -0.0001481    0.0002401     0.0848294   -0.2598354 
   0.052663157     0.1823138   -0.4269382     0.0001802    0.0007042    -0.0001240    0.0005939     0.0835276   -0.2598796 
   0.052763182     0.1796295   -0.4339812     0.0001199    0.0004870    -0.0000615    0.0001408     0.0834913   -0.2592221 
   0.052863207     0.1848150   -0.4310961    -0.0005889    0.0009347    -0.0000426    0.0002399     0.0839552   -0.2595617 
   0.052963232     0.1793964   -0.4293091     0.0002023    0.0004638    -0.0000239    0.0003000     0.0831839   -0.2586638 
   0.053063257     0.1766749   -0.4256863     0.0000731   -0.0001367    -0.0001967   -0.0000041     0.0831486   -0.2576827 
   0.053163282     0.1759004   -0.4249738    -0.0003365    0.0003488    -0.0002090    0.0003093     0.0827626   -0.2579584 
   0.053263307     0.1775714   -0.4295288    -0.0002971    0.0013024    -0.0001643    0.0005217     0.0828156   -0.2578908 
   0.053363332     0.1769079   -0.4266444    -0.0001074    0.0008745    -0.0003939    0.0006870     0.0814025   -0.2566055 
   0.053463357     0.1753362   -0.4230882    -0.0001519    0.0008109     0.0000389    0.0003251     0.0820231   -0.2569433 
   0.053563382     0.1786265   -0.4284615    -0.0010633    0.0000897    -0.0001633    0.0004316     0.0812232   -0.2572871 
   0.053663407     0.1749303   -0.4257645     0.0000605   -0.0001408    -0.0002899    0.0003185     0.0816030   -0.2565916 
   0.053763432     0.1757552   -0.4235995    -0.0001388    0.0007597    -0.0000930    0.0002669     0.0818009   -0.2557011 
   0.053863457     0.1738797   -0.4253050    -0.0008201    0.0003007    -0.0000892    0.0004191     0.0808687   -0.2563125 
   0.053963482     0.1694071   -0.4226539     0.0002616    0.0003128    -0.0000716    0.0003331     0.0809578   -0.2552803 
   0.054063507     0.1736118   -0.4230598     0.0004243    0.0002589    -0.0001995    0.0005527     0.0810538   -0.2547549 
   0.054163532     0.1707236   -0.4164693     0.0004028   -0.0005099     0.0001071    0.0004829     0.0808050   -0.2552742 
   0.054263557     0.1704115   -0.4261487    -0.0005332   -0.0003323     0.0002659    0.0001343     0.0799585   -0.2548018 
   0.054363582     0.1657519   -0.4188169    -0.0002690    0.0007406    -0.0002607    0.0002430     0.0803157   -0.2542772 
   0.054463607     0.1692061   -0.4170748     0.0001673   -0.0000904    -0.0000697    0.0003411     0.0808071   -0.2535703 
   0.054563632     0.1698620   -0.4247919    -0.0003207   -0.0006053    -0.0002284    0.0003869     0.0798179   -0.2535849 
   0.054663657     0.1654542   -0.4205465     0.0003632   -0.0002805    -0.0000897    0.0000818     0.0794729   -0.2537176 
   0.054763682     0.1634931   -0.4218396    -0.0000642    0.0003388    -0.0002266    0.0002420     0.0790380   -0.2532008 
   0.054863707     0.1711623   -0.4237927    -0.0002691    0.0005604    -0.0002953    0.0004176     0.0796069   -0.2529820 
   0.054963732     0.1691332   -0.4190832     0.0003415    0.0006116    -0.0000398    0.0003876     0.0795528   -0.2525387 
   0.055063757     0.1664378   -0.4187759     0.0002216    0.0004964    -0.0002685    0.0002820     0.0792081   -0.2524492 
   0.055163782     0.1632296   -0.4171175    -0.0005294    0.0005018     0.0002158    0.0003331     0.0779051   -0.2511570 
   0.055263807     0.1624337   -0.4171152     0.0002917    0.0004523    -0.0004285    0.0003476     0.0779624   -0.2512096 
   0.055363832     0.1638287   -0.4145294    -0.0003488    0.0007835    -0.0000036    0.0003911     0.0782003   -0.2514898 
   0.055463857     0.1594152   -0.4123418    -0.0001481    0.0004366    -0.0000068    0.0005647     0.0778103   -0.2509429 
   0.055563882     0.1575199   -0.4148667     0.0001379    0.0003518    -0.0003035    0.0002869     0.0774312   -0.2494481 
   0.055663907     0.1615680   -0.4141069    -0.0003259    0.0001776    -0.0000386    0.0002985     0.0779851   -0.2499990 
   0.055763932     0.1597867   -0.4175762    -0.0003492    0.0009022    -0.0001690    0.0005736     0.0770169   -0.2501621 
   0.055863957     0.1575942   -0.4179862     0.0000005    0.0004432     0.0000197    0.0005343     0.0768564   -0.2501126 
   0.055963982     0.1563340   -0.4140653     0.0001896    0.0005847    -0.0002499    0.0005426     0.0763857   -0.2490514 
   0.056064007     0.1611630   -0.4110126    -0.0001075    0.0005851     0.0001453    0.0006910     0.0769283   -0.2487258 
   0.056164032     0.1535560   -0.4116051     0.0002298    0.0003419    -0.0002417    0.0005583     0.0766307   -0.2486681 
   0.056264057     0.1618340   -0.4137241     0.0000747    0.0002572    -0.0003619    0.0005841     0.0762068   -0.2483271 
   0.056364082     0.1530493   -0.4126862     0.0001176    0.0007198    -0.0002222    0.0004047     0.0762965   -0.2483329 
   0.056464107     0.1566279   -0.4115879    -0.0009464   -0.0000997    -0.0000550    0.0005676     0.0756094   -0.2481605 
   0.056564132     0.1563029   -0.4098494     0.0004086   -0.0002986    -0.0002009    0.0003716     0.0758061   -0.2466852 
   0.056664157     0.1533638   -0.4089130    -0.0003972    0.0001620    -0.0000756    0.0005129     0.0748976   -0.2468981 
   0.056764182     0.1543663   -0.4157920     0.0000676   -0.0000825    -0.0001392    0.0005014     0.0755930   -0.2472127 
   0.056864207     0.1529468   -0.4102124     0.0006816    0.0011270    -0.0002665    0.0004648     0.0750715   -0.2461601 
   0.056964232     0.1511334   -0.4126680     0.0005271   -0.0003427     0.0000407    0.0001509     0.0749236   -0.2468463 
   0.057064257     0.1549888   -0.4058963    -0.0003437    0.0002921    -0.0001518    0.0002323     0.0745716   -0.2461172 
   0.057164282     0.1514477   -0.4083128    -0.0003845   -0.0000068    -0.0002004    0.0004564     0.0741833   -0.2459900 
   0.057264307     0.1465338   -0.4076265     0.0005441    0.0010135    -0.0002630    0.0004063     0.0747018   -0.2458552 
   0.057364332     0.1513027   -0.4073358     0.0004613   -0.0000265    -0.0002071    0.0003472     0.0737360   -0.2450610 
   0.057464357     0.1528043   -0.4093530     0.0000378   -0.0005088     0.0000679    0.0005533     0.0737616   -0.2448073 
   0.057564382     0.1498288   -0.4072839    -0.0004646    0.0009521     0.0000171    0.0005760     0.0739133   -0.2452600 
   0.057664407     0.1460653   -0.4044996     0.0007282    0.0006023    -0.0000216    0.0003542     0.0743291   -0.2444163 
   0.057764432     0.1499217   -0.4030016    -0.0000040    0.0008132    -0.0000583    0.0004049     0.0736378   -0.2441912 
   0.057864457     0.1493675   -0.4085780    -0.0000738    0.0002666    -0.0000666    0.0002595     0.0732029   -0.2441282 
   0.057964482     0.1478869   -0.4012327     0.0003286    0.0009943     0.0001753    0.0002875     0.0722932   -0.2435177 
   0.058064507     0.1457266   -0.4034225     0.0003646    0.0007113    -0.0000242    0.0002664     0.0726411   -0.2431055 
   0.058164532     0.1475754   -0.4026534    -0.0002628    0.0006765    -0.0002413    0.0005265     0.0722843   -0.2431405 
   0.058264557     0.1445432   -0.4092923    -0.0004089    0.0005922    -0.0001639    0.0004296     0.0717215   -0.2431286 
   0.058364582     0.1446818   -0.3999058     0.0008301    0.0000528    -0.0002875    0.0001893     0.0724474   -0.2425563 
   0.058464607     0.1419713   -0.3984406     0.0008999    0.0002755    -0.0001714    0.0003342     0.0716261   -0.2426078 
   0.058564632     0.1428779   -0.4012991    -0.0002518    0.0008944    -0.0003463    0.0005166     0.0720877   -0.2424202 
   0.058664657     0.1491907   -0.4021306     0.0001301    0.0003558     0.0002507    0.0006478     0.0708796   -0.2416481 
   0.058764682     0.1437761   -0.4000182    -0.0010193    0.0001017    -0.0002267    0.0004913     0.0715169   -0.2418610 
   0.058864707     0.1413155   -0.4020043    -0.0001111   -0.0000196    -0.0000762   -0.0000492     0.0711145   -0.2415295 
   0.058964732     0.1429106   -0.3946827    -0.0000551    0.0003472     0.0000462    0.0004298     0.0709898   -0.2421046 
   0.059064757     0.1399150   -0.3975090    -0.0003877    0.0003494    -0.0002262    0.0004443     0.0711457   -0.2408390 
   0.059164782     0.1400868   -0.3958426     0.0006628   -0.0004167     0.0001308    0.0002315     0.0702809   -0.2408559 
   0.059264807     0.1368509   -0.3999882    -0.0004898    0.0003562    -0.0002751    0.0003346     0.0709896   -0.2407639 
   0.059364832     0.1365890   -0.3964055     0.0002514    0.0008243     0.0000257    0.0006106     0.0701057   -0.2400540 
   0.059464857     0.1417207   -0.3969801     0.0002989    0.0007194    -0.0002755    0.0006835     0.0694252   -0.2397337 
   0.059564882     0.1396054   -0.3981224     0.0000993    0.0003993    -0.0002302    0.0005251     0.0699212   -0.2393770 
   0.059664907     0.1322974   -0.3982453     0.0000523   -0.0000296    -0.0000309    0.0006886     0.0689121   -0.2395296 
   0.059764932     0.1386605   -0.3946501     0.0003830    0.0005821     0.0000496    0.0004626     0.0696272   -0.2390132 
   0.059864957     0.1386803   -0.3941650     0.0002137    0.0006692    -0.0002159    0.0006303     0.0698387   -0.2385959 
   0.059964982     0.1341385   -0.3973728     0.0002710    0.0008447     0.0003238    0.0005139     0.0701587   -0.2388760 
   0.060065008     0.1332259   -0.3953638    -0.0002666    0.0000303     0.0001184    0.0003762     0.0681026   -0.2381096 
   0.060165033     0.1347932   -0.3932221    -0.0001153    0.0006461     0.0001666    0.0004005     0.0692725   -0.2379963 
   0.060265058     0.1343102   -0.3950987     0.0001424    0.0003364    -0.0001466    0.0005645     0.0684780   -0.2371174 
   0.060365083     0.1328068   -0.3911150    -0.0002598    0.0001074    -0.0001028    0.0006135     0.0694671   -0.2369364 
   0.060465108     0.1334303   -0.3946321    -0.0005122    0.0007555    -0.0001447    0.0004064     0.0685509   -0.2372805 
   0.060565133     0.1305936   -0.3918755    -0.0000515   -0.0004429     0.0001419    0.0007658     0.0686442   -0.2369274 
   0.060665158     0.1287005   -0.3916517     0.0006912    0.0004796    -0.0001180    0.0005947     0.0683166   -0.2370940 
   0.060765183     0.1311717   -0.3908700    -0.0001277   -0.0001138     0.0001164    0.0002701     0.0685136   -0.2364657 
   0.060865208     0.1307858   -0.3920887    -0.0002827    0.0007953    -0.0001771    0.0003577     0.0679713   -0.2349828 
   0.060965233     0.1282803   -0.3909272    -0.0000898    0.0002928    -0.0000765    0.0005673     0.0677329   -0.2366314 
   0.061065258     0.1283344   -0.3932488     0.0005587    0.0005926    -0.0000240    0.0005168     0.0676842   -0.2349597 
   0.061165283     0.1265413   -0.3853546    -0.0003696    0.0005355     0.0000726    0.0003316     0.0670418   -0.2346694 
   0.061265308     0.1318322   -0.3857666     0.0005447    0.0006576     0.0000214    0.0006307     0.0680670   -0.2356077 
   0.061365333     0.1319767   -0.3910475     0.0001297    0.0004967    -0.0000375    0.0002809     0.0673278   -0.2338973 
   0.061465358     0.1261515   -0.3888058    -0.0000089    0.0007393    -0.0001514    0.0004582     0.0674242   -0.2344659 
   0.061565383     0.1301479   -0.3862683     0.0002615    0.0007181     0.0000665    0.0003795     0.0670630   -0.2339376 
   0.061665408     0.1254110   -0.3864333    -0.0002999   -0.0001135     0.0000833    0.0005660     0.0674964   -0.2338356 
   0.061765433     0.1245793   -0.3910689     0.0002067    0.0003747    -0.0003804    0.0005886     0.0658648   -0.2335134 
   0.061865458     0.1271764   -0.3849370     0.0005393    0.0004516     0.0002038    0.0005451     0.0661531   -0.2331744 
   0.061965483     0.1279144   -0.3844291    -0.0000475    0.0002073     0.0001507    0.0004206     0.0669580   -0.2332968 
   0.062065508     0.1271006   -0.3850372    -0.0003151    0.0000525     0.0003510    0.0008268     0.0661472   -0.2329511 
   0.062165533     0.1257487   -0.3866309    -0.0003592    0.0002967    -0.0000209    0.0004625     0.0657395   -0.2318690 
   0.062265558     0.1219983   -0.3870425     0.0000113    0.0007013    -0.0001958    0.0006361     0.0652313   -0.2323230 
   0.062365583     0.1231394   -0.3826556     0.0004881    0.0003834     0.0001665    0.0003680     0.0645930   -0.2323980 
   0.062465608     0.1258273   -0.3850927    -0.0004128   -0.0001071     0.0000119    0.0005012     0.0651439   -0.2322345 
   0.062565633     0.1195904   -0.3816527     0.0003458    0.0006530     0.0000247    0.0004040     0.0645358   -0.2322834 
   0.062665658     0.1251823   -0.3836565    -0.0008839    0.0004995    -0.0000701    0.0006688     0.0645004   -0.2318471 
   0.062765683     0.1210067   -0.3805166     0.0004117    0.0012652    -0.0001509    0.0005448     0.0646418   -0.2313213 
   0.062865708     0.1241174   -0.3797422     0.0006335    0.0005398    -0.0000338    0.0005966     0.0641466   -0.2319154 
   0.062965733     0.1215620   -0.3818307    -0.0009964    0.0004155    -0.0001071    0.0007560     0.0638455   -0.2313218 
   0.063065758     0.1206112   -0.3825115     0.0002181   -0.0005416     0.0000558    0.0004181     0.0645873   -0.2299689 
   0.063165783     0.1233275   -0.3763502    -0.0001394   -0.0005127     0.0001352    0.0005470     0.0641267   -0.2298035 
   0.063265808     0.1236772   -0.3756822    -0.0004111    0.0005142    -0.0001326    0.0001869     0.0635647   -0.2301929 
   0.063365833     0.1170566   -0.3825493     0.0000364   -0.0002990     0.0000135    0.0005510     0.0631406   -0.2295045 
   0.063465858     0.1179167   -0.3772591     0.0000976   -0.0001417     0.0003347    0.0004913     0.0634405   -0.2296110 
   0.063565883     0.1168322   -0.3785389    -0.0000499    0.0000614    -0.0002611    0.0003121     0.0637018   -0.2296893 
   0.063665908     0.1152642   -0.3782755    -0.0000674    0.0010234     0.0001263    0.0003968     0.0629639   -0.2290421 
   0.063765933     0.1175652   -0.3756375     0.0000262    0.0000914    -0.0003457    0.0001986     0.0622644   -0.2289080 
   0.063865958     0.1178544   -0.3771882    -0.0005034   -0.0002513     0.0000892    0.0004883     0.0631515   -0.2281380 
   0.063965983     0.1116177   -0.3756173     0.0000517    0.0006304     0.0001328    0.0004292     0.0624631   -0.2294772 
   0.064066008     0.1135172   -0.3766592     0.0005859    0.0007026     0.0000701    0.0002795     0.0623564   -0.2287360 
   0.064166033     0.1137168   -0.3776945     0.0002155   -0.0003465     0.0001042    0.0004367     0.0626379   -0.2282533 
   0.064266058     0.1164797   -0.3758506     0.0001101    0.0002251    -0.0000192    0.0002708     0.0621737   -0.2276378 
   0.064366083     0.1143390   -0.3785510     0.0002455    0.0003836    -0.0001632    0.0004026     0.0617428   -0.2273856 
   0.064466108     0.1147979   -0.3742358    -0.0000105    0.0006282    -0.0000590    0.0007864     0.0619071   -0.2274442 
   0.064566133     0.1148298   -0.3740479     0.0006779    0.0008438    -0.0000748    0.0003657     0.0625237   -0.2266525 
   0.064666158     0.1117700   -0.3737650    -0.0003040    0.0002856    -0.0001063    0.0006627     0.0623121   -0.2269301 
   0.064766183     0.1118507   -0.3710532    -0.0000096    0.0005720     0.0000509    0.0001821     0.0620952   -0.2277478 
   0.064866208     0.1076304   -0.3776477     0.0000906    0.0007704    -0.0002077    0.0004512     0.0617627   -0.2266090 
   0.064966233     0.1143104   -0.3749697     0.0001341    0.0005070    -0.0001050    0.0002287     0.0614669   -0.2266508 
   0.065066258     0.1122269   -0.3719391     0.0002972   -0.0001138    -0.0001578    0.0003775     0.0607058   -0.2260523 
   0.065166283     0.1101495   -0.3686078     0.0001808    0.0006360     0.0002564    0.0004547     0.0610592   -0.2261393 
   0.065266308     0.1118379   -0.3711334     0.0004479    0.0011267    -0.0000925    0.0002939     0.0612191   -0.2259467 
   0.065366333     0.1095734   -0.3710688     0.0002281    0.0001478     0.0001606    0.0003638     0.0603525   -0.2251629 
   0.065466358     0.1088251   -0.3751143    -0.0001738    0.0012171     0.0000708    0.0005186     0.0606205   -0.2249843 
   0.065566383     0.1079280   -0.3699118    -0.0003372    0.0009415    -0.0001016    0.0004487     0.0596982   -0.2257763 
   0.065666408     0.1032441   -0.3676998     0.0002418    0.0006022     0.0000664    0.0006670     0.0596542   -0.2253455 
   0.065766433     0.1119053   -0.3664542     0.0000306   -0.0000291    -0.0000730    0.0001672     0.0605007   -0.2242853 
   0.065866458     0.1065219   -0.3696649    -0.0000536    0.0001939    -0.0004341    0.0007264     0.0606616   -0.2244576 
   0.065966483     0.1061102   -0.3635993    -0.0000688    0.0012469     0.0000131    0.0004325     0.0594740   -0.2237722 
   0.066066508     0.1049093   -0.3660191     0.0006421    0.0005584    -0.0002394    0.0006647     0.0593025   -0.2238681 
   0.066166533     0.1107317   -0.3656787    -0.0002654    0.0004718    -0.0001651    0.0004870     0.0586043   -0.2239880 
   0.066266558     0.1049287   -0.3667188     0.0008064    0.0005986     0.0001337    0.0007136     0.0593969   -0.2235172 
   0.066366583     0.1053582   -0.3643099    -0.0004077    0.0003185    -0.0002028    0.0005584     0.0592616   -0.2234164 
   0.066466608     0.1050710   -0.3665237     0.0003313    0.0004063    -0.0000520    0.0007565     0.0588670   -0.2234933 
   0.066566633     0.1027426   -0.3617027    -0.0003020    0.0001536     0.0000804    0.0008640     0.0584282   -0.2229790 
   0.066666658     0.1081902   -0.3625778     0.0007407    0.0009703     0.0000747    0.0003584     0.0592547   -0.2220176 
   0.066766683     0.1021547   -0.3656783    -0.0005628    0.0003222     0.0000262    0.0004252     0.0580948   -0.2229637 
   0.066866708     0.1068752   -0.3680599     0.0002108    0.0002547    -0.0000323    0.0005820     0.0584598   -0.2223911 
   0.066966733     0.1032400   -0.3634259     0.0002123   -0.0009201    -0.0000151    0.0005128     0.0586899   -0.2222112 
   0.067066758     0.1026982   -0.3665106     0.0001420   -0.0003588    -0.0000685    0.0006467     0.0574389   -0.2217690 
   0.067166783     0.1000656   -0.3643543    -0.0003688   -0.0000927    -0.0000562    0.0006491     0.0575569   -0.2215744 
   0.067266808     0.1020033   -0.3613124     0.0001246    0.0008426    -0.0001599    0.0004809     0.0576047   -0.2219325 
   0.067366833     0.1039984   -0.3604553     0.0000133    0.0005727    -0.0001091    0.0006106     0.0581977   -0.2212369 
   0.067466858     0.1018123   -0.3591053     0.0004037    0.0008538     0.0000429    0.0004404     0.0568919   -0.2208490 
   0.067566883     0.1004691   -0.3621453     0.0004685    0.0008723    -0.0001018    0.0007189     0.0580863   -0.2204939 
   0.067666908     0.1008501   -0.3589663    -0.0009374    0.0008697     0.0002317    0.0003886     0.0578691   -0.2216320 
   0.067766933     0.0967755   -0.3617178    -0.0002338    0.0008092    -0.0000601    0.0005348     0.0577344   -0.2210427 
   0.067866958     0.1017818   -0.3595451     0.0003102    0.0000878     0.0001650    0.0004682     0.0572702   -0.2201976 
   0.067966983     0.0985050   -0.3600243    -0.0006482    0.0007060     0.0000769    0.0003795     0.0563138   -0.2199651 
   0.068067009     0.0955435   -0.3609951     0.0001020    0.0001082     0.0002078    0.0002096     0.0568349   -0.2197115 
   0.068167034     0.0937979   -0.3565837     0.0004659   -0.0002328    -0.0001566    0.0003440     0.0557195   -0.2202855 
   0.068267059     0.0963583   -0.3576038    -0.0001026    0.0003488     0.0003425    0.0006931     0.0574868   -0.2198226 
   0.068367084     0.0958868   -0.3558823    -0.0003123    0.0002808     0.0001920    0.0006320     0.0565922   -0.2195507 
   0.068467109     0.0975950   -0.3547636    -0.0004191    0.0007954     0.0001662    0.0005916     0.0561338   -0.2192671 
   0.068567134     0.0969613   -0.3565648     0.0006496    0.0010668    -0.0001792    0.0006595     0.0560234   -0.2197629 
   0.068667159     0.0986891   -0.3578259    -0.0000250   -0.0000379    -0.0001758    0.0002989     0.0559914   -0.2191198 
   0.068767184     0.0949234   -0.3595248    -0.0000746    0.0005057     0.0000379    0.0005470     0.0564108   -0.2189959 
   0.068867209     0.0937619   -0.3551798     0.0002854    0.0002596    -0.0001746    0.0009542     0.0559709   -0.2185057 
   0.068967234     0.0973802   -0.3539907     0.0001001    0.0004202     0.0000813    0.0004159     0.0554760   -0.2180277 
   0.069067259     0.0928910   -0.3560716     0.0002789    0.0000831     0.0000339    0.0005691     0.0548789   -0.2181279 
   0.069167284     0.0923120   -0.3563256     0.0000284    0.0011943     0.0000949    0.0006490     0.0555932   -0.2180174 
   0.069267309     0.0943013   -0.3536374     0.0000045    0.0009927    -0.0000948    0.0006075     0.0557570   -0.2182545 
   0.069367334     0.0921567   -0.3529187    -0.0005193    0.0007105     0.0002135    0.0007313     0.0547252   -0.2178873 
   0.069467359     0.0926791   -0.3526503    -0.0008898    0.0003953     0.0000950    0.0008202     0.0551099   -0.2173370 
   0.069567384     0.0921477   -0.3489531    -0.0003198    0.0008643    -0.0000166    0.0004588     0.0539763   -0.2179499 
   0.069667409     0.0959087   -0.3526308    -0.0002059    0.0010220    -0.0001040    0.0008583     0.0550386   -0.2166141 
   0.069767434     0.0905931   -0.3492037    -0.0004633    0.0004200     0.0000183    0.0005989     0.0547823   -0.2172552 
   0.069867459     0.0917246   -0.3498788     0.0007625    0.0002371     0.0000785    0.0006993     0.0544238   -0.2166713 
   0.069967484     0.0930267   -0.3494030    -0.0000211    0.0007004     0.0000716    0.0008893     0.0540585   -0.2170116 
   0.070067509     0.0914627   -0.3488124     0.0001375    0.0003037     0.0000603    0.0007067     0.0546400   -0.2159646 
   0.070167534     0.0910787   -0.3487670     0.0002988    0.0001087     0.0002480    0.0002750     0.0539299   -0.2154778 
   0.070267559     0.0895284   -0.3488131    -0.0003699    0.0006303    -0.0001392    0.0007090     0.0536642   -0.2155380 
   0.070367584     0.0914036   -0.3441090    -0.0000833    0.0010022    -0.0004375    0.0004779     0.0537237   -0.2163629 
   0.070467609     0.0886785   -0.3493764     0.0004382    0.0006504     0.0003281    0.0005642     0.0527534   -0.2151184 
   0.070567634     0.0873990   -0.3489037    -0.0005043    0.0012774    -0.0001432    0.0009137     0.0533206   -0.2146598 
   0.070667659     0.0895925   -0.3473936    -0.0000116    0.0002620     0.0001219    0.0007470     0.0527223   -0.2146813 
   0.070767684     0.0881457   -0.3476697    -0.0002746    0.0002837    -0.0000268    0.0007441     0.0527459   -0.2148142 
   0.070867709     0.0899065   -0.3495311     0.0008038    0.0001239     0.0003984    0.0005634     0.0528006   -0.2147685 
   0.070967734     0.0891713   -0.3464178     0.0002976    0.0006208    -0.0000396    0.0005110     0.0533363   -0.2155282 
   0.071067759     0.0855413   -0.3462827     0.0004287    0.0006999    -0.0000724    0.0005308     0.0531540   -0.2143837 
   0.071167784     0.0875782   -0.3448597    -0.0003275    0.0000603    -0.0001952    0.0002896     0.0532065   -0.2137478 
   0.071267809     0.0873613   -0.3475355     0.0004699    0.0006745    -0.0000350    0.0003788     0.0526554   -0.2141006 
   0.071367834     0.0844996   -0.3437489     0.0004168    0.0004493     0.0000645    0.0004260     0.0531921   -0.2136232 
   0.071467859     0.0860361   -0.3456506    -0.0000138    0.0009378    -0.0000431    0.0003598     0.0516889   -0.2128128 
   0.071567884     0.0855040   -0.3408522    -0.0003773   -0.0003413    -0.0000396    0.0007653     0.0520783   -0.2122673 
   0.071667909     0.0839497   -0.3449014    -0.0000831    0.0005560    -0.0001517    0.0003409     0.0521443   -0.2127379 
   0.071767934     0.0855094   -0.3416947     0.0006387    0.0000278     0.0001663    0.0004380     0.0522618   -0.2126860 
   0.071867959     0.0866303   -0.3439477    -0.0000812    0.0004408    -0.0000101    0.0006291     0.0514068   -0.2124358 
   0.071967984     0.0834517   -0.3425694    -0.0001720    0.0008552    -0.0001484    0.0004719     0.0516221   -0.2124855 
   0.072068009     0.0823973   -0.3454306     0.0005376    0.0007564     0.0000119    0.0005359     0.0520185   -0.2120571 
   0.072168034     0.0842690   -0.3433114    -0.0006719   -0.0000373    -0.0001393    0.0005049     0.0513117   -0.2127447 
   0.072268059     0.0812473   -0.3370039     0.0003349    0.0008690    -0.0000924    0.0003861     0.0511955   -0.2106948 
   0.072368084     0.0827613   -0.3392880     0.0003623    0.0004128     0.0002966    0.0004364     0.0515880   -0.2122677 
   0.072468109     0.0853384   -0.3376759     0.0006259    0.0002422     0.0001748    0.0006365     0.0506822   -0.2117461 
   0.072568134     0.0796839   -0.3413062     0.0000619    0.0006327     0.0000413    0.0006059     0.0520727   -0.2111021 
   0.072668159     0.0842710   -0.3405642     0.0006152    0.0001116    -0.0000280    0.0007727     0.0512004   -0.2107286 
   0.072768184     0.0807022   -0.3380917     0.0000076   -0.0000115     0.0001393    0.0004688     0.0505462   -0.2112686 
   0.072868209     0.0792218   -0.3405493     0.0002903    0.0006586     0.0004165    0.0004633     0.0500337   -0.2109885 
   0.072968234     0.0819866   -0.3389474    -0.0001906    0.0003139     0.0001465    0.0008187     0.0510272   -0.2108400 
   0.073068259     0.0796869   -0.3358539     0.0002060    0.0003043     0.0000423    0.0004640     0.0508834   -0.2106034 
   0.073168284     0.0788227   -0.3364899    -0.0003540    0.0005879    -0.0001276    0.0007250     0.0502869   -0.2107768 
   0.073268309     0.0810410   -0.3390830     0.0004216    0.0008330    -0.0003748    0.0004942     0.0501705   -0.2099930 
   0.073368334     0.0821812   -0.3325914    -0.0000639    0.0006408     0.0000718    0.0004059     0.0496424   -0.2103108 
   0.073468359     0.0779209   -0.3343368    -0.0001578    0.0001635    -0.0000909    0.0005321     0.0496252   -0.2099146 
   0.073568384     0.0808397   -0.3337492     0.0002002    0.0001148     0.0001831    0.0004770     0.0486604   -0.2100132 
   0.073668409     0.0820348   -0.3373040    -0.0001893    0.0010423    -0.0000727    0.0005488     0.0496002   -0.2101055 
   0.073768434     0.0775787   -0.3361956     0.0004612    0.0004268    -0.0001576    0.0005648     0.0501250   -0.2095655 
   0.073868459     0.0793652   -0.3340221    -0.0000552    0.0004231    -0.0001334    0.0006367     0.0489679   -0.2095650 
   0.073968484     0.0787712   -0.3338870     0.0000627    0.0007550     0.0001943    0.0005459     0.0495571   -0.2093010 
   0.074068509     0.0748469   -0.3318335     0.0000342    0.0006396     0.0000844    0.0006066     0.0488524   -0.2095298 
   0.074168534     0.0767910   -0.3317081     0.0000956    0.0013967     0.0002465    0.0005774     0.0491508   -0.2090921 
   0.074268559     0.0736659   -0.3338136    -0.0000978    0.0006914     0.0002421    0.0006750     0.0489079   -0.2093715 
   0.074368584     0.0765404   -0.3339977     0.0000068    0.0002450    -0.0000052    0.0004499     0.0496592   -0.2092143 
   0.074468609     0.0736960   -0.3342658    -0.0000965    0.0004412    -0.0000218    0.0004441     0.0488055   -0.2074694 
   0.074568634     0.0778161   -0.3337719     0.0004214    0.0013467     0.0001927    0.0008615     0.0482567   -0.2076973 
   0.074668659     0.0747148   -0.3319589     0.0003095   -0.0002314     0.0000854    0.0004223     0.0483515   -0.2085433 
   0.074768684     0.0789860   -0.3297473    -0.0001090    0.0006357    -0.0001722    0.0003834     0.0475983   -0.2081786 
   0.074868709     0.0739503   -0.3305869    -0.0003180    0.0006518     0.0001558    0.0005799     0.0479043   -0.2076754 
   0.074968734     0.0732912   -0.3301999    -0.0000346    0.0006240     0.0001530    0.0006284     0.0484051   -0.2079679 
   0.075068759     0.0732289   -0.3312937     0.0005180    0.0003042    -0.0002365    0.0004519     0.0476919   -0.2074243 
   0.075168784     0.0751706   -0.3300816    -0.0000619    0.0004610     0.0001215    0.0003346     0.0488344   -0.2071324 
   0.075268809     0.0726104   -0.3294823    -0.0001076    0.0008435    -0.0000022    0.0004437     0.0476308   -0.2070947 
   0.075368834     0.0740334   -0.3294482     0.0002528    0.0005328     0.0001470    0.0004683     0.0476703   -0.2067948 
   0.075468859     0.0723937   -0.3279405    -0.0006238    0.0008276     0.0001629    0.0006218     0.0468826   -0.2061320 
   0.075568884     0.0755257   -0.3275720    -0.0003396    0.0006560     0.0002501    0.0005368     0.0483855   -0.2070269 
   0.075668909     0.0720409   -0.3250990    -0.0003155    0.0006688     0.0000933    0.0005306     0.0469606   -0.2061567 
   0.075768934     0.0700636   -0.3288998     0.0002251    0.0005588     0.0000131    0.0005964     0.0474584   -0.2064954 
   0.075868959     0.0719026   -0.3251415     0.0001677   -0.0003530     0.0001228    0.0004725     0.0473102   -0.2064662 
   0.075968984     0.0706633   -0.3286797    -0.0001964    0.0006149     0.0000416    0.0005156     0.0468084   -0.2047883 
   0.076069010     0.0714092   -0.3273442    -0.0003596    0.0005992     0.0002421    0.0004918     0.0463225   -0.2056419 
   0.076169035     0.0696724   -0.3269390     0.0004518    0.0008280    -0.0002451    0.0007090     0.0461940   -0.2054645 
   0.076269060     0.0728759   -0.3243737     0.0001243    0.0008291     0.0000968    0.0003344     0.0459075   -0.2057886 
   0.076369085     0.0703571   -0.3240470     0.0001858    0.0007949    -0.0001726    0.0005264     0.0471722   -0.2060192 
   0.076469110     0.0664999   -0.3256377     0.0001909    0.0012870     0.0002798    0.0004414     0.0461732   -0.2053578 
   0.076569135     0.0694246   -0.3220923    -0.0001652    0.0009056    -0.0002958    0.0002018     0.0461150   -0.2051234 
   0.076669160     0.0682507   -0.3215182     0.0002253    0.0008426     0.0001774    0.0007431     0.0452871   -0.2052529 
   0.076769185     0.0676611   -0.3208180    -0.0003208    0.0008906     0.0000332    0.0007171     0.0457843   -0.2043795 
   0.076869210     0.0717681   -0.3237733     0.0001741    0.0006221    -0.0002655    0.0006730     0.0459788   -0.2041704 
   0.076969235     0.0665071   -0.3232628    -0.0002183    0.0008420    -0.0002739    0.0006854     0.0465102   -0.2047808 
   0.077069260     0.0687817   -0.3183275     0.0002584    0.0004621     0.0000171    0.0005501     0.0452086   -0.2047767 
   0.077169285     0.0697526   -0.3218817    -0.0003901    0.0007792     0.0000192    0.0004497     0.0457541   -0.2041380 
   0.077269310     0.0700266   -0.3200875    -0.0000189    0.0006178    -0.0000482    0.0009047     0.0449586   -0.2039380 
   0.077369335     0.0685237   -0.3210736    -0.0000903    0.0004212     0.0000555    0.0005626     0.0458305   -0.2031619 
   0.077469360     0.0681975   -0.3201879     0.0005076    0.0009560     0.0002190    0.0008661     0.0451661   -0.2042997 
   0.077569385     0.0661521   -0.3212072    -0.0004122    0.0011159    -0.0000167    0.0004775     0.0454176   -0.2033041 
   0.077669410     0.0653748   -0.3201347     0.0000454    0.0008249     0.0000765    0.0003850     0.0452792   -0.2044170 
   0.077769435     0.0650118   -0.3182988     0.0000734    0.0009950     0.0001103    0.0005360     0.0461918   -0.2032023 
   0.077869460     0.0658613   -0.3177083     0.0000123    0.0007656     0.0001813    0.0005883     0.0445820   -0.2036961 
   0.077969485     0.0668279   -0.3215807     0.0003033    0.0003996     0.0001149    0.0004690     0.0448991   -0.2035564 
   0.078069510     0.0636168   -0.3201038     0.0000002    0.0004672     0.0002301    0.0006485     0.0436799   -0.2028605 
   0.078169535     0.0652911   -0.3189680     0.0004956    0.0000721     0.0001749    0.0003909     0.0439743   -0.2032963 
   0.078269560     0.0647866   -0.3184699    -0.0000597    0.0006657    -0.0002689    0.0007868     0.0442665   -0.2026040 
   0.078369585     0.0653659   -0.3156537    -0.0002454    0.0008650     0.0001556    0.0005724     0.0441107   -0.2024234 
   0.078469610     0.0633066   -0.3169301    -0.0002667    0.0000632    -0.0001839    0.0007871     0.0439170   -0.2027549 
   0.078569635     0.0622135   -0.3164541     0.0004516    0.0001270     0.0001965    0.0007535     0.0438614   -0.2025061 
   0.078669660     0.0642609   -0.3143030     0.0000125    0.0008520     0.0000158    0.0006176     0.0432156   -0.2015798 
   0.078769685     0.0648947   -0.3157781    -0.0001342    0.0008318    -0.0001023    0.0006315     0.0437842   -0.2022816 
   0.078869710     0.0615338   -0.3160493    -0.0001230    0.0004629    -0.0000430    0.0006642     0.0436693   -0.2015344 
   0.078969735     0.0653499   -0.3164932    -0.0002314    0.0006599     0.0001107    0.0005032     0.0435432   -0.1999038 
   0.079069760     0.0642569   -0.3145249     0.0006525    0.0006936     0.0000385    0.0002921     0.0432980   -0.2017433 
   0.079169785     0.0612746   -0.3131201     0.0002560    0.0007767    -0.0001686    0.0005487     0.0428688   -0.2011120 
   0.079269810     0.0625693   -0.3135478    -0.0002567    0.0009239    -0.0000108    0.0005509     0.0427588   -0.2013972 
   0.079369835     0.0668675   -0.3121786    -0.0003157    0.0003424     0.0001318    0.0007589     0.0432629   -0.2009487 
   0.079469860     0.0609039   -0.3111909    -0.0005524    0.0004160     0.0000386    0.0008131     0.0430744   -0.2001454 
   0.079569885     0.0608797   -0.3108565     0.0001939    0.0011829     0.0001781    0.0005080     0.0430420   -0.2004060 
   0.079669910     0.0619935   -0.3133190     0.0001900    0.0001664     0.0001070    0.0006112     0.0430327   -0.2007807 
   0.079769935     0.0615350   -0.3117577    -0.0003116    0.0006496     0.0001754    0.0010589     0.0429717   -0.2004227 
   0.079869960     0.0613336   -0.3116732     0.0001399    0.0005893     0.0000428    0.0003864     0.0429597   -0.2005183 
   0.079969985     0.0619262   -0.3139972     0.0002023    0.0003237     0.0000380    0.0008090     0.0434942   -0.1999981 
   0.080070010     0.0637270   -0.3114696     0.0003799    0.0002069     0.0000130    0.0004543     0.0425328   -0.1995209 
   0.080170035     0.0625952   -0.3107410     0.0002894    0.0007785     0.0000945    0.0003389     0.0417446   -0.2002206 
   0.080270060     0.0598381   -0.3099947     0.0002887    0.0002483    -0.0000158    0.0006152     0.0418951   -0.1991881 
   0.080370085     0.0595922   -0.3098418     0.0001440    0.0007081     0.0000795    0.0004901     0.0414470   -0.2001804 
   0.080470110     0.0598412   -0.3108042     0.0005691    0.0008835     0.0000713    0.0004290     0.0418858   -0.1991246 
   0.080570135     0.0595784   -0.3119646     0.0004659    0.0006023     0.0003607    0.0005493     0.0426692   -0.1999184 
   0.080670160     0.0584906   -0.3100133     0.0000342    0.0002544     0.0001425    0.0005003     0.0416402   -0.1997235 
   0.080770185     0.0574798   -0.3096254    -0.0003002    0.0005649     0.0000737    0.0008156     0.0416681   -0.1999777 
   0.080870210     0.0563755   -0.3091530     0.0000937    0.0007408     0.0000466    0.0005905     0.0412556   -0.1993654 
   0.080970235     0.0594938   -0.3104144     0.0000779    0.0001676     0.0001640    0.0005648     0.0415574   -0.1998494 
   0.081070260     0.0567644   -0.3050298    -0.0002139    0.0008338     0.0002671    0.0005747     0.0421749   -0.1992273 
   0.081170285     0.0577944   -0.3079269     0.0000120    0.0007076     0.0001724    0.0005934     0.0414067   -0.1985366 
   0.081270310     0.0565092   -0.3089683     0.0002937    0.0005523    -0.0000340    0.0005554     0.0414878   -0.1980353 
   0.081370335     0.0587088   -0.3059866     0.0003321    0.0009209     0.0002631    0.0005031     0.0401853   -0.1988801 
   0.081470360     0.0560441   -0.3084395     0.0001250    0.0003759    -0.0001425    0.0002831     0.0412192   -0.1985893 
   0.081570385     0.0574509   -0.3040772     0.0004756    0.0009201     0.0002950    0.0005537     0.0401178   -0.1981760 
   0.081670410     0.0575889   -0.3028370     0.0001270    0.0007856     0.0000401    0.0006903     0.0403766   -0.1974167 
   0.081770435     0.0564217   -0.3048128    -0.0004306   -0.0000512     0.0001256    0.0006135     0.0404728   -0.1976511 
   0.081870460     0.0568498   -0.3043481     0.0003727    0.0006285     0.0002774    0.0007582     0.0403222   -0.1976532 
   0.081970485     0.0578575   -0.3032128    -0.0003191    0.0008362     0.0002134    0.0006355     0.0403355   -0.1977231 
   0.082070510     0.0565590   -0.3033215    -0.0000811    0.0007732     0.0001251    0.0005114     0.0389007   -0.1981054 
   0.082170535     0.0534258   -0.3040071     0.0002467    0.0005478     0.0001766    0.0004827     0.0391791   -0.1979223 
   0.082270560     0.0553651   -0.3029401     0.0000346    0.0010364    -0.0000468    0.0007831     0.0405589   -0.1969806 
   0.082370585     0.0541298   -0.3030584    -0.0001659    0.0005801     0.0001383    0.0006880     0.0400772   -0.1974878 
   0.082470610     0.0538696   -0.3032165     0.0000291    0.0006608    -0.0001004    0.0007005     0.0400825   -0.1974396 
   0.082570635     0.0513220   -0.3009589     0.0002093    0.0004425     0.0001195    0.0005728     0.0394600   -0.1965449 
   0.082670660     0.0524667   -0.3006009     0.0004455    0.0005816    -0.0000151    0.0006616     0.0394057   -0.1964371 
   0.082770685     0.0519034   -0.3002063     0.0000701    0.0007071     0.0001804    0.0004633     0.0388531   -0.1954884 
   0.082870710     0.0532006   -0.3018784     0.0004759    0.0003987     0.0001789    0.0007276     0.0389529   -0.1958697 
   0.082970735     0.0525596   -0.3005016    -0.0001922    0.0009672    -0.0000012    0.0006537     0.0391136   -0.1968857 
   0.083070760     0.0516625   -0.3003578    -0.0000793    0.0009491     0.0000621    0.0008216     0.0395335   -0.1966473 
   0.083170785     0.0528116   -0.3005452    -0.0002568    0.0006806     0.0001161    0.0005497     0.0387790   -0.1965885 
   0.083270810     0.0525481   -0.3004208     0.0001254    0.0004512     0.0000178    0.0007236     0.0387785   -0.1951554 
   0.083370835     0.0502652   -0.2977352     0.0000257    0.0004189    -0.0000275    0.0007413     0.0387881   -0.1953106 
   0.083470860     0.0496909   -0.2980984    -0.0001289    0.0004968     0.0000550    0.0004858     0.0385325   -0.1954105 
   0.083570885     0.0510490   -0.2959652    -0.0000553    0.0006090     0.0002119    0.0006400     0.0390467   -0.1957118 
   0.083670910     0.0538707   -0.2981047    -0.0001151    0.0008390     0.0002213    0.0007437     0.0377883   -0.1955344 
   0.083770935     0.0504252   -0.2949214     0.0003281    0.0006097     0.0001168    0.0006436     0.0387303   -0.1952406 
   0.083870960     0.0501996   -0.2975045     0.0002637    0.0008377    -0.0000390    0.0004647     0.0376600   -0.1953210 
   0.083970985     0.0518820   -0.2949484     0.0000104    0.0008582     0.0000709    0.0005045     0.0370914   -0.1955588 
   0.084071011     0.0494334   -0.2979234    -0.0002678    0.0007500     0.0002050    0.0006824     0.0373941   -0.1949281 
   0.084171036     0.0530015   -0.2959439     0.0002806    0.0004268     0.0000496    0.0006666     0.0383294   -0.1946582 
   0.084271061     0.0506774   -0.2950279     0.0007641    0.0003448     0.0002453    0.0004867     0.0382319   -0.1939370 
   0.084371086     0.0496486   -0.2957819     0.0002758    0.0009937     0.0000482    0.0008535     0.0380361   -0.1950056 
   0.084471111     0.0501038   -0.2969373    -0.0002357    0.0008211     0.0000553    0.0005987     0.0371460   -0.1940977 
   0.084571136     0.0518244   -0.2969812     0.0003135    0.0006063     0.0000206    0.0003156     0.0374845   -0.1939588 
   0.084671161     0.0480135   -0.2922576     0.0001317    0.0003086     0.0002194    0.0007626     0.0377531   -0.1948524 
   0.084771186     0.0497541   -0.2931319     0.0004291    0.0000152     0.0000298    0.0004345     0.0367084   -0.1936761 
   0.084871211     0.0486180   -0.2964197    -0.0004068    0.0003079     0.0000549    0.0003971     0.0376541   -0.1934576 
   0.084971236     0.0486161   -0.2923049     0.0000590    0.0003991     0.0002119    0.0006219     0.0371668   -0.1941040 
   0.085071261     0.0508185   -0.2945172     0.0002587    0.0004247     0.0001123    0.0004694     0.0365239   -0.1940709 
   0.085171286     0.0457653   -0.2929340     0.0000599    0.0007613     0.0002050    0.0007091     0.0356231   -0.1938269 
   0.085271311     0.0466989   -0.2943752     0.0003504    0.0009104     0.0001111    0.0005906     0.0369998   -0.1937367 
   0.085371336     0.0469309   -0.2910314     0.0000401    0.0012177     0.0000879    0.0004833     0.0371834   -0.1934639 
   0.085471361     0.0481018   -0.2906770    -0.0000286    0.0004178     0.0002421    0.0006692     0.0362188   -0.1933139 
   0.085571386     0.0472521   -0.2917517     0.0002359    0.0003122     0.0002354    0.0007006     0.0365490   -0.1935240 
   0.085671411     0.0443741   -0.2902266     0.0003792    0.0004055     0.0004063    0.0005498     0.0361638   -0.1927471 
   0.085771436     0.0488648   -0.2919490     0.0001641    0.0003853     0.0004254    0.0006288     0.0360771   -0.1936957 
   0.085871461     0.0474258   -0.2918056    -0.0004490    0.0006017     0.0002717    0.0006685     0.0358592   -0.1936305 
   0.085971486     0.0479243   -0.2932786    -0.0003102    0.0005726     0.0001515    0.0007208     0.0361502   -0.1922510 
   0.086071511     0.0455957   -0.2910973    -0.0002335    0.0008863     0.0002579    0.0006586     0.0361955   -0.1927652 
   0.086171536     0.0454608   -0.2907133     0.0000508    0.0009004     0.0003097    0.0004637     0.0358882   -0.1926533 
   0.086271561     0.0475411   -0.2904546    -0.0000744    0.0010735     0.0002706    0.0007701     0.0357414   -0.1928323 
   0.086371586     0.0437236   -0.2909035     0.0000689    0.0003811     0.0002672    0.0005818     0.0353387   -0.1929770 
   0.086471611     0.0457237   -0.2884932    -0.0001828    0.0002527     0.0001792    0.0004385     0.0362157   -0.1920287 
   0.086571636     0.0442144   -0.2898455     0.0005222    0.0012174     0.0000932    0.0005639     0.0354430   -0.1916428 
   0.086671661     0.0447401   -0.2876434     0.0000860    0.0005970    -0.0000213    0.0005071     0.0348416   -0.1915839 
   0.086771686     0.0457853   -0.2887955     0.0002112    0.0007336    -0.0000543    0.0005216     0.0357686   -0.1920160 
   0.086871711     0.0465620   -0.2888676     0.0000214    0.0011065    -0.0000364    0.0006374     0.0347335   -0.1915244 
   0.086971736     0.0408756   -0.2852543     0.0002715    0.0008688     0.0001231    0.0007658     0.0352523   -0.1918012 
   0.087071761     0.0459435   -0.2870225    -0.0001834    0.0004615     0.0001845    0.0007410     0.0352330   -0.1919462 
   0.087171786     0.0474299   -0.2880848    -0.0002308    0.0010129     0.0001146    0.0005663     0.0346087   -0.1912982 
   0.087271811     0.0471041   -0.2865108     0.0002638    0.0004515     0.0001871    0.0006188     0.0340451   -0.1913648 
   0.087371836     0.0448598   -0.2852938     0.0002822    0.0007259     0.0002934    0.0006709     0.0340638   -0.1912541 
   0.087471861     0.0450933   -0.2864949     0.0001177    0.0006242    -0.0000275    0.0007376     0.0342603   -0.1915633 
   0.087571886     0.0421793   -0.2871767     0.0000603    0.0007785     0.0001192    0.0005903     0.0336257   -0.1911617 
   0.087671911     0.0441642   -0.2840131    -0.0002463    0.0007018     0.0000455    0.0007386     0.0343515   -0.1904399 
   0.087771936     0.0423704   -0.2844765     0.0008045    0.0006336     0.0001971    0.0004953     0.0337609   -0.1908060 
   0.087871961     0.0426280   -0.2861464    -0.0000056    0.0006701     0.0001624    0.0007138     0.0341568   -0.1910360 
   0.087971986     0.0434565   -0.2818252     0.0001426    0.0003123     0.0002147    0.0004910     0.0330854   -0.1902529 
   0.088072011     0.0425960   -0.2824074    -0.0003743    0.0006120    -0.0000663    0.0007030     0.0337467   -0.1904573 
   0.088172036     0.0414934   -0.2847382    -0.0001106    0.0007470     0.0000034    0.0008411     0.0334758   -0.1905956 
   0.088272061     0.0402498   -0.2821897     0.0004461    0.0006695     0.0002356    0.0007617     0.0335734   -0.1901377 
   0.088372086     0.0422178   -0.2818608     0.0005343    0.0008636     0.0003261    0.0007031     0.0334617   -0.1905399 
   0.088472111     0.0424176   -0.2824873    -0.0000516    0.0007829     0.0000855    0.0005717     0.0342619   -0.1898921 
   0.088572136     0.0408335   -0.2833026     0.0001447    0.0006750     0.0000786    0.0006967     0.0327573   -0.1895604 
   0.088672161     0.0405920   -0.2801674     0.0004073    0.0007962     0.0003372    0.0008719     0.0344924   -0.1901708 
   0.088772186     0.0403877   -0.2827995    -0.0001581    0.0005898     0.0000889    0.0007346     0.0332265   -0.1895876 
   0.088872211     0.0404746   -0.2816120     0.0001501    0.0006193    -0.0000389    0.0006224     0.0333312   -0.1887207 
   0.088972236     0.0405605   -0.2813579    -0.0000172    0.0006398     0.0000877    0.0006018     0.0340984   -0.1886570 
   0.089072261     0.0408545   -0.2781325     0.0002558    0.0009619     0.0000891    0.0005635     0.0327540   -0.1892508 
   0.089172286     0.0412902   -0.2808817    -0.0006361    0.0007463     0.0000730    0.0005675     0.0337842   -0.1899686 
   0.089272311     0.0411695   -0.2787789     0.0003647    0.0004337    -0.0000145    0.0006790     0.0330862   -0.1896223 
   0.089372336     0.0398037   -0.2789477     0.0000622    0.0007098     0.0002216    0.0005347     0.0330488   -0.1894755 
   0.089472361     0.0401820   -0.2773442    -0.0000373    0.0001809     0.0000515    0.0005992     0.0330463   -0.1888569 
   0.089572386     0.0413229   -0.2792301    -0.0001594    0.0008915     0.0002377    0.0004317     0.0322935   -0.1886978 
   0.089672411     0.0405070   -0.2770650    -0.0000363    0.0003947     0.0001365    0.0008914     0.0335923   -0.1884041 
   0.089772436     0.0370967   -0.2775367     0.0004021    0.0007122     0.0001764    0.0006648     0.0328550   -0.1884863 
   0.089872461     0.0369255   -0.2787781     0.0002409    0.0006550     0.0002631    0.0009483     0.0330369   -0.1879725 
   0.089972486     0.0378862   -0.2775244     0.0005558    0.0005965     0.0002630    0.0008057     0.0323079   -0.1883060 
   0.090072511     0.0389573   -0.2777516     0.0001922    0.0002806     0.0003672    0.0006948     0.0318700   -0.1891809 
   0.090172536     0.0372078   -0.2763959     0.0002141    0.0004603    -0.0000663    0.0006397     0.0321287   -0.1878970 
   0.090272561     0.0369126   -0.2778012     0.0006779    0.0008383     0.0001205    0.0006308     0.0321710   -0.1887013 
   0.090372586     0.0381871   -0.2766715     0.0002602    0.0010178     0.0001314    0.0005862     0.0316283   -0.1875997 
   0.090472611     0.0371606   -0.2758798     0.0004303    0.0008778     0.0001107    0.0005712     0.0325737   -0.1875386 
   0.090572636     0.0380617   -0.2762015     0.0002052    0.0010455     0.0003650    0.0008185     0.0317696   -0.1874581 
   0.090672661     0.0361033   -0.2747496     0.0001258    0.0007372     0.0004384    0.0006836     0.0326968   -0.1877510 
   0.090772686     0.0365659   -0.2745206     0.0003422    0.0010611     0.0001222    0.0006842     0.0317882   -0.1869595 
   0.090872711     0.0383273   -0.2751118     0.0000790    0.0007971     0.0001271    0.0009653     0.0319498   -0.1877469 
   0.090972736     0.0373210   -0.2746666     0.0001732    0.0000580     0.0003809    0.0007205     0.0309863   -0.1876364 
   0.091072761     0.0364253   -0.2742832     0.0001779    0.0002354     0.0000430    0.0006757     0.0306462   -0.1874137 
   0.091172786     0.0379336   -0.2732660     0.0005717    0.0009592     0.0002777    0.0005111     0.0306775   -0.1870298 
   0.091272811     0.0367362   -0.2746635     0.0004104    0.0003682     0.0001871    0.0005449     0.0305656   -0.1872309 
   0.091372836     0.0330449   -0.2724800     0.0005330    0.0006198     0.0003056    0.0007803     0.0311355   -0.1873790 
   0.091472861     0.0367175   -0.2735523     0.0001516    0.0002814     0.0001092    0.0007233     0.0312040   -0.1867534 
   0.091572886     0.0364466   -0.2745169     0.0002830    0.0008698     0.0002129    0.0008978     0.0304835   -0.1862025 
   0.091672911     0.0331981   -0.2716560     0.0000759    0.0007161     0.0001391    0.0007446     0.0304223   -0.1871421 
   0.091772936     0.0353846   -0.2727203     0.0002955    0.0004610     0.0001291    0.0006077     0.0304067   -0.1878276 
   0.091872961     0.0347453   -0.2737240     0.0003991    0.0008056     0.0004394    0.0007371     0.0308613   -0.1866514 
   0.091972986     0.0352993   -0.2713573     0.0005819    0.0008702     0.0001597    0.0007556     0.0302549   -0.1863928 
   0.092073012     0.0342726   -0.2726398    -0.0001324    0.0005642     0.0002306    0.0007318     0.0300301   -0.1872178 
   0.092173037     0.0358508   -0.2705298     0.0000563    0.0003173     0.0003313    0.0005171     0.0302626   -0.1865838 
   0.092273062     0.0351844   -0.2710352     0.0002686    0.0010375     0.0003412    0.0007515     0.0293240   -0.1861721 
   0.092373087     0.0355409   -0.2724501     0.0006430    0.0004329     0.0002557    0.0006276     0.0287804   -0.1861170 
   0.092473112     0.0341921   -0.2682604     0.0001876    0.0004453     0.0002359    0.0006432     0.0302013   -0.1862497 
   0.092573137     0.0343229   -0.2698150     0.0001238    0.0007020     0.0003437    0.0007228     0.0297499   -0.1860817 
   0.092673162     0.0330055   -0.2721952    -0.0001711    0.0009342     0.0003406    0.0007904     0.0291816   -0.1855754 
   0.092773187     0.0336265   -0.2698236     0.0002850    0.0007245     0.0001588    0.0005744     0.0300197   -0.1854620 
   0.092873212     0.0344112   -0.2700746     0.0003807    0.0004784     0.0001157    0.0005688     0.0297615   -0.1859669 
   0.092973237     0.0336415   -0.2684651    -0.0002388    0.0008528     0.0000825    0.0007338     0.0288324   -0.1851461 
   0.093073262     0.0342408   -0.2700100     0.0001276    0.0006352     0.0002038    0.0007989     0.0287637   -0.1848354 
   0.093173287     0.0320922   -0.2670280    -0.0001301    0.0009423     0.0000840    0.0004565     0.0283965   -0.1841644 
   0.093273312     0.0342881   -0.2670330     0.0003426    0.0008498     0.0002507    0.0005119     0.0288861   -0.1851725 
   0.093373337     0.0316708   -0.2680514     0.0004680    0.0009156     0.0002376    0.0006729     0.0292077   -0.1848973 
   0.093473362     0.0309992   -0.2681336    -0.0001629    0.0003464     0.0001741    0.0007455     0.0282812   -0.1855690 
   0.093573387     0.0318945   -0.2679279     0.0003061    0.0002064     0.0001598    0.0007520     0.0292096   -0.1847515 
   0.093673412     0.0315304   -0.2639328     0.0003676    0.0008234     0.0002223    0.0006811     0.0289724   -0.1851049 
   0.093773437     0.0347997   -0.2649679     0.0002606    0.0006784     0.0003215    0.0006366     0.0278183   -0.1845870 
   0.093873462     0.0311709   -0.2664168     0.0002797    0.0006916     0.0001288    0.0008989     0.0279963   -0.1842246 
   0.093973487     0.0313096   -0.2647860     0.0001383    0.0004122     0.0002488    0.0004586     0.0282096   -0.1844660 
   0.094073512     0.0308509   -0.2661374     0.0002094    0.0005715     0.0001285    0.0006761     0.0289048   -0.1840291 
   0.094173537     0.0313663   -0.2658519     0.0001880    0.0006563     0.0004212    0.0006556     0.0286487   -0.1852033 
   0.094273562     0.0309532   -0.2630721     0.0001649    0.0007628     0.0001972    0.0007090     0.0277575   -0.1836510 
   0.094373587     0.0316079   -0.2643164     0.0006043    0.0002115     0.0002060    0.0007553     0.0281707   -0.1847178 
   0.094473612     0.0315289   -0.2646698     0.0003852    0.0009330     0.0002580    0.0004891     0.0280182   -0.1841840 
   0.094573637     0.0302572   -0.2651702     0.0006184    0.0010105     0.0000058    0.0007047     0.0282824   -0.1836208 
   0.094673662     0.0303385   -0.2660165     0.0002532    0.0007917     0.0002874    0.0007430     0.0279711   -0.1842635 
   0.094773687     0.0306672   -0.2637817     0.0001696    0.0006200     0.0003317    0.0006931     0.0275133   -0.1843924 
   0.094873712     0.0302279   -0.2626671     0.0003516    0.0007826     0.0002666    0.0006290     0.0268368   -0.1840019 
   0.094973737     0.0312221   -0.2634540    -0.0002347    0.0007651     0.0002998    0.0007356     0.0283358   -0.1838344 
   0.095073762     0.0296014   -0.2633041     0.0001882    0.0008947     0.0002125    0.0007867     0.0274838   -0.1834902 
   0.095173787     0.0280310   -0.2626148     0.0001708    0.0005875     0.0003586    0.0006760     0.0277090   -0.1825820 
   0.095273812     0.0301998   -0.2626998     0.0001712    0.0006647     0.0002635    0.0006925     0.0277712   -0.1832324 
   0.095373837     0.0283785   -0.2612629     0.0002110    0.0004553     0.0000865    0.0006347     0.0278985   -0.1830579 
   0.095473862     0.0290359   -0.2636451     0.0000892    0.0007100     0.0004101    0.0007037     0.0271369   -0.1837573 
   0.095573887     0.0288752   -0.2626269     0.0002542    0.0003935     0.0002283    0.0007505     0.0265505   -0.1834696 
   0.095673912     0.0290010   -0.2613131     0.0000354    0.0003960     0.0002232    0.0005362     0.0264066   -0.1837927 
   0.095773937     0.0302512   -0.2597203     0.0001602    0.0004068     0.0000990    0.0006034     0.0264951   -0.1829253 
   0.095873962     0.0284443   -0.2601268     0.0003882    0.0009401     0.0002103    0.0004527     0.0266810   -0.1825071 
   0.095973987     0.0304367   -0.2602630     0.0003500    0.0007370     0.0002066    0.0007560     0.0259734   -0.1831523 
   0.096074012     0.0276748   -0.2596434     0.0000086    0.0006618     0.0001953    0.0006555     0.0267875   -0.1833035 
   0.096174037     0.0294302   -0.2589763     0.0000200    0.0005392     0.0002420    0.0007817     0.0270841   -0.1825306 
   0.096274062     0.0291886   -0.2592443     0.0003204    0.0006407     0.0001604    0.0007313     0.0265633   -0.1825500 
   0.096374087     0.0300589   -0.2589554     0.0002711    0.0007649     0.0002527    0.0005408     0.0260394   -0.1823897 
   0.096474112     0.0281896   -0.2592636     0.0006263    0.0007264     0.0003180    0.0007817     0.0260110   -0.1820143 
   0.096574137     0.0283444   -0.2594696     0.0001090    0.0005682     0.0001395    0.0008201     0.0257798   -0.1826599 
   0.096674162     0.0276609   -0.2577039     0.0003532    0.0004971     0.0002318    0.0008138     0.0255163   -0.1824004 
   0.096774187     0.0272071   -0.2573621     0.0001351    0.0007684     0.0002672    0.0005364     0.0262502   -0.1828108 
   0.096874212     0.0268189   -0.2583778     0.0001771    0.0004178     0.0003181    0.0007904     0.0259527   -0.1824776 
   0.096974237     0.0248634   -0.2572646     0.0001495    0.0006752     0.0000590    0.0007971     0.0254717   -0.1828922 
   0.097074262     0.0274032   -0.2559226     0.0004947    0.0006899     0.0002440    0.0005669     0.0260688   -0.1818644 
   0.097174287     0.0294549   -0.2563621     0.0003414    0.0008066     0.0002278    0.0006590     0.0257600   -0.1816656 
   0.097274312     0.0280033   -0.2568390     0.0003707    0.0008222     0.0003726    0.0007589     0.0259061   -0.1816875 
   0.097374337     0.0265698   -0.2557004     0.0001442    0.0009049     0.0001033    0.0007004     0.0251566   -0.1816540 
   0.097474362     0.0266831   -0.2558519     0.0002157    0.0011769     0.0003436    0.0006596     0.0254704   -0.1821098 
   0.097574387     0.0255688   -0.2561387     0.0004828    0.0010031     0.0002362    0.0007001     0.0252638   -0.1815174 
   0.097674412     0.0275282   -0.2537814     0.0001483    0.0004143     0.0002089    0.0008288     0.0245554   -0.1805524 
   0.097774437     0.0259231   -0.2568006     0.0004121    0.0003195     0.0001617    0.0007156     0.0249121   -0.1811598 
   0.097874462     0.0258323   -0.2552414     0.0003427    0.0005644     0.0003976    0.0007372     0.0248200   -0.1817127 
   0.097974487     0.0264442   -0.2534084     0.0005586    0.0008273     0.0001886    0.0007880     0.0248642   -0.1813570 
   0.098074512     0.0256609   -0.2546157     0.0005915    0.0006210     0.0003484    0.0009557     0.0248089   -0.1804958 
   0.098174537     0.0272564   -0.2530229     0.0005315    0.0010129     0.0002144    0.0008761     0.0245173   -0.1800387 
   0.098274562     0.0258101   -0.2525642     0.0004829    0.0007558     0.0000765    0.0005094     0.0248659   -0.1813007 
   0.098374587     0.0264972   -0.2513450     0.0001990    0.0005880     0.0002463    0.0007068     0.0239324   -0.1810577 
   0.098474612     0.0251846   -0.2526341     0.0005057    0.0006712     0.0000895    0.0007267     0.0250175   -0.1804803 
   0.098574637     0.0261570   -0.2518992     0.0005771    0.0007705     0.0003108    0.0006385     0.0250450   -0.1810695 
   0.098674662     0.0258552   -0.2535365     0.0004532    0.0006335     0.0003638    0.0006588     0.0244932   -0.1809637 
   0.098774687     0.0237766   -0.2519916     0.0001945    0.0008216     0.0004695    0.0006182     0.0234507   -0.1807436 
   0.098874712     0.0253266   -0.2519068     0.0003855    0.0007928     0.0002814    0.0009675     0.0240634   -0.1802538 
   0.098974737     0.0256971   -0.2510452     0.0003008    0.0007287     0.0003165    0.0007940     0.0242397   -0.1809948 
   0.099074762     0.0246689   -0.2511455     0.0000076    0.0005530     0.0003032    0.0005735     0.0239801   -0.1806574 
   0.099174787     0.0232853   -0.2510168     0.0009500    0.0009499     0.0003015    0.0006761     0.0236798   -0.1802962 
   0.099274812     0.0236177   -0.2501587     0.0005207    0.0007560     0.0001786    0.0005024     0.0235628   -0.1799034 
   0.099374837     0.0238335   -0.2504842     0.0002549    0.0007775     0.0006760    0.0008720     0.0246857   -0.1808105 
   0.099474862     0.0229973   -0.2497123     0.0002654    0.0008752     0.0003054    0.0008201     0.0234106   -0.1806169 
   0.099574887     0.0235539   -0.2489852     0.0002287    0.0007497     0.0004165    0.0006544     0.0232673   -0.1800913 
   0.099674912     0.0233894   -0.2487179     0.0002852    0.0006011     0.0003525    0.0007215     0.0230828   -0.1799347 
   0.099774937     0.0235139   -0.2493408     0.0002200    0.0012575     0.0001571    0.0008498     0.0234638   -0.1800843 
   0.099874962     0.0242547   -0.2501234     0.0006641    0.0006201     0.0001533    0.0006681     0.0231527   -0.1794616 
   0.099974987     0.0243686   -0.2481014     0.0002195    0.0006673     0.0002631    0.0007963     0.0237036   -0.1797837 
   0.100075013     0.0235744   -0.2507005     0.0004802    0.0009195     0.0003974    0.0007993     0.0229525   -0.1798884 
   0.100175038     0.0234846   -0.2479709     0.0004620    0.0008355     0.0004013    0.0006572     0.0223090   -0.1800407 
   0.100275063     0.0233971   -0.2475551     0.0004078    0.0006086     0.0002656    0.0006185     0.0224918   -0.1797311 
   0.100375088     0.0220344   -0.2472312     0.0005945    0.0005104     0.0003996    0.0007417     0.0222636   -0.1793396 
   0.100475113     0.0227930   -0.2478825    -0.0000231    0.0006778     0.0002298    0.0007341     0.0220594   -0.1796407 
   0.100575138     0.0217816   -0.2472169     0.0007459    0.0011458     0.0002082    0.0007597     0.0228702   -0.1783995 
   0.100675163     0.0228238   -0.2474717     0.0000447    0.0004390     0.0003977    0.0006135     0.0229215   -0.1787878 
   0.100775188     0.0222366   -0.2477523     0.0004725    0.0008005     0.0002151    0.0008410     0.0220387   -0.1790545 
   0.100875213     0.0231082   -0.2470429     0.0001775    0.0010228     0.0002411    0.0008424     0.0218411   -0.1790084 
   0.100975238     0.0212284   -0.2461895     0.0000769    0.0008799     0.0002340    0.0008069     0.0219617   -0.1791145 
   0.101075263     0.0220408   -0.2454122     0.0005129    0.0010942     0.0001439    0.0006907     0.0221489   -0.1785855 
   0.101175288     0.0209337   -0.2457772     0.0002901    0.0009410     0.0004058    0.0008246     0.0218304   -0.1786437 
   0.101275313     0.0214366   -0.2447996     0.0002363    0.0009697     0.0003902    0.0008038     0.0217367   -0.1786956 
   0.101375338     0.0224097   -0.2453857     0.0005030    0.0004386     0.0003261    0.0007898     0.0217086   -0.1786696 
   0.101475363     0.0204751   -0.2443679     0.0002613    0.0008197     0.0002508    0.0008171     0.0212140   -0.1785425 
   0.101575388     0.0191643   -0.2449942     0.0006060    0.0006622     0.0002793    0.0007249     0.0209412   -0.1786114 
   0.101675413     0.0197827   -0.2440551     0.0002029    0.0005604     0.0003615    0.0006170     0.0219249   -0.1785998 
   0.101775438     0.0212949   -0.2449761     0.0002130    0.0005644     0.0001472    0.0008987     0.0221710   -0.1783165 
   0.101875463     0.0218503   -0.2442804     0.0002909    0.0005902     0.0003607    0.0008082     0.0213234   -0.1784054 
   0.101975488     0.0196541   -0.2428812     0.0001914    0.0007801     0.0004852    0.0007889     0.0217957   -0.1784621 
   0.102075513     0.0197023   -0.2429706     0.0004630    0.0007222     0.0002796    0.0006422     0.0208518   -0.1777942 
   0.102175538     0.0198086   -0.2439005     0.0002096    0.0006712     0.0003911    0.0007204     0.0219884   -0.1786079 
   0.102275563     0.0206355   -0.2433516     0.0002097    0.0003997     0.0001401    0.0008098     0.0211059   -0.1774531 
   0.102375588     0.0192960   -0.2420136     0.0003376    0.0007959     0.0002163    0.0007279     0.0214263   -0.1781635 
   0.102475613     0.0183990   -0.2419115     0.0003216    0.0006776     0.0002687    0.0008895     0.0205873   -0.1781400 
   0.102575638     0.0211412   -0.2407965     0.0003165    0.0006332     0.0002530    0.0007293     0.0203242   -0.1778593 
   0.102675663     0.0202475   -0.2435585     0.0003954    0.0007899     0.0004173    0.0008360     0.0201228   -0.1782635 
   0.102775688     0.0193389   -0.2407707     0.0001979    0.0007340     0.0002094    0.0008453     0.0203305   -0.1780072 
   0.102875713     0.0203167   -0.2412206     0.0001236    0.0006274     0.0004480    0.0005716     0.0210118   -0.1778751 
   0.102975738     0.0202804   -0.2410614     0.0002435    0.0008369     0.0005659    0.0006653     0.0199980   -0.1773458 
   0.103075763     0.0191705   -0.2412913     0.0003533    0.0009629     0.0004283    0.0007280     0.0202421   -0.1773096 
   0.103175788     0.0188744   -0.2407064     0.0003358    0.0005633     0.0002205    0.0007865     0.0198141   -0.1775918 
   0.103275813     0.0201275   -0.2399146     0.0004261    0.0005547     0.0003597    0.0007580     0.0200911   -0.1770753 
   0.103375838     0.0195625   -0.2405854     0.0002243    0.0006104     0.0004553    0.0006631     0.0200584   -0.1772761 
   0.103475863     0.0195437   -0.2390053     0.0003000    0.0007780     0.0003762    0.0005779     0.0201491   -0.1771712 
   0.103575888     0.0191730   -0.2387974     0.0005715    0.0008259     0.0003065    0.0007971     0.0200887   -0.1768897 
   0.103675913     0.0180887   -0.2379237     0.0005546    0.0007677     0.0003320    0.0007105     0.0203522   -0.1772299 
   0.103775938     0.0190201   -0.2398212     0.0004613    0.0007064     0.0004048    0.0008694     0.0198532   -0.1768907 
   0.103875963     0.0195941   -0.2380324     0.0003002    0.0008925     0.0003844    0.0006841     0.0193930   -0.1774821 
   0.103975988     0.0182434   -0.2382977     0.0004332    0.0007999     0.0004061    0.0007881     0.0193441   -0.1763983 
   0.104076013     0.0189151   -0.2382968     0.0002168    0.0007614     0.0003096    0.0006070     0.0198240   -0.1761020 
   0.104176038     0.0197296   -0.2374881     0.0005198    0.0006851     0.0003723    0.0008405     0.0196791   -0.1764921 
   0.104276063     0.0187692   -0.2391955     0.0002617    0.0011029     0.0002898    0.0006772     0.0194090   -0.1766411 
   0.104376088     0.0191297   -0.2376350     0.0005126    0.0005766     0.0002915    0.0006824     0.0194083   -0.1765328 
   0.104476113     0.0177187   -0.2382779     0.0004194    0.0004854     0.0003619    0.0008092     0.0195489   -0.1767095 
   0.104576138     0.0170517   -0.2363031     0.0004819    0.0005383     0.0003726    0.0006888     0.0189762   -0.1761116 
   0.104676163     0.0163748   -0.2346902     0.0006499    0.0006875     0.0003553    0.0004784     0.0195571   -0.1759901 
   0.104776188     0.0173967   -0.2369266     0.0001955    0.0008520     0.0002739    0.0007114     0.0194595   -0.1759477 
   0.104876213     0.0176055   -0.2363350     0.0002728    0.0007285     0.0002782    0.0007956     0.0191416   -0.1762328 
   0.104976238     0.0173435   -0.2359529     0.0002044    0.0006336     0.0003721    0.0007884     0.0185599   -0.1758567 
   0.105076263     0.0177458   -0.2352045     0.0002217    0.0007644     0.0005029    0.0007697     0.0182543   -0.1760365 
   0.105176288     0.0182115   -0.2350384     0.0001924    0.0005324     0.0001755    0.0006290     0.0190208   -0.1758058 
   0.105276313     0.0164391   -0.2349828     0.0005355    0.0005959     0.0004360    0.0008611     0.0184508   -0.1766179 
   0.105376338     0.0165375   -0.2345070     0.0001900    0.0006434     0.0004111    0.0008976     0.0182605   -0.1756605 
   0.105476363     0.0157595   -0.2347648     0.0003154    0.0008780     0.0003000    0.0007425     0.0184031   -0.1761850 
   0.105576388     0.0171784   -0.2345012     0.0005697    0.0004169     0.0004697    0.0006630     0.0182795   -0.1755419 
   0.105676413     0.0172971   -0.2352361     0.0004766    0.0004461     0.0003664    0.0006887     0.0184009   -0.1757549 
   0.105776438     0.0166098   -0.2336102     0.0001491    0.0009825     0.0004046    0.0008773     0.0181505   -0.1754270 
   0.105876463     0.0163100   -0.2334076     0.0002529    0.0008340     0.0003929    0.0006200     0.0180493   -0.1745982 
   0.105976488     0.0148528   -0.2316929     0.0002310    0.0005402     0.0004523    0.0007120     0.0184991   -0.1749113 
   0.106076513     0.0157781   -0.2347479     0.0003461    0.0007500     0.0002910    0.0007608     0.0184473   -0.1754298 
   0.106176538     0.0152099   -0.2345613     0.0001038    0.0008371     0.0003649    0.0007173     0.0175180   -0.1753863 
   0.106276563     0.0160772   -0.2325497     0.0002585    0.0005411     0.0003517    0.0008180     0.0170348   -0.1760726 
   0.106376588     0.0163765   -0.2326064     0.0002027    0.0005041     0.0003505    0.0008795     0.0175040   -0.1745936 
   0.106476613     0.0156364   -0.2327259     0.0005693    0.0006141     0.0003098    0.0007104     0.0180369   -0.1745733 
   0.106576638     0.0161508   -0.2322142     0.0006145    0.0005855     0.0004693    0.0007295     0.0178132   -0.1752570 
   0.106676663     0.0150449   -0.2337170     0.0005721    0.0008510     0.0003479    0.0007247     0.0176342   -0.1747811 
   0.106776688     0.0144868   -0.2314302     0.0006789    0.0007493     0.0003897    0.0008426     0.0172502   -0.1750143 
   0.106876713     0.0154941   -0.2320670     0.0002447    0.0009354     0.0003642    0.0008455     0.0172965   -0.1750350 
   0.106976738     0.0163448   -0.2303477     0.0004377    0.0005582     0.0004125    0.0007756     0.0172614   -0.1747072 
   0.107076763     0.0155936   -0.2309944     0.0003006    0.0003428     0.0005523    0.0008054     0.0171081   -0.1746651 
   0.107176788     0.0148819   -0.2311575     0.0003350    0.0011031     0.0004530    0.0007551     0.0173633   -0.1740354 
   0.107276813     0.0147193   -0.2310745     0.0003679    0.0007014     0.0003810    0.0007944     0.0167506   -0.1745040 
   0.107376838     0.0131862   -0.2302799     0.0003421    0.0009880     0.0002562    0.0005580     0.0167507   -0.1743750 
   0.107476863     0.0147225   -0.2311630     0.0004970    0.0009036     0.0002570    0.0007259     0.0171298   -0.1749021 
   0.107576888     0.0155447   -0.2297502     0.0004695    0.0008244     0.0003292    0.0008986     0.0171178   -0.1747861 
   0.107676913     0.0149127   -0.2291426    -0.0000102    0.0009543     0.0003449    0.0006303     0.0171022   -0.1738658 
   0.107776938     0.0137217   -0.2295745     0.0003156    0.0009089     0.0003860    0.0008608     0.0167437   -0.1740233 
   0.107876963     0.0143691   -0.2294840     0.0003401    0.0009968     0.0003835    0.0007976     0.0168913   -0.1742532 
   0.107976988     0.0140040   -0.2296500     0.0003744    0.0009718     0.0003972    0.0006407     0.0158976   -0.1743280 
   0.108077014     0.0139956   -0.2291486     0.0003651    0.0006631     0.0003846    0.0007027     0.0159274   -0.1738219 
   0.108177039     0.0131631   -0.2273033     0.0004488    0.0007666     0.0003445    0.0006605     0.0163508   -0.1743769 
   0.108277064     0.0136544   -0.2275975     0.0005435    0.0007828     0.0003617    0.0008041     0.0160144   -0.1738693 
   0.108377089     0.0136098   -0.2270008     0.0003395    0.0005219     0.0004348    0.0007392     0.0157949   -0.1737105 
   0.108477114     0.0130500   -0.2271897     0.0002914    0.0008205     0.0003221    0.0007312     0.0159790   -0.1736502 
   0.108577139     0.0130047   -0.2278220     0.0006769    0.0006415     0.0004170    0.0006882     0.0152720   -0.1747009 
   0.108677164     0.0129616   -0.2261074     0.0003597    0.0009954     0.0003775    0.0006035     0.0157551   -0.1731469 
   0.108777189     0.0128721   -0.2265305    -0.0000866    0.0011494     0.0003158    0.0006679     0.0154935   -0.1740873 
   0.108877214     0.0131566   -0.2274126     0.0006897    0.0006842     0.0004143    0.0007947     0.0155272   -0.1733548 
   0.108977239     0.0127168   -0.2258181     0.0006843    0.0007808     0.0004339    0.0007199     0.0162109   -0.1734059 
   0.109077264     0.0133292   -0.2269276     0.0001752    0.0005225     0.0003571    0.0008425     0.0154203   -0.1736351 
   0.109177289     0.0126582   -0.2253286     0.0004638    0.0008614     0.0005269    0.0006894     0.0160485   -0.1735802 
   0.109277314     0.0134984   -0.2251883     0.0004842    0.0007800     0.0004878    0.0008407     0.0153821   -0.1731087 
   0.109377339     0.0130389   -0.2250213     0.0001559    0.0006320     0.0002447    0.0007865     0.0150633   -0.1737490 
   0.109477364     0.0127228   -0.2243970     0.0003852    0.0007466     0.0004565    0.0006465     0.0155178   -0.1734615 
   0.109577389     0.0118410   -0.2262598     0.0002616    0.0008709     0.0005531    0.0008460     0.0150255   -0.1733529 
   0.109677414     0.0122888   -0.2247499     0.0003846    0.0005020     0.0004022    0.0006858     0.0152281   -0.1734096 
   0.109777439     0.0128061   -0.2234251     0.0001644    0.0006530     0.0003208    0.0007170     0.0143789   -0.1724014 
   0.109877464     0.0124885   -0.2249127     0.0005540    0.0010410     0.0004131    0.0007116     0.0147656   -0.1733075 
   0.109977489     0.0120135   -0.2247977     0.0006526    0.0009776     0.0006068    0.0008318     0.0154417   -0.1728449 
   0.110077514     0.0117206   -0.2227828     0.0003301    0.0009880     0.0003419    0.0007138     0.0144568   -0.1730150 
   0.110177539     0.0118767   -0.2240414     0.0006979    0.0005452     0.0003230    0.0007169     0.0147190   -0.1728637 
   0.110277564     0.0116683   -0.2226175     0.0006435    0.0007749     0.0003692    0.0007094     0.0147387   -0.1728874 
   0.110377589     0.0113265   -0.2231573     0.0004590    0.0011034     0.0005623    0.0007503     0.0142760   -0.1722810 
   0.110477614     0.0126102   -0.2221150     0.0006234    0.0010133     0.0003688    0.0007177     0.0148236   -0.1723374 
   0.110577639     0.0116091   -0.2229257     0.0005116    0.0006185     0.0004682    0.0006068     0.0136681   -0.1721025 
   0.110677664     0.0112847   -0.2222467     0.0006506    0.0008610     0.0004385    0.0006630     0.0140861   -0.1718554 
   0.110777689     0.0109682   -0.2228725     0.0003793    0.0009749     0.0005490    0.0007938     0.0139936   -0.1718045 
   0.110877714     0.0122002   -0.2214440     0.0003846    0.0008757     0.0002864    0.0006324     0.0130924   -0.1719669 
   0.110977739     0.0108820   -0.2208312     0.0006800    0.0006784     0.0004373    0.0008436     0.0142301   -0.1729915 
   0.111077764     0.0103959   -0.2210370     0.0004752    0.0008786     0.0004323    0.0008932     0.0137078   -0.1728159 
   0.111177789     0.0114432   -0.2217768     0.0005358    0.0008904     0.0004232    0.0006867     0.0137435   -0.1723400 
   0.111277814     0.0111946   -0.2210414     0.0003905    0.0007201     0.0002892    0.0006939     0.0137369   -0.1723486 
   0.111377839     0.0119199   -0.2209034     0.0006113    0.0010674     0.0003938    0.0008628     0.0132402   -0.1724738 
   0.111477864     0.0105994   -0.2211400     0.0003618    0.0008161     0.0004050    0.0008152     0.0137016   -0.1715890 
   0.111577889     0.0103765   -0.2198317     0.0002756    0.0005065     0.0005686    0.0007579     0.0137977   -0.1716513 
   0.111677914     0.0111212   -0.2212221     0.0003607    0.0012158     0.0005455    0.0008741     0.0131816   -0.1719074 
   0.111777939     0.0100879   -0.2197412     0.0002186    0.0007821     0.0004607    0.0007130     0.0129580   -0.1714271 
   0.111877964     0.0104813   -0.2206461     0.0001464    0.0007526     0.0003393    0.0008272     0.0130502   -0.1719417 
   0.111977989     0.0111804   -0.2190123     0.0003371    0.0005813     0.0003747    0.0007258     0.0134618   -0.1716474 
   0.112078014     0.0110509   -0.2192123     0.0003347    0.0006214     0.0003458    0.0006521     0.0136403   -0.1716555 
   0.112178039     0.0112798   -0.2189283     0.0003906    0.0005788     0.0004026    0.0008347     0.0128909   -0.1715624 
   0.112278064     0.0104206   -0.2190419     0.0004948    0.0007089     0.0004590    0.0007331     0.0132119   -0.1716308 
   0.112378089     0.0109767   -0.2173590     0.0004771    0.0008255     0.0004694    0.0007825     0.0130148   -0.1715684 
   0.112478114     0.0094342   -0.2183847     0.0003631    0.0008251     0.0006333    0.0008857     0.0125275   -0.1722571 
   0.112578139     0.0103111   -0.2171126     0.0001739    0.0006304     0.0005194    0.0007323     0.0130265   -0.1715228 
   0.112678164     0.0107532   -0.2180433     0.0003971    0.0004601     0.0005866    0.0008365     0.0128529   -0.1720008 
   0.112778189     0.0091036   -0.2173479     0.0004398    0.0008925     0.0003848    0.0007509     0.0126447   -0.1710004 
   0.112878214     0.0096380   -0.2162029     0.0003402    0.0010576     0.0004163    0.0007369     0.0125799   -0.1716675 
   0.112978239     0.0094309   -0.2160720     0.0005520    0.0006745     0.0004091    0.0010588     0.0125006   -0.1712586 
   0.113078264     0.0092312   -0.2164332     0.0004312    0.0007700     0.0004342    0.0007325     0.0124243   -0.1707942 
   0.113178289     0.0096237   -0.2164546     0.0003540    0.0007587     0.0005082    0.0007081     0.0124059   -0.1710661 
   0.113278314     0.0098806   -0.2147340     0.0005674    0.0006184     0.0005019    0.0008018     0.0121182   -0.1706464 
   0.113378339     0.0097010   -0.2160399     0.0004781    0.0008187     0.0004555    0.0008561     0.0124312   -0.1713684 
   0.113478364     0.0104587   -0.2154017     0.0005420    0.0008914     0.0003904    0.0008058     0.0120615   -0.1708420 
   0.113578389     0.0084858   -0.2148997     0.0003995    0.0006085     0.0002760    0.0008055     0.0121058   -0.1708177 
   0.113678414     0.0091330   -0.2158621     0.0006446    0.0008013     0.0004181    0.0005121     0.0120516   -0.1709196 
   0.113778439     0.0079038   -0.2161237     0.0003403    0.0009887     0.0002912    0.0007469     0.0113164   -0.1704451 
   0.113878464     0.0088527   -0.2152620     0.0001032    0.0009161     0.0004752    0.0007680     0.0118773   -0.1704554 
   0.113978489     0.0080361   -0.2154001     0.0002743    0.0006539     0.0004890    0.0007350     0.0121516   -0.1706718 
   0.114078514     0.0084325   -0.2143793     0.0006658    0.0010464     0.0005029    0.0007338     0.0120165   -0.1703395 
   0.114178539     0.0086096   -0.2138949     0.0006470    0.0010484     0.0005185    0.0006498     0.0113225   -0.1707702 
   0.114278564     0.0095782   -0.2139387     0.0008462    0.0008066     0.0004756    0.0005623     0.0106921   -0.1703820 
   0.114378589     0.0085098   -0.2135142     0.0003577    0.0007516     0.0004237    0.0009531     0.0108199   -0.1705838 
   0.114478614     0.0073702   -0.2143911     0.0005111    0.0006308     0.0005196    0.0008119     0.0106055   -0.1705272 
   0.114578639     0.0094208   -0.2135697     0.0005627    0.0012150     0.0003822    0.0006866     0.0107746   -0.1705046 
   0.114678664     0.0084478   -0.2118342     0.0003793    0.0008132     0.0004215    0.0007367     0.0114277   -0.1704275 
   0.114778689     0.0082273   -0.2140460     0.0006561    0.0004560     0.0003895    0.0008031     0.0107237   -0.1700901 
   0.114878714     0.0072737   -0.2136856     0.0003887    0.0008610     0.0004103    0.0009164     0.0106732   -0.1700546 
   0.114978739     0.0090838   -0.2124643     0.0004744    0.0005420     0.0004422    0.0007157     0.0109343   -0.1697450 
   0.115078764     0.0082817   -0.2128586     0.0006074    0.0006214     0.0004543    0.0008505     0.0104766   -0.1700107 
   0.115178789     0.0065955   -0.2122249     0.0006808    0.0006265     0.0003756    0.0008681     0.0102464   -0.1696429 
   0.115278814     0.0075656   -0.2122927     0.0002849    0.0008734     0.0005131    0.0006505     0.0106379   -0.1697204 
   0.115378839     0.0079936   -0.2107679     0.0008873    0.0009028     0.0004698    0.0008619     0.0106431   -0.1695331 
   0.115478864     0.0080635   -0.2116309     0.0004168    0.0010730     0.0003814    0.0007433     0.0102524   -0.1697454 
   0.115578889     0.0072706   -0.2106604     0.0002111    0.0009166     0.0005101    0.0006478     0.0100396   -0.1698400 
   0.115678914     0.0079712   -0.2104524     0.0002009    0.0006417     0.0005111    0.0007842     0.0099284   -0.1696621 
   0.115778939     0.0081677   -0.2103123     0.0004710    0.0007591     0.0005887    0.0007977     0.0100774   -0.1691245 
   0.115878964     0.0075387   -0.2094275     0.0005451    0.0007145     0.0004333    0.0007599     0.0097969   -0.1698174 
   0.115978989     0.0068891   -0.2104449     0.0004774    0.0007123     0.0004524    0.0006983     0.0097242   -0.1697342 
   0.116079015     0.0077792   -0.2087655     0.0005627    0.0007859     0.0003563    0.0006651     0.0105354   -0.1691815 
   0.116179040     0.0067805   -0.2099384     0.0008622    0.0007848     0.0004814    0.0006339     0.0091942   -0.1691680 
   0.116279065     0.0070573   -0.2087379     0.0005034    0.0008932     0.0003758    0.0007083     0.0102237   -0.1689946 
   0.116379090     0.0070739   -0.2092338     0.0008060    0.0007113     0.0005347    0.0007859     0.0098936   -0.1695997 
   0.116479115     0.0072798   -0.2098696     0.0005135    0.0008684     0.0003577    0.0006663     0.0095703   -0.1689956 
   0.116579140     0.0068857   -0.2088821     0.0008016    0.0010859     0.0005300    0.0007162     0.0099821   -0.1687379 
   0.116679165     0.0066030   -0.2088550     0.0005337    0.0008147     0.0004870    0.0007915     0.0092934   -0.1695465 
   0.116779190     0.0063217   -0.2086495     0.0005313    0.0009374     0.0002591    0.0007474     0.0092185   -0.1697729 
   0.116879215     0.0075307   -0.2081386     0.0005827    0.0009880     0.0004852    0.0007308     0.0090591   -0.1687388 
   0.116979240     0.0065654   -0.2079208     0.0006369    0.0010531     0.0005698    0.0007669     0.0097296   -0.1687374 
   0.117079265     0.0071718   -0.2076731     0.0006718    0.0006728     0.0005201    0.0006433     0.0091502   -0.1689084 
   0.117179290     0.0062960   -0.2076625     0.0006179    0.0006137     0.0005526    0.0008200     0.0087432   -0.1691498 
   0.117279315     0.0066868   -0.2078593     0.0009083    0.0006965     0.0005399    0.0010550     0.0093996   -0.1685921 
   0.117379340     0.0065505   -0.2067250     0.0005672    0.0008588     0.0004366    0.0007872     0.0084238   -0.1686131 
   0.117479365     0.0067644   -0.2075300     0.0003852    0.0008525     0.0005147    0.0007937     0.0085201   -0.1683997 
   0.117579390     0.0057722   -0.2064420     0.0006639    0.0010553     0.0005651    0.0006395     0.0081652   -0.1686140 
   0.117679415     0.0056591   -0.2071599     0.0004471    0.0008150     0.0005139    0.0008294     0.0083024   -0.1684237 
   0.117779440     0.0056104   -0.2058760     0.0007143    0.0007081     0.0006005    0.0005964     0.0083545   -0.1688805 
   0.117879465     0.0057984   -0.2047543     0.0001927    0.0004347     0.0005741    0.0009381     0.0083917   -0.1686249 
   0.117979490     0.0055344   -0.2051324     0.0002189    0.0008249     0.0004849    0.0008880     0.0088455   -0.1685551 
   0.118079515     0.0068702   -0.2056790     0.0004393    0.0009358     0.0004126    0.0007973     0.0079859   -0.1684770 
   0.118179540     0.0055769   -0.2057860     0.0002496    0.0007931     0.0004491    0.0008728     0.0082716   -0.1683621 
   0.118279565     0.0061296   -0.2048532     0.0005632    0.0009445     0.0003768    0.0008892     0.0082541   -0.1681125 
   0.118379590     0.0052403   -0.2048785     0.0004758    0.0010361     0.0005771    0.0006408     0.0078080   -0.1685229 
   0.118479615     0.0061415   -0.2055170     0.0003379    0.0007883     0.0005942    0.0006834     0.0083300   -0.1684657 
   0.118579640     0.0061552   -0.2041183     0.0006983    0.0006864     0.0005552    0.0008022     0.0083359   -0.1677090 
   0.118679665     0.0047985   -0.2040752     0.0006966    0.0008888     0.0006331    0.0009112     0.0075612   -0.1681304 
   0.118779690     0.0058129   -0.2043818     0.0006140    0.0007784     0.0005601    0.0006554     0.0077697   -0.1681605 
   0.118879715     0.0048752   -0.2039951     0.0007564    0.0004805     0.0006745    0.0008358     0.0075806   -0.1681066 
   0.118979740     0.0044226   -0.2028640     0.0005718    0.0009583     0.0003381    0.0007445     0.0075775   -0.1677721 
   0.119079765     0.0048449   -0.2034984     0.0007227    0.0006672     0.0003691    0.0009323     0.0069182   -0.1676832 
   0.119179790     0.0052626   -0.2035898     0.0002847    0.0009681     0.0005300    0.0009962     0.0075088   -0.1680835 
   0.119279815     0.0049350   -0.2029897     0.0006396    0.0007161     0.0005043    0.0008906     0.0075503   -0.1675684 
   0.119379840     0.0049797   -0.2019334     0.0009092    0.0004859     0.0004973    0.0006204     0.0074703   -0.1682781 
   0.119479865     0.0048948   -0.2026626     0.0005585    0.0008270     0.0005393    0.0006090     0.0073935   -0.1685876 
   0.119579890     0.0039503   -0.2005207     0.0007277    0.0006980     0.0004286    0.0006673     0.0071660   -0.1671274 
   0.119679915     0.0051059   -0.2023848     0.0007608    0.0008957     0.0003613    0.0008687     0.0069706   -0.1676209 
   0.119779940     0.0051907   -0.2007489     0.0005060    0.0006736     0.0005250    0.0008485     0.0066971   -0.1676093 
   0.119879965     0.0047777   -0.2023550     0.0005508    0.0006663     0.0005909    0.0009064     0.0069498   -0.1666849 
   0.119979990     0.0043832   -0.2011179     0.0009423    0.0008454     0.0007876    0.0007736     0.0071244   -0.1676546 
   0.120080015     0.0044116   -0.2002170     0.0000651    0.0004652     0.0004912    0.0006756     0.0065769   -0.1672876 
   0.120180040     0.0041671   -0.2003281     0.0009967    0.0011143     0.0004537    0.0007721     0.0066040   -0.1670182 
   0.120280065     0.0037814   -0.2008499     0.0003474    0.0008592     0.0004334    0.0009885     0.0064806   -0.1677098 
   0.120380090     0.0040006   -0.2000263     0.0002467    0.0005865     0.0004582    0.0008053     0.0065147   -0.1677070 
   0.120480115     0.0052670   -0.2002995     0.0005102    0.0004419     0.0005004    0.0007193     0.0065841   -0.1667258 
   0.120580140     0.0041602   -0.1995503     0.0005953    0.0007975     0.0003953    0.0008222     0.0058791   -0.1670094 
   0.120680165     0.0043220   -0.2002302     0.0005266    0.0010215     0.0005912    0.0006720     0.0059116   -0.1673231 
   0.120780190     0.0039296   -0.2004520     0.0006543    0.0006035     0.0005555    0.0007266     0.0062858   -0.1672891 
   0.120880215     0.0033658   -0.1992165     0.0011144    0.0004402     0.0005154    0.0007652     0.0061645   -0.1677816 
   0.120980240     0.0042236   -0.1988936     0.0003706    0.0004068     0.0005441    0.0006569     0.0059600   -0.1673231 
   0.121080265     0.0028135   -0.1992895     0.0004090    0.0008382     0.0006657    0.0008323     0.0055103   -0.1668810 
   0.121180290     0.0040585   -0.1980193     0.0006193    0.0005380     0.0004965    0.0008584     0.0054583   -0.1668080 
   0.121280315     0.0036186   -0.1992967     0.0008511    0.0009029     0.0007219    0.0008636     0.0055112   -0.1667820 
   0.121380340     0.0040770   -0.1983247     0.0005634    0.0011234     0.0006763    0.0008353     0.0063102   -0.1664653 
   0.121480365     0.0031087   -0.1986585     0.0004253    0.0008634     0.0006393    0.0006668     0.0052926   -0.1672031 
   0.121580390     0.0038519   -0.1990522     0.0005432    0.0005332     0.0005686    0.0009240     0.0054566   -0.1662911 
   0.121680415     0.0041725   -0.1979809     0.0006439    0.0007886     0.0004520    0.0007090     0.0055329   -0.1671363 
   0.121780440     0.0032212   -0.1983443     0.0005148    0.0005173     0.0005040    0.0008099     0.0053284   -0.1666453 
   0.121880465     0.0027912   -0.1977051     0.0008217    0.0008669     0.0006225    0.0009810     0.0054156   -0.1660945 
   0.121980490     0.0026798   -0.1971483     0.0004524    0.0006039     0.0008070    0.0005848     0.0049723   -0.1667559 
   0.122080515     0.0038178   -0.1961285     0.0006887    0.0010498     0.0004357    0.0006763     0.0053727   -0.1663453 
   0.122180540     0.0040357   -0.1978275     0.0005571    0.0007000     0.0006765    0.0008473     0.0051729   -0.1663306 
   0.122280565     0.0030825   -0.1974211     0.0005972    0.0010107     0.0004306    0.0008204     0.0049850   -0.1665232 
   0.122380590     0.0032985   -0.1962938     0.0005274    0.0007183     0.0004112    0.0007632     0.0047181   -0.1661422 
   0.122480615     0.0032282   -0.1977289     0.0006955    0.0009636     0.0005028    0.0008549     0.0052243   -0.1660564 
   0.122580640     0.0026892   -0.1965290     0.0005595    0.0007945     0.0004720    0.0008302     0.0048819   -0.1665016 
   0.122680665     0.0025241   -0.1961073     0.0005812    0.0006592     0.0005534    0.0007512     0.0046806   -0.1661571 
   0.122780690     0.0029703   -0.1956346     0.0006096    0.0012656     0.0005300    0.0009162     0.0046163   -0.1661224 
   0.122880715     0.0032512   -0.1966292     0.0002876    0.0007644     0.0006015    0.0006333     0.0042761   -0.1662677 
   0.122980740     0.0027772   -0.1956027     0.0003403    0.0007417     0.0004216    0.0009027     0.0047011   -0.1660792 
   0.123080765     0.0026512   -0.1943926     0.0004438    0.0007567     0.0004328    0.0008864     0.0042872   -0.1661371 
   0.123180790     0.0028144   -0.1935749     0.0005051    0.0009304     0.0006685    0.0009071     0.0047060   -0.1654308 
   0.123280815     0.0024471   -0.1950681     0.0003856    0.0007471     0.0005460    0.0007152     0.0040863   -0.1657619 
   0.123380840     0.0030944   -0.1956459     0.0005332    0.0007085     0.0006246    0.0007851     0.0042627   -0.1656328 
   0.123480865     0.0033438   -0.1941291     0.0005567    0.0007222     0.0006173    0.0007448     0.0036472   -0.1656700 
   0.123580890     0.0016327   -0.1941824     0.0004918    0.0007317     0.0005768    0.0007191     0.0034592   -0.1662503 
   0.123680915     0.0035123   -0.1947283     0.0001519    0.0003576     0.0004841    0.0006815     0.0038511   -0.1657170 
   0.123780940     0.0019516   -0.1940396     0.0002423    0.0010141     0.0005359    0.0007249     0.0040436   -0.1655904 
   0.123880965     0.0016520   -0.1929555     0.0007714    0.0007614     0.0004500    0.0008061     0.0038799   -0.1661197 
   0.123980990     0.0022934   -0.1928605     0.0002481    0.0007717     0.0006016    0.0008960     0.0038482   -0.1656189 
   0.124081016     0.0015822   -0.1931041     0.0004668    0.0004784     0.0005689    0.0007129     0.0038848   -0.1655710 
   0.124181041     0.0018083   -0.1925880     0.0004819    0.0007845     0.0004762    0.0008864     0.0032950   -0.1653888 
   0.124281066     0.0022266   -0.1938632     0.0004501    0.0010420     0.0005375    0.0007954     0.0032112   -0.1651870 
   0.124381091     0.0023571   -0.1922453     0.0008865    0.0010880     0.0008161    0.0007165     0.0035194   -0.1648547 
   0.124481116     0.0024265   -0.1909476     0.0006574    0.0008393     0.0007691    0.0005722     0.0033061   -0.1652690 
   0.124581141     0.0021222   -0.1919962     0.0009111    0.0008486     0.0005329    0.0009120     0.0031010   -0.1655605 
   0.124681166     0.0022741   -0.1918345     0.0008628    0.0008089     0.0004607    0.0008655     0.0032958   -0.1655121 
   0.124781191     0.0012876   -0.1922266     0.0006270    0.0007352     0.0007665    0.0008139     0.0029958   -0.1650326 
   0.124881216     0.0019351   -0.1911289     0.0005408    0.0006113     0.0007040    0.0006687     0.0029206   -0.1650572 
   0.124981241     0.0016322   -0.1911813     0.0007288    0.0010003     0.0006459    0.0008123     0.0026948   -0.1646790 
   0.125081266     0.0024349   -0.1915156     0.0007532    0.0009430     0.0007031    0.0008454     0.0029966   -0.1645167 
   0.125181291     0.0017042   -0.1915275     0.0006610    0.0010325     0.0006704    0.0007444     0.0030430   -0.1645752 
   0.125281316     0.0012831   -0.1907330     0.0006549    0.0008404     0.0006617    0.0006797     0.0031055   -0.1648742 
   0.125381341     0.0020814   -0.1907700     0.0003386    0.0008099     0.0005313    0.0008005     0.0030434   -0.1650149 
   0.125481366     0.0017174   -0.1894395     0.0003917    0.0006769     0.0005786    0.0008081     0.0027715   -0.1654254 
   0.125581391     0.0015691   -0.1904731     0.0006884    0.0005510     0.0006461    0.0007703     0.0024481   -0.1648523 
   0.125681416     0.0006583   -0.1904494     0.0004950    0.0011638     0.0005617    0.0006904     0.0027067   -0.1647281 
   0.125781441     0.0015422   -0.1896793     0.0007096    0.0008186     0.0007592    0.0006697     0.0020715   -0.1646669 
   0.125881466     0.0014207   -0.1897855     0.0007166    0.0009361     0.0007762    0.0008735     0.0024848   -0.1644187 
   0.125981491     0.0009533   -0.1895072     0.0003741    0.0008207     0.0007006    0.0006077     0.0014904   -0.1642372 
   0.126081516     0.0013087   -0.1892507     0.0007378    0.0007405     0.0006272    0.0009928     0.0016498   -0.1642601 
   0.126181541     0.0010824   -0.1881328     0.0010099    0.0009501     0.0006500    0.0007631     0.0019611   -0.1646378 
   0.126281566     0.0003122   -0.1891930     0.0004684    0.0011285     0.0007703    0.0006582     0.0021213   -0.1646738 
   0.126381591     0.0011821   -0.1896700     0.0006404    0.0009033     0.0008124    0.0008178     0.0015215   -0.1644202 
   0.126481616     0.0006649   -0.1886235     0.0005522    0.0008496     0.0005426    0.0006287     0.0020227   -0.1645204 
   0.126581641     0.0002613   -0.1879628     0.0006898    0.0014261     0.0006304    0.0008938     0.0019277   -0.1644029 
   0.126681666     0.0010167   -0.1880203     0.0005310    0.0006218     0.0007062    0.0007895     0.0011626   -0.1647391 
   0.126781691     0.0001094   -0.1885319     0.0005586    0.0004744     0.0006619    0.0009909     0.0019065   -0.1641845 
   0.126881716     0.0002879   -0.1878125     0.0004550    0.0008165     0.0007598    0.0006588     0.0012070   -0.1639923 
   0.126981741     0.0010588   -0.1864639     0.0006852    0.0008580     0.0007395    0.0005890     0.0012060   -0.1642731 
   0.127081766     0.0013464   -0.1872027     0.0006428    0.0007888     0.0007375    0.0007408     0.0005890   -0.1636082 
   0.127181791     0.0003107   -0.1865194     0.0005338    0.0010247     0.0005851    0.0009039     0.0011102   -0.1638572 
   0.127281816     0.0004209   -0.1868531     0.0009157    0.0010315     0.0005442    0.0007178     0.0013611   -0.1637812 
   0.127381841     0.0003448   -0.1855810     0.0005446    0.0008720     0.0006337    0.0008089     0.0005589   -0.1638803 
   0.127481866     0.0004113   -0.1862018     0.0006392    0.0008988     0.0005977    0.0007322     0.0006757   -0.1640301 
   0.127581891     0.0002214   -0.1863626     0.0005742    0.0005590     0.0005647    0.0007349     0.0008294   -0.1637204 
   0.127681916     0.0007328   -0.1863423     0.0006924    0.0008554     0.0005956    0.0007570     0.0005194   -0.1644420 
   0.127781941     0.0003763   -0.1856111     0.0004706    0.0007381     0.0005222    0.0006746     0.0009229   -0.1636750 
   0.127881966     0.0005779   -0.1852867     0.0004488    0.0007144     0.0005751    0.0008132     0.0003436   -0.1632993 
   0.127981991     0.0001084   -0.1865780     0.0003666    0.0006763     0.0006944    0.0009676     0.0002821   -0.1634566 
   0.128082016    -0.0001984   -0.1862784     0.0007756    0.0005672     0.0006679    0.0007763     0.0008621   -0.1635630 
   0.128182041     0.0003301   -0.1853129     0.0003914    0.0009062     0.0007630    0.0008646     0.0005616   -0.1640863 
   0.128282066    -0.0001076   -0.1851147     0.0005693    0.0006580     0.0005537    0.0007244     0.0006557   -0.1637275 
   0.128382091     0.0003193   -0.1843069     0.0006025    0.0009228     0.0005662    0.0006709    -0.0001170   -0.1632407 
   0.128482116    -0.0003890   -0.1839863     0.0006867    0.0006592     0.0007304    0.0007526    -0.0004017   -0.1637736 
   0.128582141    -0.0006718   -0.1859331     0.0008077    0.0010664     0.0007863    0.0009459     0.0005064   -0.1632232 
   0.128682166    -0.0004156   -0.1846236     0.0008145    0.0009357     0.0007609    0.0006421     0.0000183   -0.1632998 
   0.128782191    -0.0003092   -0.1841662     0.0005738    0.0007266     0.0006808    0.0007894     0.0002969   -0.1629848 
   0.128882216    -0.0008991   -0.1833924     0.0005770    0.0008726     0.0005680    0.0008271    -0.0000925   -0.1635859 
   0.128982241    -0.0003241   -0.1834567     0.0005232    0.0007727     0.0009133    0.0007148    -0.0008632   -0.1631989 
   0.129082266    -0.0007220   -0.1835167     0.0003323    0.0007536     0.0009062    0.0007056    -0.0000549   -0.1634837 
   0.129182291     0.0002880   -0.1830949     0.0008413    0.0008612     0.0006942    0.0006604    -0.0004424   -0.1630542 
   0.129282316    -0.0009068   -0.1826228     0.0007476    0.0007500     0.0007753    0.0006310    -0.0004095   -0.1632964 
   0.129382341    -0.0002122   -0.1831970     0.0008005    0.0008921     0.0008614    0.0007337    -0.0009878   -0.1629804 
   0.129482366    -0.0006962   -0.1826757     0.0007853    0.0004881     0.0006070    0.0008927    -0.0004172   -0.1630369 
   0.129582391    -0.0006033   -0.1829208     0.0004764    0.0007352     0.0006177    0.0008986    -0.0004021   -0.1633391 
   0.129682416    -0.0017745   -0.1823326     0.0007344    0.0007321     0.0005572    0.0005367    -0.0005557   -0.1623224 
   0.129782441    -0.0009218   -0.1822062     0.0006424    0.0012139     0.0005520    0.0009042    -0.0002518   -0.1630891 
   0.129882466    -0.0002651   -0.1819127     0.0007221    0.0004449     0.0005505    0.0007279    -0.0013615   -0.1625502 
   0.129982491    -0.0006625   -0.1823525     0.0004938    0.0007241     0.0006816    0.0008067    -0.0004255   -0.1626146 
   0.130082516    -0.0000792   -0.1825688     0.0007227    0.0006812     0.0006200    0.0006222    -0.0009792   -0.1628451 
   0.130182541    -0.0003181   -0.1814687     0.0007776    0.0010851     0.0007077    0.0009501    -0.0008542   -0.1628437 
   0.130282566    -0.0011592   -0.1815242     0.0004434    0.0006244     0.0007426    0.0008717    -0.0014275   -0.1637072 
   0.130382591    -0.0016284   -0.1807330     0.0005218    0.0007097     0.0007863    0.0007412    -0.0013502   -0.1626949 
   0.130482616    -0.0014827   -0.1809920     0.0009073    0.0008651     0.0007115    0.0007970    -0.0016183   -0.1623907 
   0.130582641    -0.0005852   -0.1801817     0.0006283    0.0005946     0.0006094    0.0008009    -0.0016014   -0.1621742 
   0.130682666    -0.0007002   -0.1805608     0.0005858    0.0008143     0.0008257    0.0008431    -0.0016462   -0.1621719 
   0.130782691    -0.0011811   -0.1813857     0.0006387    0.0007121     0.0004922    0.0009366    -0.0020414   -0.1623809 
   0.130882716    -0.0008524   -0.1801185     0.0011297    0.0008023     0.0007926    0.0010297    -0.0018344   -0.1621300 
   0.130982741    -0.0005502   -0.1802472     0.0005564    0.0008767     0.0004995    0.0008727    -0.0023385   -0.1623152 
   0.131082766    -0.0007452   -0.1801711     0.0004273    0.0008976     0.0005482    0.0007993    -0.0015799   -0.1624093 
   0.131182791    -0.0007615   -0.1799390     0.0009484    0.0007565     0.0008150    0.0007651    -0.0017640   -0.1621573 
   0.131282816    -0.0016753   -0.1794373     0.0008981    0.0010552     0.0006720    0.0008297    -0.0019050   -0.1618948 
   0.131382841    -0.0015966   -0.1791831     0.0006418    0.0007455     0.0004912    0.0007637    -0.0020078   -0.1626690 
   0.131482866    -0.0014769   -0.1793282     0.0004997    0.0010671     0.0007449    0.0007124    -0.0022209   -0.1620868 
   0.131582891    -0.0014441   -0.1795189     0.0006053    0.0010050     0.0008179    0.0009862    -0.0026434   -0.1622432 
   0.131682916    -0.0016805   -0.1792081     0.0003520    0.0008176     0.0007704    0.0006341    -0.0024524   -0.1618959 
   0.131782941    -0.0017154   -0.1782590     0.0006999    0.0009283     0.0007904    0.0008137    -0.0026315   -0.1623026 
   0.131882966    -0.0009687   -0.1785131     0.0004462    0.0006602     0.0006802    0.0007607    -0.0020581   -0.1619834 
   0.131982991    -0.0012779   -0.1781081     0.0006005    0.0003424     0.0006926    0.0007608    -0.0030244   -0.1616699 
   0.132083017    -0.0012609   -0.1773792     0.0002950    0.0009378     0.0007603    0.0005970    -0.0030263   -0.1615020 
   0.132183042    -0.0012108   -0.1779668     0.0004822    0.0006772     0.0006870    0.0008621    -0.0036787   -0.1618325 
   0.132283067    -0.0015144   -0.1771991     0.0009386    0.0009795     0.0007154    0.0008284    -0.0030158   -0.1617397 
   0.132383092    -0.0018082   -0.1775136     0.0008211    0.0005794     0.0006433    0.0007856    -0.0030777   -0.1619981 
   0.132483117    -0.0015271   -0.1768622     0.0006024    0.0003612     0.0008650    0.0006964    -0.0031192   -0.1615688 
   0.132583142    -0.0027895   -0.1768073     0.0004494    0.0009928     0.0006669    0.0009682    -0.0034418   -0.1610231 
   0.132683167    -0.0017183   -0.1772958     0.0006479    0.0008914     0.0007135    0.0009508    -0.0030100   -0.1617307 
   0.132783192    -0.0014670   -0.1762516     0.0008852    0.0009890     0.0006342    0.0007430    -0.0036053   -0.1615411 
   0.132883217    -0.0019999   -0.1767038     0.0006622    0.0009743     0.0006437    0.0006463    -0.0028533   -0.1612956 
   0.132983242    -0.0016401   -0.1760748     0.0009403    0.0006872     0.0005940    0.0006712    -0.0031713   -0.1616058 
   0.133083267    -0.0022665   -0.1770718     0.0001766    0.0010514     0.0007519    0.0009451    -0.0037101   -0.1613827 
   0.133183292    -0.0025946   -0.1754205     0.0006950    0.0010059     0.0006528    0.0006397    -0.0031817   -0.1612819 
   0.133283317    -0.0017370   -0.1757081     0.0002526    0.0008494     0.0007035    0.0008972    -0.0040623   -0.1608049 
   0.133383342    -0.0020377   -0.1760862     0.0010262    0.0011009     0.0007304    0.0008976    -0.0040380   -0.1615199 
   0.133483367    -0.0023446   -0.1754035     0.0011212    0.0007899     0.0008152    0.0007199    -0.0039817   -0.1614611 
   0.133583392    -0.0012793   -0.1757023     0.0008186    0.0005977     0.0007067    0.0009531    -0.0040132   -0.1616325 
   0.133683417    -0.0027802   -0.1754120     0.0004945    0.0005376     0.0008441    0.0010090    -0.0042210   -0.1612521 
   0.133783442    -0.0021583   -0.1750085     0.0007967    0.0004422     0.0006466    0.0006642    -0.0041964   -0.1612504 
   0.133883467    -0.0021337   -0.1748942     0.0007969    0.0005656     0.0008797    0.0008572    -0.0035555   -0.1611215 
   0.133983492    -0.0016187   -0.1747328     0.0004697    0.0010594     0.0007526    0.0008583    -0.0046337   -0.1608889 
   0.134083517    -0.0018394   -0.1746844     0.0000683    0.0010356     0.0008364    0.0008195    -0.0045095   -0.1607817 
   0.134183542    -0.0024386   -0.1730777     0.0005084    0.0006840     0.0005848    0.0008153    -0.0041551   -0.1607399 
   0.134283567    -0.0022110   -0.1737228     0.0005148    0.0005504     0.0006048    0.0007672    -0.0047674   -0.1607790 
   0.134383592    -0.0017990   -0.1742532     0.0009059    0.0010298     0.0007057    0.0006102    -0.0044688   -0.1608102 
   0.134483617    -0.0029361   -0.1735011     0.0007953    0.0006528     0.0007104    0.0007208    -0.0045931   -0.1606980 
   0.134583642    -0.0034251   -0.1736007     0.0010110    0.0011661     0.0006947    0.0008516    -0.0046086   -0.1607148 
   0.134683667    -0.0022057   -0.1727490     0.0007713    0.0008430     0.0006771    0.0008360    -0.0043894   -0.1605720 
   0.134783692    -0.0022319   -0.1725836     0.0010456    0.0010356     0.0006567    0.0006759    -0.0045255   -0.1605564 
   0.134883717    -0.0028763   -0.1743696     0.0009529    0.0010736     0.0005233    0.0008005    -0.0047461   -0.1603629 
   0.134983742    -0.0029305   -0.1723997     0.0006321    0.0007982     0.0008785    0.0009323    -0.0055665   -0.1601595 
   0.135083767    -0.0019882   -0.1728883     0.0005044    0.0008408     0.0006931    0.0007415    -0.0050031   -0.1606641 
   0.135183792    -0.0029375   -0.1722406     0.0010785    0.0006473     0.0005011    0.0007669    -0.0051376   -0.1603432 
   0.135283817    -0.0019403   -0.1727552     0.0005845    0.0004369     0.0008878    0.0008419    -0.0051385   -0.1606428 
   0.135383842    -0.0031903   -0.1715248     0.0009444    0.0005860     0.0006771    0.0007022    -0.0056223   -0.1604018 
   0.135483867    -0.0026454   -0.1708806     0.0008451    0.0006834     0.0008132    0.0010112    -0.0052951   -0.1607265 
   0.135583892    -0.0027262   -0.1717081     0.0011729    0.0007920     0.0007877    0.0007255    -0.0049564   -0.1603308 
   0.135683917    -0.0028733   -0.1712999     0.0006099    0.0009470     0.0006672    0.0008834    -0.0055253   -0.1606216 
   0.135783942    -0.0020483   -0.1721222     0.0008877    0.0010154     0.0006659    0.0006834    -0.0058755   -0.1604295 
   0.135883967    -0.0029615   -0.1712974     0.0006378    0.0004554     0.0006162    0.0009127    -0.0059550   -0.1600085 
   0.135983992    -0.0024160   -0.1708055     0.0006355    0.0007883     0.0008618    0.0008839    -0.0057896   -0.1605231 
   0.136084017    -0.0026702   -0.1710537     0.0012070    0.0007747     0.0008579    0.0009131    -0.0056263   -0.1605047 
   0.136184042    -0.0026049   -0.1712584     0.0005316    0.0008744     0.0006918    0.0009743    -0.0057873   -0.1603574 
   0.136284067    -0.0028256   -0.1704023     0.0004644    0.0008151     0.0009959    0.0007317    -0.0057989   -0.1596072 
   0.136384092    -0.0024235   -0.1706691     0.0007814    0.0005902     0.0007693    0.0008196    -0.0063849   -0.1597517 
   0.136484117    -0.0027823   -0.1702207     0.0007223    0.0008885     0.0009130    0.0007926    -0.0062170   -0.1602779 
   0.136584142    -0.0038960   -0.1707057     0.0004460    0.0009290     0.0006261    0.0010203    -0.0058822   -0.1597160 
   0.136684167    -0.0032334   -0.1703325     0.0008456    0.0010199     0.0007773    0.0008248    -0.0062869   -0.1599011 
   0.136784192    -0.0030053   -0.1697209     0.0007449    0.0009176     0.0007019    0.0006673    -0.0061650   -0.1597872 
   0.136884217    -0.0024748   -0.1696891     0.0006645    0.0007596     0.0005070    0.0007784    -0.0069596   -0.1599455 
   0.136984242    -0.0027352   -0.1702504     0.0009383    0.0010467     0.0008227    0.0007787    -0.0070042   -0.1596986 
   0.137084267    -0.0031306   -0.1693200     0.0004556    0.0011957     0.0009049    0.0008497    -0.0070936   -0.1598443 
   0.137184292    -0.0037672   -0.1692133     0.0006083    0.0005173     0.0007649    0.0007582    -0.0072293   -0.1594728 
   0.137284317    -0.0031560   -0.1684789     0.0007018    0.0005797     0.0006792    0.0008316    -0.0069261   -0.1593347 
   0.137384342    -0.0029418   -0.1680304     0.0009728    0.0010320     0.0007928    0.0005717    -0.0066188   -0.1595925 
   0.137484367    -0.0039902   -0.1692308     0.0006013    0.0010566     0.0008337    0.0009291    -0.0071558   -0.1596283 
   0.137584392    -0.0033910   -0.1681790     0.0008132    0.0004408     0.0006526    0.0006988    -0.0071393   -0.1594292 
   0.137684417    -0.0034407   -0.1686072     0.0008931    0.0006708     0.0006811    0.0006119    -0.0068883   -0.1590870 
   0.137784442    -0.0027263   -0.1686206     0.0009265    0.0007642     0.0004887    0.0010062    -0.0069514   -0.1591136 
   0.137884467    -0.0028987   -0.1678502     0.0008175    0.0009345     0.0005108    0.0009568    -0.0072300   -0.1599523 
   0.137984492    -0.0034972   -0.1677354     0.0010909    0.0009918     0.0007309    0.0007675    -0.0073932   -0.1595247 
   0.138084517    -0.0026801   -0.1673712     0.0008152    0.0007464     0.0006167    0.0008534    -0.0073948   -0.1591750 
   0.138184542    -0.0036832   -0.1667410     0.0008003    0.0009668     0.0008991    0.0005085    -0.0072661   -0.1590821 
   0.138284567    -0.0034790   -0.1669670     0.0006362    0.0008319     0.0006849    0.0007353    -0.0072123   -0.1592739 
   0.138384592    -0.0034569   -0.1667586     0.0012040    0.0006508     0.0006081    0.0008727    -0.0078171   -0.1592429 
   0.138484617    -0.0031514   -0.1668673     0.0010107    0.0010304     0.0006552    0.0007765    -0.0073717   -0.1591920 
   0.138584642    -0.0037552   -0.1663308     0.0009793    0.0009146     0.0008077    0.0007580    -0.0079489   -0.1591626 
   0.138684667    -0.0039716   -0.1663069     0.0009379    0.0005314     0.0008115    0.0008762    -0.0079342   -0.1589504 
   0.138784692    -0.0029372   -0.1669753     0.0008760    0.0010407     0.0008088    0.0007049    -0.0083511   -0.1593000 
   0.138884717    -0.0028726   -0.1659688     0.0009600    0.0007678     0.0008798    0.0009306    -0.0079146   -0.1590229 
   0.138984742    -0.0035900   -0.1663808     0.0005253    0.0006974     0.0010080    0.0008965    -0.0082860   -0.1585731 
   0.139084767    -0.0039858   -0.1660751     0.0013038    0.0007061     0.0010097    0.0008323    -0.0083675   -0.1586244 
   0.139184792    -0.0041303   -0.1656762     0.0004831    0.0007012     0.0009465    0.0007751    -0.0083153   -0.1585924 
   0.139284817    -0.0030337   -0.1658761     0.0010607    0.0010908     0.0010452    0.0007588    -0.0082635   -0.1585885 
   0.139384842    -0.0039361   -0.1659535     0.0009628    0.0008291     0.0006309    0.0008885    -0.0085318   -0.1588041 
   0.139484867    -0.0038179   -0.1653947     0.0003759    0.0009682     0.0009087    0.0005998    -0.0085670   -0.1587658 
   0.139584892    -0.0038541   -0.1659393     0.0008074    0.0004501     0.0006230    0.0010010    -0.0077394   -0.1587858 
   0.139684917    -0.0036764   -0.1650607     0.0007847    0.0006288     0.0009645    0.0006524    -0.0090645   -0.1591630 
   0.139784942    -0.0034440   -0.1651713     0.0005664    0.0009463     0.0009215    0.0008904    -0.0086321   -0.1592784 
   0.139884967    -0.0042535   -0.1650502     0.0009196    0.0007049     0.0009436    0.0007247    -0.0088514   -0.1585841 
   0.139984992    -0.0043022   -0.1641935     0.0005674    0.0009522     0.0009175    0.0008422    -0.0086858   -0.1588117 
   0.140085018    -0.0038026   -0.1645454     0.0009630    0.0006808     0.0007846    0.0007943    -0.0088294   -0.1581315 
   0.140185043    -0.0036304   -0.1643141     0.0006386    0.0008949     0.0008421    0.0007254    -0.0094115   -0.1579149 
   0.140285068    -0.0035170   -0.1635728     0.0006933    0.0005048     0.0008979    0.0008109    -0.0088427   -0.1583558 
   0.140385093    -0.0030206   -0.1637531     0.0006116    0.0006781     0.0009468    0.0007764    -0.0086899   -0.1584000 
   0.140485118    -0.0042348   -0.1636144     0.0007174    0.0001871     0.0007235    0.0006336    -0.0095247   -0.1575600 
   0.140585143    -0.0042154   -0.1639690     0.0006965    0.0008082     0.0008722    0.0007735    -0.0090884   -0.1585076 
   0.140685168    -0.0040513   -0.1640456     0.0004766    0.0006318     0.0006012    0.0006679    -0.0095686   -0.1582928 
   0.140785193    -0.0042012   -0.1634007     0.0007111    0.0008119     0.0008066    0.0006052    -0.0093027   -0.1576913 
   0.140885218    -0.0035977   -0.1630468     0.0003350    0.0009711     0.0007569    0.0009053    -0.0093341   -0.1579681 
   0.140985243    -0.0037662   -0.1630143     0.0008674    0.0012752     0.0009170    0.0011081    -0.0096402   -0.1582812 
   0.141085268    -0.0034301   -0.1635099     0.0009402    0.0008963     0.0005825    0.0008894    -0.0095730   -0.1582243 
   0.141185293    -0.0045403   -0.1624900     0.0001716    0.0011252     0.0007807    0.0008284    -0.0095721   -0.1576004 
   0.141285318    -0.0036667   -0.1627476     0.0011143    0.0010351     0.0010989    0.0007035    -0.0102090   -0.1577303 
   0.141385343    -0.0050629   -0.1620008     0.0007338    0.0009302     0.0008974    0.0008853    -0.0104557   -0.1578821 
   0.141485368    -0.0041594   -0.1619377     0.0008555    0.0012913     0.0006098    0.0006752    -0.0099069   -0.1582724 
   0.141585393    -0.0036033   -0.1618204     0.0004183    0.0006721     0.0007242    0.0009175    -0.0101067   -0.1578056 
   0.141685418    -0.0044048   -0.1632241     0.0006599    0.0009610     0.0008551    0.0006570    -0.0105763   -0.1577135 
   0.141785443    -0.0049162   -0.1615889     0.0008891    0.0007368     0.0007862    0.0003935    -0.0102391   -0.1572062 
   0.141885468    -0.0042012   -0.1615427     0.0008763    0.0008563     0.0008635    0.0009161    -0.0100616   -0.1573703 
   0.141985493    -0.0047898   -0.1608392     0.0005381    0.0008592     0.0008040    0.0006158    -0.0109205   -0.1578051 
   0.142085518    -0.0048855   -0.1607409     0.0006528    0.0007904     0.0007750    0.0006686    -0.0107521   -0.1578058 
   0.142185543    -0.0046864   -0.1608514     0.0005941    0.0007989     0.0008670    0.0007307    -0.0112830   -0.1577845 
   0.142285568    -0.0042474   -0.1615440     0.0009463    0.0005035     0.0009795    0.0008240    -0.0110123   -0.1574229 
   0.142385593    -0.0039933   -0.1609732     0.0006817    0.0007975     0.0007882    0.0009950    -0.0112488   -0.1570866 
   0.142485618    -0.0046995   -0.1606295     0.0009768    0.0008898     0.0007719    0.0008073    -0.0115375   -0.1573593 
   0.142585643    -0.0049191   -0.1595354     0.0010408    0.0008427     0.0008726    0.0006583    -0.0109036   -0.1573852 
   0.142685668    -0.0046217   -0.1606536     0.0009494    0.0008447     0.0008334    0.0010519    -0.0109150   -0.1578958 
   0.142785693    -0.0043256   -0.1604612     0.0008977    0.0009590     0.0010623    0.0006636    -0.0110426   -0.1571277 
   0.142885718    -0.0043215   -0.1598092     0.0011091    0.0007452     0.0007383    0.0007293    -0.0115003   -0.1572476 
   0.142985743    -0.0049246   -0.1599128     0.0010156    0.0010141     0.0009084    0.0008497    -0.0112642   -0.1574786 
   0.143085768    -0.0040585   -0.1600455     0.0010477    0.0009982     0.0007124    0.0009061    -0.0111942   -0.1572159 
   0.143185793    -0.0041286   -0.1594740     0.0005284    0.0004315     0.0010296    0.0007572    -0.0118138   -0.1571014 
   0.143285818    -0.0044729   -0.1597803     0.0008324    0.0009058     0.0009378    0.0008708    -0.0115992   -0.1568386 
   0.143385843    -0.0047014   -0.1595014     0.0004657    0.0008381     0.0009572    0.0005772    -0.0112331   -0.1570585 
   0.143485868    -0.0044930   -0.1593744     0.0010122    0.0007101     0.0008446    0.0008397    -0.0113597   -0.1566297 
   0.143585893    -0.0047765   -0.1588190     0.0010129    0.0009097     0.0009779    0.0007458    -0.0123541   -0.1567095 
   0.143685918    -0.0048531   -0.1577392     0.0009698    0.0010689     0.0007337    0.0007486    -0.0121042   -0.1572410 
   0.143785943    -0.0049054   -0.1585404     0.0003700    0.0007481     0.0009209    0.0009950    -0.0122820   -0.1573773 
   0.143885968    -0.0042127   -0.1591287     0.0007846    0.0011263     0.0009857    0.0005782    -0.0117306   -0.1569210 
   0.143985993    -0.0044669   -0.1578089     0.0009409    0.0011597     0.0009781    0.0008105    -0.0119842   -0.1567166 
   0.144086018    -0.0048479   -0.1583185     0.0007836    0.0004873     0.0006660    0.0008310    -0.0122182   -0.1567395 
   0.144186043    -0.0047274   -0.1590913     0.0007526    0.0005527     0.0007399    0.0007649    -0.0127989   -0.1566264 
   0.144286068    -0.0045185   -0.1576354     0.0006614    0.0009651     0.0008073    0.0009103    -0.0121459   -0.1568189 
   0.144386093    -0.0046373   -0.1578076     0.0005594    0.0008620     0.0007712    0.0007056    -0.0120636   -0.1571949 
   0.144486118    -0.0049173   -0.1578768     0.0010798    0.0012239     0.0006840    0.0005415    -0.0125529   -0.1570195 
   0.144586143    -0.0052151   -0.1571650     0.0005461    0.0009397     0.0007483    0.0007674    -0.0125892   -0.1565641 
   0.144686168    -0.0039169   -0.1568233     0.0010698    0.0008173     0.0009308    0.0007954    -0.0121844   -0.1560821 
   0.144786193    -0.0048534   -0.1568966     0.0006898    0.0004460     0.0009946    0.0006916    -0.0129727   -0.1565059 
   0.144886218    -0.0054084   -0.1566224     0.0007147    0.0005620     0.0007838    0.0008239    -0.0123851   -0.1566754 
   0.144986243    -0.0054246   -0.1564498     0.0007805    0.0009730     0.0009477    0.0007479    -0.0128235   -0.1563425 
   0.145086268    -0.0048757   -0.1570641     0.0007954    0.0007887     0.0006537    0.0007027    -0.0126530   -0.1566371 
   0.145186293    -0.0054172   -0.1560739     0.0009746    0.0009112     0.0007641    0.0007713    -0.0132622   -0.1567334 
   0.145286318    -0.0047534   -0.1563788     0.0005629    0.0009499     0.0009236    0.0006945    -0.0126460   -0.1562597 
   0.145386343    -0.0052130   -0.1564441     0.0005922    0.0005747     0.0008818    0.0006848    -0.0131446   -0.1562062 
   0.145486368    -0.0052446   -0.1553738     0.0009236    0.0007156     0.0010868    0.0008761    -0.0130176   -0.1557319 
   0.145586393    -0.0042802   -0.1555717     0.0010632    0.0008517     0.0008493    0.0006812    -0.0136165   -0.1566224 
   0.145686418    -0.0043038   -0.1562096     0.0010162    0.0011676     0.0007029    0.0008036    -0.0133885   -0.1563239 
   0.145786443    -0.0046852   -0.1553151     0.0009071    0.0006399     0.0008861    0.0007889    -0.0136131   -0.1561268 
   0.145886468    -0.0042894   -0.1548139     0.0007412    0.0007466     0.0008250    0.0006050    -0.0137959   -0.1565280 
   0.145986493    -0.0051614   -0.1550902     0.0008010    0.0004927     0.0007658    0.0008683    -0.0135481   -0.1557248 
   0.146086518    -0.0052737   -0.1556184     0.0012017    0.0003960     0.0009566    0.0008788    -0.0135472   -0.1561313 
   0.146186543    -0.0056401   -0.1553126     0.0007399    0.0011041     0.0007114    0.0007969    -0.0136922   -0.1558431 
   0.146286568    -0.0056647   -0.1543846     0.0008158    0.0010554     0.0009435    0.0007524    -0.0139835   -0.1560837 
   0.146386593    -0.0051180   -0.1545898     0.0011239    0.0008532     0.0010394    0.0007775    -0.0140872   -0.1562863 
   0.146486618    -0.0054593   -0.1549399     0.0008223    0.0011684     0.0009600    0.0008230    -0.0142079   -0.1563936 
   0.146586643    -0.0049033   -0.1545157     0.0009352    0.0008899     0.0009785    0.0008173    -0.0138051   -0.1557006 
   0.146686668    -0.0046162   -0.1544604     0.0008851    0.0008196     0.0009136    0.0008579    -0.0145226   -0.1558595 
   0.146786693    -0.0061955   -0.1541229     0.0011596    0.0008821     0.0011569    0.0008969    -0.0140773   -0.1556624 
   0.146886718    -0.0050527   -0.1539066     0.0010096    0.0010941     0.0008739    0.0010852    -0.0143966   -0.1551327 
   0.146986743    -0.0049935   -0.1531182     0.0005693    0.0011216     0.0008746    0.0009981    -0.0147325   -0.1554575 
   0.147086768    -0.0060447   -0.1528079     0.0007684    0.0005679     0.0010274    0.0008431    -0.0148054   -0.1558567 
   0.147186793    -0.0052029   -0.1539676     0.0005095    0.0007832     0.0008659    0.0006621    -0.0152597   -0.1557906 
   0.147286818    -0.0045566   -0.1526906     0.0009056    0.0011509     0.0010179    0.0006521    -0.0146240   -0.1554734 
   0.147386843    -0.0050128   -0.1530640     0.0007808    0.0007768     0.0007899    0.0007598    -0.0150000   -0.1562013 
   0.147486868    -0.0052701   -0.1528436     0.0008568    0.0007587     0.0009351    0.0007583    -0.0148330   -0.1554573 
   0.147586893    -0.0057751   -0.1527626     0.0009343    0.0010145     0.0008088    0.0006633    -0.0152242   -0.1549332 
   0.147686918    -0.0060980   -0.1521111     0.0013517    0.0005633     0.0007138    0.0009379    -0.0149536   -0.1557440 
   0.147786943    -0.0052945   -0.1524383     0.0005926    0.0005859     0.0008084    0.0008388    -0.0147656   -0.1552258 
   0.147886968    -0.0047643   -0.1522728     0.0007504    0.0008440     0.0008941    0.0006806    -0.0151349   -0.1555435 
   0.147986993    -0.0055082   -0.1524120     0.0008888    0.0005805     0.0007661    0.0007170    -0.0155661   -0.1549479 
   0.148087019    -0.0056331   -0.1524836     0.0010442    0.0007969     0.0009258    0.0010324    -0.0150823   -0.1551752 
   0.148187044    -0.0051942   -0.1524255     0.0010700    0.0006143     0.0009583    0.0008191    -0.0157763   -0.1549099 
   0.148287069    -0.0047109   -0.1529371     0.0005893    0.0008278     0.0009646    0.0008841    -0.0160105   -0.1548535 
   0.148387094    -0.0049234   -0.1518230     0.0011804    0.0007059     0.0011153    0.0009742    -0.0157562   -0.1549856 
   0.148487119    -0.0044618   -0.1517494     0.0008942    0.0008115     0.0009481    0.0007418    -0.0157023   -0.1549449 
   0.148587144    -0.0054206   -0.1515720     0.0009499    0.0008130     0.0010065    0.0009772    -0.0155169   -0.1553500 
   0.148687169    -0.0055640   -0.1507379     0.0008969    0.0007132     0.0008801    0.0006292    -0.0157784   -0.1546545 
   0.148787194    -0.0054276   -0.1505898     0.0010218    0.0010424     0.0009612    0.0008479    -0.0157003   -0.1548411 
   0.148887219    -0.0049844   -0.1506182     0.0011367    0.0008889     0.0011334    0.0007512    -0.0162805   -0.1546375 
   0.148987244    -0.0050735   -0.1507633     0.0007581    0.0006615     0.0007560    0.0007171    -0.0155608   -0.1551600 
   0.149087269    -0.0049321   -0.1503606     0.0011031    0.0007197     0.0008108    0.0010491    -0.0158801   -0.1545160 
   0.149187294    -0.0056713   -0.1504327     0.0009912    0.0007456     0.0008205    0.0006847    -0.0158615   -0.1550487 
   0.149287319    -0.0062338   -0.1504312     0.0009505    0.0009572     0.0009664    0.0009308    -0.0164736   -0.1550990 
   0.149387344    -0.0059477   -0.1503003     0.0008533    0.0005569     0.0006823    0.0007127    -0.0165339   -0.1548247 
   0.149487369    -0.0060962   -0.1501987     0.0012443    0.0009040     0.0009052    0.0009925    -0.0163074   -0.1552892 
   0.149587394    -0.0065377   -0.1491038     0.0010615    0.0008076     0.0007888    0.0007655    -0.0167133   -0.1554538 
   0.149687419    -0.0053674   -0.1498555     0.0009331    0.0009613     0.0009216    0.0008404    -0.0165870   -0.1548055 
   0.149787444    -0.0061833   -0.1495166     0.0008915    0.0007295     0.0010048    0.0007968    -0.0165619   -0.1544276 
   0.149887469    -0.0058672   -0.1490105     0.0011886    0.0007314     0.0010273    0.0008477    -0.0166860   -0.1545504 
   0.149987494    -0.0051652   -0.1495975     0.0010187    0.0005622     0.0007364    0.0007279    -0.0166332   -0.1543538 
   0.150087519    -0.0064649   -0.1489683     0.0005698    0.0008378     0.0006546    0.0007590    -0.0166687   -0.1542957 
   0.150187544    -0.0048897   -0.1493702     0.0004827    0.0011106     0.0011243    0.0007916    -0.0170636   -0.1546247 
   0.150287569    -0.0058258   -0.1492098     0.0006119    0.0012235     0.0008403    0.0009228    -0.0168221   -0.1542900 
   0.150387594    -0.0056635   -0.1487417     0.0011852    0.0005374     0.0010822    0.0006705    -0.0166426   -0.1544465 
   0.150487619    -0.0062152   -0.1479366     0.0009992    0.0005568     0.0008577    0.0007290    -0.0170564   -0.1543289 
   0.150587644    -0.0060477   -0.1484895     0.0006247    0.0010807     0.0009957    0.0008335    -0.0172424   -0.1542422 
   0.150687669    -0.0059621   -0.1482724     0.0009140    0.0009663     0.0010175    0.0004604    -0.0170391   -0.1544034 
   0.150787694    -0.0045801   -0.1478828     0.0009858    0.0008542     0.0009183    0.0008886    -0.0173650   -0.1545952 
   0.150887719    -0.0063868   -0.1476265     0.0008835    0.0010330     0.0009295    0.0007492    -0.0175431   -0.1543251 
   0.150987744    -0.0049066   -0.1475941     0.0008137    0.0008990     0.0009432    0.0006128    -0.0173813   -0.1543143 
   0.151087769    -0.0064698   -0.1473293     0.0010380    0.0009121     0.0009060    0.0010424    -0.0176775   -0.1541410 
   0.151187794    -0.0057659   -0.1471028     0.0009723    0.0004624     0.0009109    0.0005811    -0.0176309   -0.1541550 
   0.151287819    -0.0060184   -0.1468786     0.0009574    0.0006178     0.0011192    0.0008248    -0.0174661   -0.1538748 
   0.151387844    -0.0059838   -0.1465892     0.0008731    0.0005347     0.0008437    0.0005513    -0.0174439   -0.1536412 
   0.151487869    -0.0058217   -0.1475710     0.0012044    0.0009997     0.0010946    0.0007098    -0.0176356   -0.1539615 
   0.151587894    -0.0060275   -0.1464520     0.0011539    0.0007672     0.0012667    0.0006338    -0.0181659   -0.1538858 
   0.151687919    -0.0061987   -0.1462496     0.0012131    0.0012197     0.0009619    0.0008441    -0.0175358   -0.1529279 
   0.151787944    -0.0064787   -0.1464692     0.0010244    0.0002542     0.0012250    0.0007039    -0.0180365   -0.1534910 
   0.151887969    -0.0049319   -0.1460214     0.0010971    0.0004606     0.0009925    0.0005318    -0.0181008   -0.1538134 
   0.151987994    -0.0062272   -0.1466810     0.0007802    0.0008698     0.0009166    0.0007168    -0.0180191   -0.1530939 
   0.152088019    -0.0060296   -0.1458443     0.0010449    0.0009447     0.0008946    0.0006174    -0.0183323   -0.1533833 
   0.152188044    -0.0058821   -0.1458030     0.0010963    0.0006578     0.0008371    0.0009392    -0.0183066   -0.1533005 
   0.152288069    -0.0059324   -0.1462801     0.0008602    0.0004305     0.0010538    0.0008683    -0.0181610   -0.1536296 
   0.152388094    -0.0052013   -0.1458109     0.0011835    0.0007916     0.0009001    0.0007884    -0.0188284   -0.1537114 
   0.152488119    -0.0060481   -0.1458272     0.0009861    0.0006082     0.0009076    0.0007432    -0.0191168   -0.1538209 
   0.152588144    -0.0059242   -0.1453746     0.0010809    0.0008120     0.0009890    0.0004408    -0.0185386   -0.1534654 
   0.152688169    -0.0054103   -0.1446081     0.0010877    0.0007500     0.0010761    0.0006834    -0.0188887   -0.1539377 
   0.152788194    -0.0068943   -0.1445277     0.0010414    0.0008765     0.0009216    0.0009518    -0.0189848   -0.1534135 
   0.152888219    -0.0053507   -0.1454279     0.0009922    0.0008134     0.0011465    0.0006485    -0.0190308   -0.1528412 
   0.152988244    -0.0055307   -0.1444799     0.0008601    0.0007681     0.0009540    0.0008424    -0.0193341   -0.1538607 
   0.153088269    -0.0059475   -0.1442489     0.0012556    0.0003799     0.0009677    0.0008086    -0.0184172   -0.1531092 
   0.153188294    -0.0056145   -0.1450196     0.0007554    0.0008047     0.0009410    0.0008502    -0.0191053   -0.1532270 
   0.153288319    -0.0059213   -0.1443243     0.0009314    0.0006969     0.0007557    0.0008310    -0.0190119   -0.1530903 
   0.153388344    -0.0050839   -0.1443049     0.0007441    0.0007437     0.0008598    0.0007574    -0.0192282   -0.1528378 
   0.153488369    -0.0052166   -0.1442709     0.0012213    0.0008300     0.0010104    0.0008495    -0.0189033   -0.1526788 
   0.153588394    -0.0062327   -0.1438029     0.0012498    0.0004407     0.0011450    0.0007414    -0.0191968   -0.1530190 
   0.153688419    -0.0062570   -0.1435745     0.0012726    0.0007490     0.0011326    0.0005499    -0.0199466   -0.1527161 
   0.153788444    -0.0062848   -0.1432929     0.0011153    0.0003589     0.0009605    0.0007824    -0.0200099   -0.1528770 
   0.153888469    -0.0059439   -0.1441441     0.0013681    0.0010262     0.0010599    0.0007137    -0.0197238   -0.1528230 
   0.153988494    -0.0056801   -0.1432440     0.0013054    0.0003745     0.0010834    0.0007605    -0.0197439   -0.1522792 
   0.154088519    -0.0063599   -0.1435489     0.0010954    0.0011305     0.0009242    0.0005728    -0.0201170   -0.1525036 
   0.154188544    -0.0058842   -0.1426558     0.0009931    0.0006573     0.0008749    0.0006025    -0.0197048   -0.1531097 
   0.154288569    -0.0067425   -0.1426280     0.0008407    0.0007135     0.0010845    0.0004404    -0.0203294   -0.1528674 
   0.154388594    -0.0061327   -0.1429183     0.0011391    0.0009971     0.0010597    0.0006562    -0.0198779   -0.1524302 
   0.154488619    -0.0066324   -0.1429092     0.0011037    0.0009354     0.0009982    0.0007880    -0.0197285   -0.1527884 
   0.154588644    -0.0061410   -0.1421346     0.0007810    0.0009926     0.0009493    0.0007426    -0.0200213   -0.1522519 
   0.154688669    -0.0064673   -0.1423697     0.0009527    0.0008559     0.0009702    0.0006897    -0.0199245   -0.1528207 
   0.154788694    -0.0059784   -0.1428042     0.0008331    0.0006878     0.0010341    0.0006572    -0.0204926   -0.1528136 
   0.154888719    -0.0064174   -0.1419581     0.0011273    0.0007237     0.0009325    0.0008478    -0.0200761   -0.1526825 
   0.154988744    -0.0058253   -0.1415884     0.0010635    0.0010607     0.0010347    0.0009456    -0.0203762   -0.1529459 
   0.155088769    -0.0054174   -0.1416202     0.0007473    0.0010503     0.0009881    0.0008260    -0.0207884   -0.1527018 
   0.155188794    -0.0058648   -0.1409881     0.0010631    0.0007658     0.0009648    0.0005351    -0.0207476   -0.1523266 
   0.155288819    -0.0058978   -0.1408016     0.0012899    0.0003178     0.0010012    0.0008229    -0.0208938   -0.1522630 
   0.155388844    -0.0056547   -0.1409156     0.0008943    0.0008326     0.0009512    0.0008419    -0.0206725   -0.1521821 
   0.155488869    -0.0058504   -0.1403700     0.0011013    0.0009164     0.0011542    0.0007542    -0.0203696   -0.1523087 
   0.155588894    -0.0060270   -0.1411523     0.0006573    0.0006590     0.0010028    0.0005080    -0.0207162   -0.1522066 
   0.155688919    -0.0060636   -0.1408362     0.0006907    0.0005386     0.0010284    0.0007308    -0.0207847   -0.1519493 
   0.155788944    -0.0057860   -0.1409571     0.0010688    0.0007118     0.0010012    0.0007391    -0.0204592   -0.1517231 
   0.155888969    -0.0053411   -0.1408394     0.0015288    0.0006216     0.0009469    0.0005567    -0.0212535   -0.1523194 
   0.155988994    -0.0055096   -0.1409850     0.0008158    0.0005188     0.0007905    0.0004391    -0.0208389   -0.1520324 
   0.156089020    -0.0051280   -0.1402342     0.0003784    0.0008172     0.0009437    0.0008571    -0.0211527   -0.1519712 
   0.156189045    -0.0070000   -0.1401647     0.0010507    0.0006629     0.0011091    0.0006273    -0.0208263   -0.1521807 
   0.156289070    -0.0058708   -0.1403076     0.0009732    0.0011223     0.0012235    0.0009766    -0.0214800   -0.1514861 
   0.156389095    -0.0058586   -0.1396591     0.0010691    0.0008043     0.0010472    0.0004223    -0.0209568   -0.1519216 
   0.156489120    -0.0061852   -0.1403182     0.0012592    0.0008289     0.0010798    0.0007583    -0.0209597   -0.1517869 
   0.156589145    -0.0064438   -0.1396508     0.0010058    0.0008594     0.0010031    0.0008491    -0.0213031   -0.1517324 
   0.156689170    -0.0057547   -0.1393062     0.0013953    0.0006861     0.0009125    0.0005882    -0.0219839   -0.1509927 
   0.156789195    -0.0058071   -0.1395213     0.0010316    0.0005569     0.0009529    0.0007616    -0.0214770   -0.1516707 
   0.156889220    -0.0057865   -0.1388683     0.0010814    0.0003198     0.0010074    0.0006110    -0.0217224   -0.1519470 
   0.156989245    -0.0053406   -0.1393402     0.0009936    0.0005423     0.0010098    0.0006410    -0.0220753   -0.1512004 
   0.157089270    -0.0063517   -0.1391080     0.0013386    0.0007189     0.0009010    0.0007407    -0.0217810   -0.1522029 
   0.157189295    -0.0058594   -0.1391376     0.0007540    0.0008259     0.0009479    0.0009385    -0.0224032   -0.1515715 
   0.157289320    -0.0058219   -0.1374902     0.0011964    0.0007764     0.0010653    0.0008275    -0.0224258   -0.1517230 
   0.157389345    -0.0060898   -0.1383458     0.0010893    0.0006190     0.0012244    0.0006060    -0.0221209   -0.1513914 
   0.157489370    -0.0063447   -0.1381350     0.0009484    0.0009746     0.0011625    0.0007360    -0.0213162   -0.1507962 
   0.157589395    -0.0063969   -0.1373350     0.0008172    0.0007889     0.0009428    0.0007536    -0.0221999   -0.1515470 
   0.157689420    -0.0058622   -0.1380097     0.0009659    0.0008274     0.0010690    0.0007242    -0.0225788   -0.1512894 
   0.157789445    -0.0054668   -0.1387689     0.0014833    0.0004553     0.0009784    0.0006953    -0.0225688   -0.1513267 
   0.157889470    -0.0058323   -0.1383148     0.0010006    0.0008474     0.0011727    0.0006887    -0.0225399   -0.1515864 
   0.157989495    -0.0059961   -0.1385008     0.0010295    0.0008338     0.0011708    0.0008184    -0.0227736   -0.1513443 
   0.158089520    -0.0057938   -0.1375979     0.0013711    0.0005400     0.0009525    0.0007107    -0.0223810   -0.1515204 
   0.158189545    -0.0059342   -0.1369912     0.0005975    0.0008881     0.0010776    0.0006914    -0.0230285   -0.1510352 
   0.158289570    -0.0058611   -0.1375224     0.0010585    0.0004689     0.0011570    0.0008648    -0.0226913   -0.1517252 
   0.158389595    -0.0066388   -0.1376568     0.0011299    0.0014532     0.0008109    0.0008783    -0.0225433   -0.1508830 
   0.158489620    -0.0060761   -0.1365282     0.0007877    0.0004132     0.0010051    0.0007633    -0.0232500   -0.1510101 
   0.158589645    -0.0065888   -0.1370586     0.0009395    0.0006692     0.0011149    0.0006671    -0.0233674   -0.1506568 
   0.158689670    -0.0065863   -0.1367529     0.0010615    0.0008974     0.0010405    0.0008549    -0.0227593   -0.1506471 
   0.158789695    -0.0062691   -0.1358971     0.0010566    0.0008785     0.0009770    0.0005502    -0.0231496   -0.1507680 
   0.158889720    -0.0064311   -0.1362869     0.0009410    0.0009255     0.0010311    0.0005811    -0.0224381   -0.1511321 
   0.158989745    -0.0063804   -0.1360509     0.0011711    0.0004046     0.0009513    0.0006435    -0.0232261   -0.1506556 
   0.159089770    -0.0056815   -0.1360660     0.0009279    0.0004609     0.0012602    0.0010548    -0.0232197   -0.1498764 
   0.159189795    -0.0062720   -0.1360843     0.0012752    0.0009553     0.0008112    0.0007767    -0.0235288   -0.1501986 
   0.159289820    -0.0057935   -0.1362943     0.0009779    0.0005284     0.0010122    0.0007207    -0.0235048   -0.1503107 
   0.159389845    -0.0063249   -0.1364639     0.0010883    0.0003514     0.0011211    0.0007319    -0.0235436   -0.1507862 
   0.159489870    -0.0067017   -0.1353853     0.0011130    0.0007654     0.0009422    0.0007213    -0.0239630   -0.1512608 
   0.159589895    -0.0050533   -0.1348283     0.0010023    0.0011347     0.0012959    0.0007301    -0.0242525   -0.1504056 
   0.159689920    -0.0064063   -0.1352230     0.0011064    0.0009660     0.0009333    0.0006675    -0.0242663   -0.1509793 
   0.159789945    -0.0057475   -0.1355378     0.0009261    0.0006583     0.0011435    0.0007841    -0.0243049   -0.1506439 
   0.159889970    -0.0065686   -0.1343823     0.0009944    0.0007311     0.0010819    0.0005357    -0.0237550   -0.1504039 
   0.159989995    -0.0071967   -0.1358517     0.0011969    0.0005525     0.0009930    0.0006425    -0.0240486   -0.1501583 
   0.160090020    -0.0062512   -0.1346320     0.0013796    0.0007175     0.0009817    0.0006684    -0.0242757   -0.1502340 
   0.160190045    -0.0060288   -0.1344262     0.0015810    0.0004140     0.0010832    0.0006694    -0.0240260   -0.1502748 
   0.160290070    -0.0064420   -0.1341060     0.0010023    0.0001673     0.0011477    0.0006265    -0.0242582   -0.1501454 
   0.160390095    -0.0060758   -0.1343739     0.0010211    0.0005826     0.0009995    0.0006951    -0.0237563   -0.1502286 
   0.160490120    -0.0065943   -0.1346913     0.0007200    0.0011116     0.0009866    0.0007917    -0.0247027   -0.1499866 
   0.160590145    -0.0059898   -0.1336502     0.0007513    0.0008185     0.0010132    0.0009612    -0.0239068   -0.1497626 
   0.160690170    -0.0062497   -0.1339964     0.0010760    0.0006139     0.0010632    0.0006882    -0.0247188   -0.1503530 
   0.160790195    -0.0065964   -0.1335635     0.0008766    0.0007356     0.0010328    0.0008019    -0.0249041   -0.1498515 
   0.160890220    -0.0054517   -0.1340844     0.0010532    0.0004742     0.0009917    0.0007554    -0.0249360   -0.1498958 
   0.160990245    -0.0065375   -0.1341421     0.0007919    0.0008553     0.0011961    0.0004977    -0.0246330   -0.1496187 
   0.161090270    -0.0062332   -0.1334121     0.0011955    0.0004727     0.0010784    0.0006625    -0.0245921   -0.1493925 
   0.161190295    -0.0064919   -0.1329904     0.0014126    0.0010686     0.0011922    0.0007381    -0.0251947   -0.1493320 
   0.161290320    -0.0056872   -0.1338535     0.0009724    0.0009799     0.0009567    0.0007213    -0.0251658   -0.1495161 
   0.161390345    -0.0058489   -0.1330941     0.0012742    0.0006638     0.0011113    0.0006254    -0.0251890   -0.1499352 
   0.161490370    -0.0053534   -0.1332121     0.0013578    0.0008183     0.0011890    0.0007092    -0.0249638   -0.1495300 
   0.161590395    -0.0062678   -0.1330171     0.0011040    0.0009783     0.0011305    0.0008714    -0.0247773   -0.1502368 
   0.161690420    -0.0055214   -0.1330000     0.0016557    0.0006583     0.0012811    0.0009211    -0.0251952   -0.1491174 
   0.161790445    -0.0052685   -0.1323817     0.0013805    0.0004977     0.0012252    0.0007600    -0.0253270   -0.1494017 
   0.161890470    -0.0068615   -0.1324579     0.0011139    0.0006988     0.0009812    0.0006635    -0.0258500   -0.1495875 
   0.161990495    -0.0060379   -0.1323966     0.0014046    0.0010470     0.0010116    0.0005718    -0.0258740   -0.1494017 
   0.162090520    -0.0066889   -0.1321375     0.0012649    0.0005783     0.0010720    0.0007781    -0.0254968   -0.1489966 
   0.162190545    -0.0056397   -0.1325690     0.0008101    0.0008104     0.0009194    0.0006168    -0.0262585   -0.1488928 
   0.162290570    -0.0064724   -0.1322005     0.0007799    0.0004842     0.0010858    0.0006750    -0.0262785   -0.1500457 
   0.162390595    -0.0051294   -0.1326804     0.0011274    0.0010157     0.0011820    0.0007509    -0.0263259   -0.1496541 
   0.162490620    -0.0063994   -0.1313396     0.0008419    0.0010716     0.0009452    0.0008681    -0.0261650   -0.1493699 
   0.162590645    -0.0053385   -0.1308018     0.0010510    0.0005504     0.0010998    0.0008873    -0.0264763   -0.1493950 
   0.162690670    -0.0061768   -0.1319370     0.0009628    0.0005190     0.0010255    0.0006391    -0.0259416   -0.1492772 
   0.162790695    -0.0057188   -0.1305810     0.0011233    0.0006824     0.0012773    0.0007834    -0.0264586   -0.1492081 
   0.162890720    -0.0053702   -0.1313821     0.0012107    0.0006962     0.0010199    0.0007537    -0.0258080   -0.1489268 
   0.162990745    -0.0053760   -0.1315956     0.0011736    0.0010037     0.0010626    0.0008005    -0.0257122   -0.1487908 
   0.163090770    -0.0059743   -0.1312216     0.0010129    0.0007638     0.0010416    0.0009001    -0.0266834   -0.1491789 
   0.163190795    -0.0055201   -0.1309523     0.0014316    0.0006428     0.0011367    0.0007168    -0.0261002   -0.1488474 
   0.163290820    -0.0062985   -0.1306169     0.0012560    0.0005799     0.0011525    0.0009484    -0.0267420   -0.1490569 
   0.163390845    -0.0058399   -0.1303129     0.0012624    0.0005308     0.0012269    0.0006159    -0.0266185   -0.1491277 
   0.163490870    -0.0067102   -0.1299115     0.0015715    0.0009283     0.0010990    0.0006174    -0.0263153   -0.1487565 
   0.163590895    -0.0055279   -0.1293263     0.0010740    0.0007308     0.0010517    0.0006747    -0.0265840   -0.1489154 
   0.163690920    -0.0057812   -0.1305009     0.0012097    0.0005042     0.0010338    0.0006204    -0.0268378   -0.1486841 
   0.163790945    -0.0063858   -0.1300766     0.0007500    0.0008344     0.0010349    0.0006856    -0.0268943   -0.1485824 
   0.163890970    -0.0065065   -0.1293527     0.0010475    0.0006678     0.0010944    0.0007867    -0.0271252   -0.1487939 
   0.163990995    -0.0055717   -0.1293176     0.0009968    0.0005512     0.0011746    0.0005388    -0.0273371   -0.1481744 
   0.164091021    -0.0056945   -0.1295983     0.0013107    0.0006599     0.0012297    0.0006040    -0.0266334   -0.1486714 
   0.164191046    -0.0057894   -0.1296222     0.0006913    0.0004515     0.0010951    0.0006881    -0.0274717   -0.1479445 
   0.164291071    -0.0055679   -0.1294226     0.0014290    0.0009559     0.0011492    0.0006660    -0.0273096   -0.1485443 
   0.164391096    -0.0067004   -0.1288073     0.0010830    0.0007880     0.0011016    0.0006739    -0.0279358   -0.1484058 
   0.164491121    -0.0066110   -0.1291245     0.0011955    0.0007052     0.0010972    0.0007621    -0.0274905   -0.1486966 
   0.164591146    -0.0055242   -0.1279528     0.0011459    0.0003866     0.0010770    0.0008269    -0.0273611   -0.1486831 
   0.164691171    -0.0057762   -0.1286394     0.0010447    0.0007292     0.0010461    0.0004298    -0.0274719   -0.1481387 
   0.164791196    -0.0056001   -0.1290632     0.0009722    0.0006633     0.0008839    0.0007819    -0.0278600   -0.1477732 
   0.164891221    -0.0063243   -0.1282959     0.0010174    0.0004921     0.0011963    0.0007051    -0.0277058   -0.1479881 
   0.164991246    -0.0065202   -0.1291642     0.0012148    0.0002720     0.0010317    0.0008485    -0.0276305   -0.1473244 
   0.165091271    -0.0063903   -0.1287290     0.0008178    0.0004649     0.0010376    0.0007070    -0.0274851   -0.1483663 
   0.165191296    -0.0059245   -0.1276488     0.0013422    0.0007753     0.0010215    0.0007746    -0.0281319   -0.1478833 
   0.165291321    -0.0060942   -0.1280758     0.0008920    0.0006127     0.0012556    0.0006679    -0.0281707   -0.1478366 
   0.165391346    -0.0058699   -0.1277033     0.0012574    0.0005915     0.0013080    0.0006471    -0.0282212   -0.1478670 
   0.165491371    -0.0064467   -0.1273369     0.0011874    0.0007888     0.0010927    0.0005778    -0.0283120   -0.1482730 
   0.165591396    -0.0062206   -0.1276347     0.0010749    0.0008036     0.0012656    0.0005789    -0.0285881   -0.1473514 
   0.165691421    -0.0067747   -0.1275067     0.0008017    0.0006850     0.0011654    0.0006318    -0.0291595   -0.1472314 
   0.165791446    -0.0063662   -0.1266294     0.0011357    0.0009256     0.0011195    0.0006259    -0.0286435   -0.1475804 
   0.165891471    -0.0054493   -0.1275912     0.0011322    0.0008717     0.0009801    0.0007219    -0.0279666   -0.1474042 
   0.165991496    -0.0052843   -0.1272449     0.0011891    0.0006396     0.0011574    0.0005454    -0.0288449   -0.1475244 
   0.166091521    -0.0062138   -0.1277422     0.0011066    0.0007724     0.0008696    0.0004848    -0.0284746   -0.1481941 
   0.166191546    -0.0060861   -0.1260722     0.0008077    0.0008870     0.0011505    0.0006094    -0.0292057   -0.1474659 
   0.166291571    -0.0061397   -0.1261387     0.0014295    0.0006088     0.0013309    0.0008951    -0.0289251   -0.1478781 
   0.166391596    -0.0058040   -0.1268797     0.0010746    0.0007279     0.0012131    0.0006952    -0.0289909   -0.1473709 
   0.166491621    -0.0060900   -0.1275826     0.0013525    0.0004583     0.0011724    0.0004115    -0.0293535   -0.1472533 
   0.166591646    -0.0058335   -0.1262017     0.0015981    0.0009270     0.0011793    0.0007677    -0.0291887   -0.1468435 
   0.166691671    -0.0058461   -0.1262147     0.0007005    0.0007204     0.0010470    0.0007138    -0.0298063   -0.1471290 
   0.166791696    -0.0060360   -0.1257850     0.0009734    0.0007693     0.0012131    0.0005347    -0.0295274   -0.1464331 
   0.166891721    -0.0056704   -0.1256143     0.0014183    0.0004498     0.0010622    0.0006192    -0.0293863   -0.1472565 
   0.166991746    -0.0052869   -0.1252430     0.0010270    0.0003800     0.0012120    0.0006978    -0.0298495   -0.1466148 
   0.167091771    -0.0059431   -0.1256686     0.0010657    0.0005764     0.0012425    0.0007812    -0.0300634   -0.1472057 
   0.167191796    -0.0059285   -0.1257274     0.0013257    0.0005451     0.0011759    0.0007636    -0.0294375   -0.1466088 
   0.167291821    -0.0069530   -0.1255810     0.0010646    0.0004428     0.0011064    0.0005986    -0.0293819   -0.1469743 
   0.167391846    -0.0060585   -0.1253172     0.0012539    0.0005923     0.0010804    0.0005621    -0.0300030   -0.1476056 
   0.167491871    -0.0052235   -0.1262100     0.0014390    0.0010189     0.0010807    0.0008471    -0.0297331   -0.1476807 
   0.167591896    -0.0060408   -0.1244016     0.0013168    0.0002152     0.0011336    0.0006874    -0.0304669   -0.1460801 
   0.167691921    -0.0055128   -0.1250145     0.0013433    0.0008299     0.0012459    0.0006754    -0.0305150   -0.1478549 
   0.167791946    -0.0050390   -0.1247134     0.0013753    0.0006647     0.0013097    0.0003456    -0.0301733   -0.1466270 
   0.167891971    -0.0063148   -0.1253614     0.0011579    0.0007939     0.0011340    0.0006580    -0.0297344   -0.1465416 
   0.167991996    -0.0058492   -0.1240257     0.0012230    0.0005820     0.0010502    0.0007599    -0.0297199   -0.1462109 
   0.168092021    -0.0052599   -0.1234015     0.0010323    0.0004810     0.0012615    0.0006811    -0.0305086   -0.1466379 
   0.168192046    -0.0062943   -0.1247052     0.0009458    0.0004641     0.0012865    0.0005663    -0.0302364   -0.1464666 
   0.168292071    -0.0056003   -0.1247347     0.0008884    0.0007795     0.0012361    0.0006903    -0.0306277   -0.1464074 
   0.168392096    -0.0058762   -0.1232619     0.0011534    0.0004767     0.0009474    0.0005282    -0.0304416   -0.1470697 
   0.168492121    -0.0053598   -0.1240801     0.0010899    0.0007018     0.0010874    0.0008380    -0.0299511   -0.1466576 
   0.168592146    -0.0061175   -0.1247266     0.0010857    0.0008696     0.0013020    0.0006188    -0.0299167   -0.1468301 
   0.168692171    -0.0056245   -0.1232672     0.0011989    0.0006598     0.0010875    0.0007493    -0.0308031   -0.1462227 
   0.168792196    -0.0056385   -0.1231413     0.0012169    0.0008644     0.0010705    0.0005468    -0.0305902   -0.1465273 
   0.168892221    -0.0063893   -0.1225758     0.0012458    0.0007050     0.0012337    0.0008458    -0.0302602   -0.1464362 
   0.168992246    -0.0063178   -0.1227880     0.0013016    0.0003069     0.0013097    0.0008327    -0.0311097   -0.1461233 
   0.169092271    -0.0062605   -0.1230395     0.0013935    0.0006128     0.0012282    0.0004834    -0.0306107   -0.1454667 
   0.169192296    -0.0059257   -0.1227908     0.0013298    0.0007510     0.0011840    0.0006496    -0.0316323   -0.1456984 
   0.169292321    -0.0059398   -0.1227820     0.0011173    0.0005660     0.0012433    0.0005962    -0.0307829   -0.1458324 
   0.169392346    -0.0057805   -0.1229734     0.0012409    0.0007277     0.0010344    0.0007451    -0.0307948   -0.1467872 
   0.169492371    -0.0064866   -0.1230229     0.0010301    0.0006556     0.0011319    0.0006347    -0.0307269   -0.1457610 
   0.169592396    -0.0055439   -0.1229660     0.0013763    0.0005145     0.0012087    0.0008644    -0.0314472   -0.1461446 
   0.169692421    -0.0055129   -0.1223477     0.0010154    0.0007948     0.0010325    0.0006587    -0.0313274   -0.1464684 
   0.169792446    -0.0064964   -0.1233896     0.0013082    0.0006623     0.0011489    0.0007304    -0.0313368   -0.1466043 
   0.169892471    -0.0061833   -0.1219517     0.0013978    0.0007806     0.0012546    0.0006978    -0.0316935   -0.1462260 
   0.169992496    -0.0059529   -0.1218146     0.0014407    0.0005497     0.0012657    0.0006224    -0.0314007   -0.1461082 
   0.170092521    -0.0044471   -0.1220426     0.0010558    0.0006798     0.0012989    0.0008469    -0.0317308   -0.1459632 
   0.170192546    -0.0058010   -0.1220707     0.0011761    0.0006721     0.0012772    0.0006826    -0.0311657   -0.1451210 
   0.170292571    -0.0060876   -0.1213984     0.0010260    0.0007475     0.0011801    0.0006932    -0.0322967   -0.1458462 
   0.170392596    -0.0054201   -0.1220563     0.0014768    0.0006783     0.0013920    0.0007950    -0.0317135   -0.1454690 
   0.170492621    -0.0057956   -0.1218565     0.0014289    0.0005887     0.0012225    0.0006092    -0.0328712   -0.1454472 
   0.170592646    -0.0057443   -0.1210304     0.0009881    0.0005579     0.0013626    0.0008032    -0.0324390   -0.1450013 
   0.170692671    -0.0055000   -0.1206321     0.0010099    0.0006781     0.0011595    0.0005647    -0.0321012   -0.1454191 
   0.170792696    -0.0063139   -0.1204720     0.0010242    0.0005461     0.0012233    0.0004591    -0.0319362   -0.1461096 
   0.170892721    -0.0058234   -0.1215753     0.0012354    0.0003788     0.0012909    0.0007598    -0.0321525   -0.1455756 
   0.170992746    -0.0048370   -0.1210624     0.0011443    0.0003565     0.0014208    0.0005684    -0.0329400   -0.1450956 
   0.171092771    -0.0050784   -0.1205931     0.0012560    0.0005058     0.0010587    0.0006560    -0.0329945   -0.1452082 
   0.171192796    -0.0055261   -0.1208397     0.0009572    0.0008883     0.0010039    0.0005685    -0.0321392   -0.1450901 
   0.171292821    -0.0057413   -0.1205206     0.0013186    0.0004267     0.0011926    0.0006856    -0.0324198   -0.1447355 
   0.171392846    -0.0058388   -0.1204904     0.0011693    0.0007836     0.0012494    0.0005787    -0.0323102   -0.1452764 
   0.171492871    -0.0052208   -0.1202807     0.0012771    0.0007159     0.0013328    0.0005511    -0.0325129   -0.1446504 
   0.171592896    -0.0045169   -0.1196293     0.0012375    0.0006660     0.0011590    0.0005991    -0.0329435   -0.1454626 
   0.171692921    -0.0049943   -0.1191806     0.0013408    0.0006529     0.0012326    0.0006674    -0.0321543   -0.1451011 
   0.171792946    -0.0059438   -0.1204154     0.0007073    0.0007310     0.0013315    0.0005432    -0.0337449   -0.1449746 
   0.171892971    -0.0053156   -0.1199048     0.0011079    0.0009851     0.0012130    0.0007656    -0.0331397   -0.1451986 
   0.171992996    -0.0057907   -0.1194104     0.0012742    0.0004186     0.0011510    0.0006258    -0.0332889   -0.1450017 
   0.172093022    -0.0057866   -0.1196498     0.0011368    0.0007414     0.0011040    0.0005485    -0.0337900   -0.1451459 
   0.172193047    -0.0059066   -0.1201204     0.0012791    0.0005809     0.0013981    0.0008212    -0.0331167   -0.1446739 
   0.172293072    -0.0059835   -0.1194476     0.0011912    0.0005059     0.0011677    0.0006068    -0.0339219   -0.1444398 
   0.172393097    -0.0050473   -0.1188375     0.0017174    0.0005933     0.0012016    0.0008751    -0.0331270   -0.1450646 
   0.172493122    -0.0052906   -0.1197498     0.0010285    0.0006981     0.0013165    0.0005630    -0.0332196   -0.1447464 
   0.172593147    -0.0058357   -0.1193738     0.0011634    0.0007940     0.0011348    0.0007080    -0.0336987   -0.1445845 
   0.172693172    -0.0048036   -0.1198351     0.0012394    0.0008084     0.0012785    0.0007465    -0.0340738   -0.1444431 
   0.172793197    -0.0056255   -0.1195392     0.0010810    0.0004708     0.0013894    0.0006960    -0.0338204   -0.1445735 
   0.172893222    -0.0055863   -0.1189754     0.0012656    0.0006158     0.0012588    0.0006378    -0.0341539   -0.1448636 
   0.172993247    -0.0058012   -0.1183746     0.0014929    0.0006400     0.0012689    0.0005946    -0.0340975   -0.1448240 
   0.173093272    -0.0061786   -0.1186560     0.0014281    0.0006025     0.0010584    0.0004780    -0.0342787   -0.1441748 
   0.173193297    -0.0050668   -0.1172866     0.0013083    0.0006377     0.0013722    0.0005923    -0.0341561   -0.1440646 
   0.173293322    -0.0053037   -0.1191429     0.0013503    0.0004597     0.0012180    0.0005583    -0.0338796   -0.1438373 
   0.173393347    -0.0054664   -0.1180977     0.0013654    0.0007724     0.0013107    0.0007252    -0.0340373   -0.1440453 
   0.173493372    -0.0055502   -0.1178629     0.0010382    0.0006058     0.0010464    0.0007808    -0.0342706   -0.1441179 
   0.173593397    -0.0047197   -0.1181567     0.0010328    0.0004085     0.0012777    0.0005491    -0.0349655   -0.1431957 
   0.173693422    -0.0048309   -0.1179977     0.0011823    0.0007002     0.0012434    0.0005798    -0.0345909   -0.1445289 
   0.173793447    -0.0049313   -0.1169009     0.0012891    0.0003892     0.0012037    0.0005560    -0.0338107   -0.1441502 
   0.173893472    -0.0043619   -0.1183646     0.0011359    0.0001611     0.0012363    0.0007851    -0.0353516   -0.1448827 
   0.173993497    -0.0047375   -0.1173600     0.0010342    0.0002756     0.0013942    0.0005524    -0.0349377   -0.1439184 
   0.174093522    -0.0054965   -0.1173465     0.0015850    0.0005737     0.0014019    0.0006053    -0.0344894   -0.1441163 
   0.174193547    -0.0056784   -0.1165456     0.0012163    0.0005420     0.0012469    0.0007952    -0.0356525   -0.1440432 
   0.174293572    -0.0051436   -0.1169578     0.0014110    0.0005501     0.0012033    0.0006647    -0.0347402   -0.1433963 
   0.174393597    -0.0048750   -0.1174376     0.0013459    0.0004542     0.0012627    0.0005144    -0.0347672   -0.1431535 
   0.174493622    -0.0048093   -0.1165490     0.0012366    0.0005824     0.0012759    0.0005150    -0.0355987   -0.1434929 
   0.174593647    -0.0055370   -0.1168498     0.0012833    0.0005401     0.0012302    0.0005961    -0.0358495   -0.1445997 
   0.174693672    -0.0047228   -0.1164824     0.0015098    0.0004864     0.0011391    0.0005667    -0.0357483   -0.1438531 
   0.174793697    -0.0052335   -0.1171026     0.0011623    0.0005299     0.0009886    0.0006960    -0.0350927   -0.1438394 
   0.174893722    -0.0046558   -0.1159176     0.0013122    0.0004615     0.0012673    0.0005699    -0.0356286   -0.1437060 
   0.174993747    -0.0056320   -0.1160061     0.0009694    0.0004833     0.0012206    0.0006038    -0.0352046   -0.1434078 
   0.175093772    -0.0049546   -0.1166094     0.0011140    0.0006184     0.0012794    0.0004994    -0.0351977   -0.1437327 
   0.175193797    -0.0050004   -0.1155324     0.0010563    0.0006321     0.0010251    0.0005351    -0.0358583   -0.1436391 
   0.175293822    -0.0055799   -0.1156174     0.0007548    0.0005162     0.0011596    0.0007109    -0.0358951   -0.1436964 
   0.175393847    -0.0052716   -0.1164402     0.0012384    0.0006597     0.0010774    0.0004852    -0.0357870   -0.1432237 
   0.175493872    -0.0050667   -0.1148374     0.0011205    0.0003893     0.0011614    0.0005909    -0.0357521   -0.1427917 
   0.175593897    -0.0046782   -0.1168193     0.0012383    0.0005593     0.0013917    0.0006838    -0.0362992   -0.1431870 
   0.175693922    -0.0051554   -0.1151823     0.0011401    0.0008925     0.0013516    0.0006475    -0.0356408   -0.1432246 
   0.175793947    -0.0039723   -0.1153831     0.0011838    0.0006381     0.0011847    0.0006736    -0.0365058   -0.1430302 
   0.175893972    -0.0051758   -0.1145560     0.0012520    0.0007499     0.0013455    0.0006658    -0.0359089   -0.1433441 
   0.175993997    -0.0050701   -0.1155149     0.0015660    0.0005752     0.0012869    0.0007176    -0.0360400   -0.1437377 
   0.176094022    -0.0058745   -0.1146581     0.0013026    0.0008118     0.0010938    0.0006751    -0.0358668   -0.1424084 
   0.176194047    -0.0055440   -0.1155220     0.0013158    0.0006737     0.0013282    0.0006029    -0.0355827   -0.1429777 
   0.176294072    -0.0044993   -0.1148988     0.0014856    0.0005150     0.0009996    0.0008521    -0.0366503   -0.1424818 
   0.176394097    -0.0050745   -0.1140445     0.0012629    0.0006382     0.0011790    0.0007408    -0.0366494   -0.1431308 
   0.176494122    -0.0039574   -0.1141135     0.0014243    0.0005357     0.0013075    0.0005096    -0.0364105   -0.1425213 
   0.176594147    -0.0044662   -0.1148321     0.0010186    0.0006151     0.0013115    0.0008748    -0.0360771   -0.1425720 
   0.176694172    -0.0047018   -0.1138207     0.0013031    0.0008278     0.0012486    0.0006165    -0.0367519   -0.1420254 
   0.176794197    -0.0049723   -0.1139630     0.0011213    0.0005021     0.0013945    0.0006793    -0.0373140   -0.1425634 
   0.176894222    -0.0041338   -0.1139160     0.0010750    0.0003578     0.0011790    0.0005903    -0.0372516   -0.1427908 
   0.176994247    -0.0047590   -0.1143319     0.0014040    0.0004700     0.0013810    0.0004840    -0.0366964   -0.1424389 
   0.177094272    -0.0048527   -0.1134898     0.0013974    0.0008070     0.0013778    0.0007412    -0.0370803   -0.1422933 
   0.177194297    -0.0050430   -0.1141079     0.0012563    0.0007349     0.0014512    0.0007082    -0.0375475   -0.1424521 
   0.177294322    -0.0050828   -0.1138395     0.0011166    0.0006147     0.0011962    0.0006277    -0.0374740   -0.1422569 
   0.177394347    -0.0047848   -0.1133417     0.0013999    0.0005192     0.0011228    0.0005016    -0.0374886   -0.1421253 
   0.177494372    -0.0050126   -0.1128876     0.0012983    0.0007905     0.0014828    0.0005254    -0.0374548   -0.1417803 
   0.177594397    -0.0047365   -0.1124746     0.0014357    0.0006565     0.0012571    0.0004633    -0.0376259   -0.1418435 
   0.177694422    -0.0049793   -0.1138260     0.0014816    0.0003509     0.0013649    0.0004995    -0.0373249   -0.1419435 
   0.177794447    -0.0042383   -0.1128338     0.0013079    0.0008852     0.0011783    0.0005975    -0.0373948   -0.1424688 
   0.177894472    -0.0049234   -0.1128934     0.0014375    0.0004546     0.0013862    0.0005186    -0.0375679   -0.1423121 
   0.177994497    -0.0050947   -0.1130192     0.0011584    0.0007510     0.0013072    0.0004894    -0.0379625   -0.1419477 
   0.178094522    -0.0043884   -0.1131070     0.0012933    0.0008902     0.0011838    0.0005402    -0.0375647   -0.1410597 
   0.178194547    -0.0045184   -0.1123170     0.0013416    0.0003888     0.0013657    0.0004760    -0.0377056   -0.1422273 
   0.178294572    -0.0048880   -0.1117221     0.0013723    0.0006751     0.0011343    0.0007442    -0.0380330   -0.1420636 
   0.178394597    -0.0051404   -0.1114728     0.0014173    0.0007524     0.0012104    0.0006810    -0.0385229   -0.1417128 
   0.178494622    -0.0045547   -0.1121197     0.0013905    0.0004965     0.0012037    0.0005652    -0.0379985   -0.1422570 
   0.178594647    -0.0051740   -0.1123385     0.0013467    0.0004751     0.0014229    0.0005000    -0.0384977   -0.1417581 
   0.178694672    -0.0048389   -0.1127471     0.0013097    0.0007831     0.0011782    0.0006531    -0.0385118   -0.1420388 
   0.178794697    -0.0044873   -0.1115550     0.0010844    0.0008086     0.0013567    0.0004277    -0.0380328   -0.1417728 
   0.178894722    -0.0051748   -0.1120863     0.0012702    0.0005698     0.0012051    0.0007278    -0.0386789   -0.1421055 
   0.178994747    -0.0044084   -0.1121229     0.0016584    0.0006053     0.0013180    0.0007421    -0.0389102   -0.1413826 
   0.179094772    -0.0037631   -0.1116884     0.0011389    0.0006523     0.0013670    0.0006319    -0.0382082   -0.1407880 
   0.179194797    -0.0041566   -0.1111219     0.0016031    0.0005740     0.0014299    0.0005622    -0.0392820   -0.1418553 
   0.179294822    -0.0040971   -0.1113629     0.0013938    0.0006212     0.0014039    0.0007075    -0.0388984   -0.1410372 
   0.179394847    -0.0045360   -0.1116995     0.0011311    0.0008324     0.0012653    0.0006138    -0.0389012   -0.1410890 
   0.179494872    -0.0047674   -0.1126029     0.0013844    0.0006691     0.0011967    0.0003664    -0.0392975   -0.1406997 
   0.179594897    -0.0046806   -0.1116241     0.0013434    0.0006582     0.0013173    0.0006889    -0.0388506   -0.1418259 
   0.179694922    -0.0045981   -0.1114425     0.0011116    0.0005380     0.0012528    0.0005272    -0.0389685   -0.1407933 
   0.179794947    -0.0040894   -0.1110836     0.0014701    0.0004913     0.0014924    0.0005647    -0.0390061   -0.1411735 
   0.179894972    -0.0045031   -0.1101493     0.0013063    0.0007809     0.0013028    0.0006886    -0.0396615   -0.1406768 
   0.179994997    -0.0042751   -0.1112583     0.0015085    0.0005658     0.0013841    0.0005114    -0.0389559   -0.1415488 
   0.180095023    -0.0042558   -0.1107578     0.0013295    0.0006905     0.0013066    0.0006446    -0.0390318   -0.1411079 
   0.180195048    -0.0044561   -0.1097603     0.0012079    0.0003018     0.0013103    0.0003856    -0.0397248   -0.1408497 
   0.180295073    -0.0042232   -0.1116712     0.0016368    0.0006492     0.0013229    0.0004575    -0.0390816   -0.1408831 
   0.180395098    -0.0042321   -0.1100536     0.0016765    0.0004638     0.0014975    0.0006183    -0.0393247   -0.1406430 
   0.180495123    -0.0027802   -0.1103656     0.0012160    0.0007104     0.0013655    0.0005714    -0.0398207   -0.1411132 
   0.180595148    -0.0043019   -0.1101115     0.0010970    0.0005558     0.0012265    0.0005698    -0.0400368   -0.1404977 
   0.180695173    -0.0038544   -0.1103613     0.0012724    0.0005502     0.0012047    0.0004905    -0.0404123   -0.1403708 
   0.180795198    -0.0036900   -0.1101831     0.0015944    0.0006451     0.0011931    0.0004446    -0.0404111   -0.1410144 
   0.180895223    -0.0038846   -0.1094804     0.0013114    0.0004122     0.0013923    0.0007244    -0.0404139   -0.1402640 
   0.180995248    -0.0041212   -0.1101391     0.0015359    0.0004254     0.0012964    0.0006914    -0.0404000   -0.1397674 
   0.181095273    -0.0030313   -0.1098953     0.0012504    0.0006374     0.0013338    0.0005177    -0.0397035   -0.1402996 
   0.181195298    -0.0051685   -0.1088076     0.0015529    0.0005644     0.0013121    0.0005076    -0.0406062   -0.1403082 
   0.181295323    -0.0039162   -0.1094955     0.0012465    0.0004648     0.0011918    0.0006182    -0.0407119   -0.1401753 
   0.181395348    -0.0049955   -0.1091367     0.0015149    0.0005984     0.0014003    0.0003573    -0.0405792   -0.1404281 
   0.181495373    -0.0041366   -0.1090493     0.0014879    0.0007306     0.0011288    0.0006119    -0.0404643   -0.1400454 
   0.181595398    -0.0047566   -0.1089573     0.0012086    0.0004832     0.0013257    0.0005108    -0.0407064   -0.1406917 
   0.181695423    -0.0043710   -0.1086355     0.0014012    0.0005700     0.0013552    0.0007228    -0.0403749   -0.1405230 
   0.181795448    -0.0048227   -0.1085986     0.0014904    0.0005037     0.0014125    0.0006760    -0.0407404   -0.1402112 
   0.181895473    -0.0036785   -0.1089112     0.0014517    0.0004966     0.0014841    0.0007147    -0.0407370   -0.1394564 
   0.181995498    -0.0037421   -0.1084494     0.0018391    0.0004215     0.0011913    0.0006258    -0.0407355   -0.1404098 
   0.182095523    -0.0041743   -0.1082230     0.0012374    0.0006679     0.0012519    0.0005657    -0.0400155   -0.1399160 
   0.182195548    -0.0044297   -0.1086247     0.0011860    0.0007048     0.0015046    0.0006014    -0.0415440   -0.1403288 
   0.182295573    -0.0042386   -0.1086892     0.0014756    0.0007026     0.0013965    0.0005415    -0.0409503   -0.1400910 
   0.182395598    -0.0038906   -0.1078382     0.0014330    0.0006550     0.0012323    0.0006874    -0.0409261   -0.1408242 
   0.182495623    -0.0035549   -0.1080337     0.0010404    0.0004743     0.0011090    0.0006393    -0.0421081   -0.1399749 
   0.182595648    -0.0028617   -0.1075599     0.0014452    0.0006521     0.0013706    0.0005886    -0.0412636   -0.1400365 
   0.182695673    -0.0034216   -0.1078634     0.0014397    0.0006077     0.0012880    0.0005756    -0.0421862   -0.1397602 
   0.182795698    -0.0039969   -0.1081184     0.0014559    0.0008144     0.0014089    0.0006949    -0.0418438   -0.1398882 
   0.182895723    -0.0039367   -0.1067784     0.0015074    0.0005541     0.0013675    0.0004298    -0.0409443   -0.1393082 
   0.182995748    -0.0038797   -0.1073000     0.0013444    0.0005423     0.0012329    0.0004691    -0.0419392   -0.1402768 
   0.183095773    -0.0037540   -0.1075082     0.0013739    0.0005887     0.0012855    0.0004724    -0.0421106   -0.1398618 
   0.183195798    -0.0030622   -0.1071819     0.0013633    0.0004440     0.0012874    0.0005771    -0.0419896   -0.1393823 
   0.183295823    -0.0041465   -0.1072499     0.0013198    0.0004823     0.0012349    0.0006912    -0.0420516   -0.1398104 
   0.183395848    -0.0033553   -0.1075126     0.0014553    0.0005375     0.0013851    0.0005724    -0.0416526   -0.1392849 
   0.183495873    -0.0036850   -0.1070304     0.0014970    0.0006866     0.0014415    0.0005373    -0.0422079   -0.1396284 
   0.183595898    -0.0036477   -0.1061985     0.0013732    0.0006015     0.0012872    0.0005981    -0.0418252   -0.1395717 
   0.183695923    -0.0028848   -0.1060939     0.0014288    0.0004727     0.0012179    0.0005805    -0.0421560   -0.1390426 
   0.183795948    -0.0031682   -0.1067561     0.0013351    0.0005079     0.0013924    0.0006479    -0.0424950   -0.1391186 
   0.183895973    -0.0037039   -0.1074751     0.0013955    0.0007246     0.0015045    0.0005380    -0.0428844   -0.1392754 
   0.183995998    -0.0036004   -0.1069026     0.0012892    0.0003475     0.0013194    0.0005717    -0.0425029   -0.1386488 
   0.184096023    -0.0028765   -0.1063671     0.0012779    0.0007269     0.0014373    0.0005645    -0.0424303   -0.1392092 
   0.184196048    -0.0034414   -0.1061681     0.0017225    0.0006396     0.0013813    0.0004620    -0.0425392   -0.1384502 
   0.184296073    -0.0028955   -0.1058326     0.0013416    0.0005617     0.0013481    0.0005333    -0.0430544   -0.1384785 
   0.184396098    -0.0036096   -0.1059493     0.0013932    0.0007581     0.0013519    0.0006954    -0.0431883   -0.1395938 
   0.184496123    -0.0026778   -0.1057982     0.0012592    0.0005028     0.0012945    0.0005959    -0.0426319   -0.1389574 
   0.184596148    -0.0040011   -0.1060994     0.0011968    0.0004603     0.0012619    0.0003440    -0.0429958   -0.1381250 
   0.184696173    -0.0040503   -0.1056733     0.0016407    0.0005907     0.0013242    0.0004278    -0.0429128   -0.1386306 
   0.184796198    -0.0032321   -0.1060924     0.0014789    0.0007171     0.0014013    0.0004137    -0.0434303   -0.1384949 
   0.184896223    -0.0034857   -0.1060229     0.0013641    0.0005133     0.0014680    0.0005469    -0.0437415   -0.1388389 
   0.184996248    -0.0038559   -0.1057222     0.0013122    0.0004899     0.0012802    0.0004341    -0.0438369   -0.1383168 
   0.185096273    -0.0032994   -0.1049434     0.0015082    0.0006001     0.0012189    0.0005967    -0.0433781   -0.1379166 
   0.185196298    -0.0030123   -0.1062853     0.0011540    0.0002484     0.0014288    0.0006906    -0.0436380   -0.1384365 
   0.185296323    -0.0039434   -0.1054118     0.0014233    0.0007754     0.0013968    0.0005881    -0.0439254   -0.1382725 
   0.185396348    -0.0034895   -0.1045030     0.0012487    0.0004647     0.0013704    0.0006138    -0.0435614   -0.1385636 
   0.185496373    -0.0038564   -0.1045954     0.0012884    0.0004284     0.0014955    0.0005209    -0.0437646   -0.1378016 
   0.185596398    -0.0034246   -0.1047171     0.0012515    0.0005697     0.0011987    0.0006255    -0.0441226   -0.1380766 
   0.185696423    -0.0032804   -0.1046369     0.0012558    0.0006989     0.0013552    0.0004389    -0.0443661   -0.1382763 
   0.185796448    -0.0031731   -0.1047542     0.0015033    0.0004735     0.0013132    0.0006742    -0.0441827   -0.1382242 
   0.185896473    -0.0022884   -0.1043502     0.0014227    0.0003962     0.0014433    0.0005480    -0.0435780   -0.1384030 
   0.185996498    -0.0034864   -0.1041713     0.0015140    0.0004271     0.0013542    0.0006548    -0.0449251   -0.1382206 
   0.186096523    -0.0036885   -0.1044687     0.0013720    0.0005595     0.0013866    0.0002689    -0.0442157   -0.1379134 
   0.186196548    -0.0035025   -0.1040157     0.0011859    0.0006240     0.0014544    0.0005555    -0.0445501   -0.1382670 
   0.186296573    -0.0025087   -0.1036527     0.0011867    0.0002396     0.0015190    0.0005669    -0.0441543   -0.1384898 
   0.186396598    -0.0036680   -0.1043816     0.0013228    0.0003072     0.0014673    0.0005178    -0.0441044   -0.1381058 
   0.186496623    -0.0035515   -0.1035293     0.0014536    0.0010969     0.0013805    0.0005597    -0.0452332   -0.1379569 
   0.186596648    -0.0035534   -0.1036702     0.0013261    0.0005126     0.0012588    0.0005817    -0.0440942   -0.1383512 
   0.186696673    -0.0034659   -0.1039597     0.0015574    0.0002092     0.0013918    0.0005508    -0.0442822   -0.1372404 
   0.186796698    -0.0029190   -0.1040784     0.0012038    0.0005727     0.0013279    0.0007624    -0.0446744   -0.1377649 
   0.186896723    -0.0026064   -0.1036405     0.0015014    0.0005200     0.0013318    0.0006163    -0.0450248   -0.1371888 
   0.186996748    -0.0027198   -0.1036586     0.0014548    0.0005878     0.0013829    0.0006539    -0.0449565   -0.1368547 
   0.187096773    -0.0041325   -0.1033945     0.0011795    0.0003851     0.0012639    0.0005288    -0.0452567   -0.1378572 
   0.187196798    -0.0028174   -0.1023419     0.0016856    0.0004458     0.0014228    0.0003160    -0.0455758   -0.1380069 
   0.187296823    -0.0035539   -0.1033369     0.0018244    0.0003967     0.0016438    0.0006230    -0.0455727   -0.1377708 
   0.187396848    -0.0026616   -0.1021395     0.0017005    0.0006996     0.0012862    0.0003145    -0.0443522   -0.1368003 
   0.187496873    -0.0027613   -0.1033252     0.0015026    0.0004598     0.0014069    0.0007174    -0.0449730   -0.1371619 
   0.187596898    -0.0023955   -0.1033214     0.0015711    0.0004476     0.0015479    0.0004010    -0.0450469   -0.1369941 
   0.187696923    -0.0024063   -0.1026955     0.0011969    0.0004138     0.0014568    0.0005384    -0.0452416   -0.1373941 
   0.187796948    -0.0033888   -0.1024177     0.0015292    0.0005558     0.0014895    0.0004924    -0.0451388   -0.1374853 
   0.187896973    -0.0024844   -0.1027799     0.0015145    0.0003555     0.0014259    0.0006951    -0.0459278   -0.1374179 
   0.187996998    -0.0025906   -0.1027162     0.0014375    0.0002748     0.0013063    0.0003909    -0.0453440   -0.1369927 
   0.188097024    -0.0031864   -0.1015792     0.0015494    0.0003938     0.0013852    0.0004944    -0.0451287   -0.1373449 
   0.188197049    -0.0028093   -0.1017260     0.0014593    0.0007248     0.0014827    0.0005203    -0.0454640   -0.1362491 
   0.188297074    -0.0030213   -0.1024816     0.0014299    0.0005276     0.0013707    0.0003543    -0.0455760   -0.1369295 
   0.188397099    -0.0025846   -0.1022507     0.0014537    0.0006499     0.0014221    0.0003311    -0.0460077   -0.1360611 
   0.188497124    -0.0028110   -0.1015981     0.0014015    0.0007950     0.0015561    0.0005197    -0.0455088   -0.1373598 
   0.188597149    -0.0027059   -0.1020495     0.0015371    0.0006414     0.0015317    0.0005182    -0.0463207   -0.1368682 
   0.188697174    -0.0020979   -0.1013179     0.0013090    0.0004933     0.0014042    0.0003369    -0.0463485   -0.1371931 
   0.188797199    -0.0024949   -0.1023325     0.0014078    0.0003116     0.0013665    0.0005133    -0.0460654   -0.1367088 
   0.188897224    -0.0027354   -0.1022424     0.0015648    0.0002890     0.0014284    0.0006977    -0.0462778   -0.1363592 
   0.188997249    -0.0023955   -0.1007812     0.0014155    0.0003471     0.0013665    0.0003696    -0.0461328   -0.1366151 
   0.189097274    -0.0024908   -0.1015991     0.0012797    0.0005263     0.0013715    0.0003918    -0.0467504   -0.1367249 
   0.189197299    -0.0024744   -0.1009817     0.0016842    0.0002818     0.0015861    0.0007118    -0.0468753   -0.1361099 
   0.189297324    -0.0019641   -0.1000153     0.0013143    0.0005473     0.0012781    0.0004814    -0.0467695   -0.1365449 
   0.189397349    -0.0025079   -0.1010644     0.0012685    0.0005882     0.0014380    0.0006057    -0.0468751   -0.1363742 
   0.189497374    -0.0023192   -0.1007812     0.0015118    0.0004517     0.0015155    0.0004808    -0.0472538   -0.1365282 
   0.189597399    -0.0030032   -0.1010664     0.0014382    0.0002748     0.0014398    0.0005863    -0.0475518   -0.1361631 
   0.189697424    -0.0027409   -0.1005910     0.0013933    0.0005746     0.0012002    0.0005129    -0.0471678   -0.1365780 
   0.189797449    -0.0016037   -0.0999658     0.0016423    0.0004559     0.0013469    0.0006508    -0.0464131   -0.1367600 
   0.189897474    -0.0025143   -0.1004748     0.0014195    0.0004305     0.0013719    0.0005088    -0.0477582   -0.1355233 
   0.189997499    -0.0019749   -0.1003713     0.0015923    0.0007839     0.0015292    0.0003999    -0.0469109   -0.1360951 
   0.190097524    -0.0026458   -0.1000937     0.0012485    0.0005765     0.0013593    0.0006120    -0.0469618   -0.1356889 
   0.190197549    -0.0025022   -0.1000432     0.0013985    0.0004107     0.0013254    0.0005090    -0.0470610   -0.1356360 
   0.190297574    -0.0016161   -0.1003981     0.0014964    0.0002358     0.0015235    0.0007223    -0.0469351   -0.1357313 
   0.190397599    -0.0023491   -0.0993280     0.0013244    0.0007763     0.0014202    0.0004616    -0.0481117   -0.1352911 
   0.190497624    -0.0026144   -0.0999163     0.0014287    0.0004657     0.0015080    0.0004750    -0.0481857   -0.1348126 
   0.190597649    -0.0022935   -0.1006364     0.0015038    0.0003189     0.0014083    0.0004539    -0.0474141   -0.1360756 
   0.190697674    -0.0021017   -0.1002992     0.0014838    0.0002934     0.0015673    0.0005347    -0.0482108   -0.1361725 
   0.190797699    -0.0023894   -0.0999204     0.0012573    0.0001091     0.0013851    0.0004553    -0.0487103   -0.1355099 
   0.190897724    -0.0027503   -0.0999413     0.0014886    0.0007451     0.0014230    0.0005371    -0.0477834   -0.1347551 
   0.190997749    -0.0025001   -0.0993596     0.0015436    0.0002689     0.0015356    0.0004130    -0.0482498   -0.1352528 
   0.191097774    -0.0022762   -0.1000837     0.0012727    0.0004110     0.0016192    0.0003617    -0.0486062   -0.1353843 
   0.191197799    -0.0018318   -0.0990115     0.0013590    0.0003218     0.0014504    0.0004793    -0.0481913   -0.1353899 
   0.191297824    -0.0023195   -0.0989464     0.0013100    0.0005846     0.0013697    0.0004575    -0.0487911   -0.1346868 
   0.191397849    -0.0015935   -0.0987573     0.0014321    0.0006273     0.0014046    0.0007017    -0.0486124   -0.1352036 
   0.191497874    -0.0019844   -0.0995838     0.0013723    0.0005429     0.0012676    0.0005548    -0.0483714   -0.1353112 
   0.191597899    -0.0020718   -0.0990410     0.0012861    0.0003669     0.0015859    0.0004982    -0.0477563   -0.1354815 
   0.191697924    -0.0019343   -0.0988475     0.0014847    0.0004016     0.0013725    0.0004637    -0.0488746   -0.1347824 
   0.191797949    -0.0016650   -0.0977169     0.0014358    0.0004094     0.0014485    0.0004151    -0.0489755   -0.1350474 
   0.191897974    -0.0018492   -0.0986489     0.0015080    0.0007781     0.0014822    0.0006040    -0.0490787   -0.1354789 
   0.191997999    -0.0023826   -0.0987137     0.0014474    0.0005121     0.0014915    0.0004496    -0.0492790   -0.1346933 
   0.192098024    -0.0018174   -0.0990469     0.0015105    0.0003432     0.0013871    0.0005801    -0.0482160   -0.1352398 
   0.192198049    -0.0014331   -0.0984816     0.0013151    0.0005376     0.0015032    0.0003789    -0.0495360   -0.1350225 
   0.192298074    -0.0016185   -0.0977693     0.0014039    0.0004132     0.0014216    0.0005803    -0.0498378   -0.1345264 
   0.192398099    -0.0013703   -0.0971979     0.0013335    0.0004714     0.0015258    0.0005565    -0.0498908   -0.1343675 
   0.192498124    -0.0019014   -0.0975203     0.0017673    0.0002138     0.0013698    0.0005580    -0.0496795   -0.1343531 
   0.192598149    -0.0027891   -0.0975748     0.0013168    0.0006073     0.0015158    0.0005371    -0.0493354   -0.1350935 
   0.192698174    -0.0012188   -0.0966265     0.0016389    0.0003094     0.0014346    0.0004105    -0.0495436   -0.1340182 
   0.192798199    -0.0016829   -0.0966429     0.0014656    0.0004540     0.0015498    0.0005406    -0.0501154   -0.1340909 
   0.192898224    -0.0026777   -0.0973650     0.0014958    0.0005074     0.0012580    0.0007104    -0.0493693   -0.1340529 
   0.192998249    -0.0020427   -0.0981948     0.0014971    0.0005111     0.0012842    0.0004693    -0.0503876   -0.1343694 
   0.193098274    -0.0009417   -0.0969504     0.0016942    0.0004710     0.0015177    0.0004818    -0.0495643   -0.1340816 
   0.193198299    -0.0012660   -0.0977553     0.0012879    0.0004880     0.0014158    0.0007683    -0.0506813   -0.1344938 
   0.193298324    -0.0018610   -0.0965919     0.0015734    0.0005626     0.0013664    0.0003600    -0.0498537   -0.1351059 
   0.193398349    -0.0018158   -0.0977574     0.0015268    0.0005694     0.0016815    0.0003771    -0.0497075   -0.1341379 
   0.193498374    -0.0011284   -0.0966355     0.0014792    0.0006800     0.0015333    0.0005402    -0.0500920   -0.1344253 
   0.193598399    -0.0024749   -0.0959454     0.0014823    0.0002925     0.0012957    0.0005503    -0.0503167   -0.1338058 
   0.193698424    -0.0014146   -0.0966665     0.0016753    0.0005817     0.0014706    0.0002502    -0.0505148   -0.1340362 
   0.193798449    -0.0014668   -0.0965138     0.0012057    0.0004609     0.0016466    0.0006515    -0.0504487   -0.1345549 
   0.193898474    -0.0020453   -0.0969940     0.0016761    0.0005828     0.0014515    0.0003456    -0.0499987   -0.1343823 
   0.193998499    -0.0016517   -0.0963495     0.0016159    0.0005477     0.0014367    0.0005935    -0.0513172   -0.1342754 
   0.194098524    -0.0012354   -0.0964656     0.0014281    0.0002218     0.0014771    0.0003314    -0.0507519   -0.1332614 
   0.194198549    -0.0018307   -0.0964224     0.0014965    0.0003915     0.0013057    0.0004371    -0.0504759   -0.1333800 
   0.194298574    -0.0018371   -0.0953982     0.0014251    0.0004396     0.0014449    0.0004018    -0.0507835   -0.1342699 
   0.194398599    -0.0015975   -0.0959839     0.0017402    0.0005032     0.0014037    0.0005436    -0.0506704   -0.1340972 
   0.194498624    -0.0014681   -0.0954468     0.0014669    0.0005106     0.0015547    0.0003840    -0.0502749   -0.1333167 
   0.194598649    -0.0013844   -0.0955296     0.0014786    0.0004510     0.0017354    0.0006607    -0.0512160   -0.1334645 
   0.194698674    -0.0023907   -0.0949356     0.0015486    0.0004224     0.0014628    0.0004793    -0.0512055   -0.1333840 
   0.194798699    -0.0006928   -0.0961793     0.0014521    0.0003526     0.0015389    0.0002730    -0.0509673   -0.1334870 
   0.194898724    -0.0008632   -0.0953584     0.0015252    0.0003783     0.0014756    0.0004224    -0.0511993   -0.1338992 
   0.194998749    -0.0013321   -0.0953445     0.0012376    0.0004802     0.0015350    0.0004446    -0.0512526   -0.1330805 
   0.195098774    -0.0018786   -0.0954082     0.0012560    0.0005423     0.0013694    0.0004933    -0.0515020   -0.1332127 
   0.195198799    -0.0016330   -0.0952309     0.0014381    0.0003934     0.0013548    0.0005544    -0.0509420   -0.1333186 
   0.195298824    -0.0016430   -0.0953110     0.0017076    0.0005559     0.0013525    0.0004085    -0.0514471   -0.1335618 
   0.195398849    -0.0015924   -0.0947095     0.0014967    0.0004577     0.0014536    0.0004128    -0.0527290   -0.1333300 
   0.195498874    -0.0011415   -0.0952771     0.0018577    0.0007477     0.0016492    0.0003715    -0.0514666   -0.1328866 
   0.195598899    -0.0005511   -0.0952704     0.0014452    0.0006001     0.0012907    0.0003862    -0.0519270   -0.1332011 
   0.195698924    -0.0012096   -0.0948146     0.0015122    0.0004703     0.0015345    0.0003146    -0.0519776   -0.1326647 
   0.195798949    -0.0013626   -0.0947482     0.0014841    0.0005679     0.0015545    0.0004548    -0.0519090   -0.1328571 
   0.195898974    -0.0017563   -0.0946506     0.0015061    0.0006251     0.0015116    0.0003481    -0.0524289   -0.1329492 
   0.195998999    -0.0005445   -0.0944787     0.0014403    0.0004367     0.0016274    0.0005293    -0.0518230   -0.1326438 
   0.196099025    -0.0013587   -0.0941429     0.0015615    0.0002722     0.0016336    0.0005096    -0.0519621   -0.1326119 
   0.196199050    -0.0011200   -0.0938694     0.0015739    0.0005539     0.0014642    0.0003316    -0.0520483   -0.1333986 
   0.196299075    -0.0008161   -0.0943635     0.0014703    0.0005935     0.0015770    0.0004421    -0.0528196   -0.1325695 
   0.196399100    -0.0011232   -0.0942791     0.0012368    0.0003350     0.0015720    0.0005030    -0.0522154   -0.1329281 
   0.196499125    -0.0006633   -0.0943174     0.0014831    0.0004324     0.0014671    0.0005926    -0.0525470   -0.1322682 
   0.196599150    -0.0007959   -0.0940430     0.0016343    0.0007548     0.0013398    0.0004265    -0.0525558   -0.1333488 
   0.196699175    -0.0011367   -0.0945505     0.0013766    0.0005724     0.0014541    0.0006031    -0.0528917   -0.1319386 
   0.196799200    -0.0002169   -0.0932519     0.0016647    0.0004541     0.0016534    0.0003434    -0.0531853   -0.1322882 
   0.196899225    -0.0005639   -0.0936174     0.0015100    0.0007745     0.0014467    0.0004750    -0.0532712   -0.1326754 
   0.196999250    -0.0006181   -0.0939896     0.0016257    0.0002190     0.0014335    0.0004828    -0.0527668   -0.1322430 
   0.197099275    -0.0004395   -0.0933554     0.0015679    0.0004654     0.0014731    0.0003170    -0.0536080   -0.1327479 
   0.197199300    -0.0007908   -0.0929501     0.0017017    0.0001081     0.0015073    0.0006778    -0.0530650   -0.1319198 
   0.197299325     0.0000114   -0.0932230     0.0013893    0.0004812     0.0015625    0.0004062    -0.0538140   -0.1323494 
   0.197399350    -0.0013625   -0.0931766     0.0014945    0.0007346     0.0016452    0.0004008    -0.0534742   -0.1320729 
   0.197499375    -0.0001123   -0.0935397     0.0015674    0.0004248     0.0014563    0.0003021    -0.0534601   -0.1316337 
   0.197599400    -0.0002467   -0.0927557     0.0015613    0.0001260     0.0015835    0.0005566    -0.0534603   -0.1323033 
   0.197699425    -0.0006881   -0.0932621     0.0016687    0.0005732     0.0016824    0.0005184    -0.0533327   -0.1317146 
   0.197799450    -0.0004188   -0.0926649     0.0015997    0.0004308     0.0015310    0.0003980    -0.0541116   -0.1322752 
   0.197899475    -0.0007353   -0.0929568     0.0015020    0.0003710     0.0013495    0.0004780    -0.0542851   -0.1317774 
   0.197999500     0.0002369   -0.0932377     0.0015294    0.0003500     0.0015677    0.0004385    -0.0537564   -0.1310696 
   0.198099525    -0.0003199   -0.0923344     0.0015315    0.0004073     0.0016079    0.0003959    -0.0533438   -0.1312926 
   0.198199550    -0.0004595   -0.0923982     0.0013462    0.0004141     0.0016145    0.0004470    -0.0537780   -0.1313632 
   0.198299575    -0.0004367   -0.0928410     0.0013373    0.0003638     0.0015788    0.0005201    -0.0540600   -0.1310470 
   0.198399600    -0.0003686   -0.0926213     0.0016550    0.0003911     0.0013892    0.0004196    -0.0543714   -0.1319929 
   0.198499625    -0.0005067   -0.0928189     0.0015415    0.0005122     0.0016576    0.0004004    -0.0545578   -0.1305858 
   0.198599650    -0.0002613   -0.0916206     0.0014366    0.0005456     0.0016097    0.0004876    -0.0541428   -0.1315264 
   0.198699675    -0.0000537   -0.0919700     0.0013721    0.0003128     0.0012375    0.0004758    -0.0546154   -0.1311798 
   0.198799700    -0.0006516   -0.0913546     0.0016449    0.0004428     0.0014696    0.0004753    -0.0543988   -0.1311017 
   0.198899725    -0.0002647   -0.0924684     0.0016396    0.0002573     0.0015198    0.0002893    -0.0544950   -0.1313530 
   0.198999750     0.0000598   -0.0914749     0.0017406    0.0002652     0.0015271    0.0004582    -0.0544677   -0.1307180 
   0.199099775    -0.0006750   -0.0915017     0.0014100    0.0004588     0.0015237    0.0003824    -0.0551285   -0.1308134 
   0.199199800    -0.0000029   -0.0919889     0.0017807    0.0002686     0.0013835    0.0004747    -0.0546561   -0.1314676 
   0.199299825     0.0001834   -0.0912977     0.0014707    0.0003290     0.0015640    0.0003147    -0.0552185   -0.1311683 
   0.199399850    -0.0001466   -0.0911766     0.0017261    0.0007434     0.0017132    0.0003397    -0.0547741   -0.1304802 
   0.199499875     0.0003894   -0.0911850     0.0014414    0.0003600     0.0016866    0.0004400    -0.0547973   -0.1310481 
   0.199599900     0.0002649   -0.0908679     0.0016646    0.0005703     0.0012403    0.0002472    -0.0555364   -0.1312788 
   0.199699925     0.0006206   -0.0906607     0.0014865    0.0005577     0.0015226    0.0004755    -0.0548754   -0.1303243 
   0.199799950    -0.0002848   -0.0912249     0.0017170    0.0003302     0.0015637    0.0002427    -0.0554810   -0.1305819 
   0.199899975    -0.0001138   -0.0914959     0.0017263    0.0003167     0.0017426    0.0004032    -0.0552913   -0.1304149 
   0.200000000     0.0000956   -0.0896752     0.0013961    0.0003660     0.0015916    0.0003263    -0.0553616   -0.1306146 
