! 27-Aug-26 2:11:52 PM
! E:\20260827_VNA\T1T1E1_LOAD_0.S2P
! CHANNEL.1
! TR.MEASUREMENT
! CORRECTED.DATA
# GHZ S RI R 50.0
! FREQ.GHZ         S11RE         S11IM         S21RE         S21IM         S12RE         S12IM         S22RE         S22IM         
!; PortSelection: Port_12
   0.000050000     0.7740200    0.4569847    -0.0516973   -0.3374892     0.0017584    0.0038116     0.9597959    0.0280854 
   0.000150025    -0.0114931    0.1418113     0.3445480   -0.5820838    -0.0010385    0.0002361     1.0005870    0.0014421 
   0.000250050     0.0294278   -0.0195914    -0.0052287   -0.0023553     0.0010300    0.0008781     1.0118720   -0.0125684 
   0.000350075     1.0445920    0.0150520    -0.0020208   -0.0118503    -0.0001454   -0.0007717     0.9972940   -0.0348430 
   0.000450100     1.0427800   -0.0643085    -0.0030746   -0.0136569    -0.0010078   -0.0004815     0.9883987   -0.0196749 
   0.000550125     0.9804362    0.0026539    -0.0041421   -0.0095745    -0.0010411    0.0003219     0.9921939   -0.0426355 
   0.000650150     0.9851531   -0.0251752    -0.0093446   -0.0119254     0.0008013    0.0001778     0.9997906   -0.0552549 
   0.000750175     0.9976483   -0.0204666    -0.0069918   -0.0152544     0.0013426    0.0009852     1.0013830   -0.0538405 
   0.000850200     1.0080010   -0.0346449    -0.0079763   -0.0089229     0.0010540    0.0002016     0.9974461   -0.0582912 
   0.000950225     1.0395260   -0.0558671    -0.0084858   -0.0084771     0.0003231   -0.0003969     0.9958386   -0.0724970 
   0.001050250     0.9415465   -0.0199763    -0.0083105   -0.0097157     0.0005530   -0.0001773     1.0045980   -0.0731105 
   0.001150275     1.0189560   -0.0468713    -0.0117096   -0.0055030    -0.0001097    0.0001523     0.9901782   -0.0822225 
   0.001250300     0.9679545   -0.0463417    -0.0101023   -0.0061479    -0.0006035    0.0003903     0.9942154   -0.0963777 
   0.001350325     0.9965121   -0.0874263    -0.0073909   -0.0005358     0.0000485   -0.0002639     0.9855341   -0.0972295 
   0.001450350     0.9802584   -0.0386995    -0.0073165   -0.0001838     0.0010396    0.0008615     0.9931186   -0.1040970 
   0.001550375     0.9864787   -0.0975703    -0.0130597   -0.0002883    -0.0003420    0.0002175     0.9888404   -0.1139217 
   0.001650400     0.9770333   -0.0423171    -0.0055344    0.0013213     0.0005512    0.0009643     0.9822295   -0.1094682 
   0.001750425     0.9911779   -0.0549562    -0.0076473    0.0020466     0.0010400   -0.0000022     0.9860039   -0.1279629 
   0.001850450     0.9692726   -0.0596758    -0.0085332   -0.0019898    -0.0010686    0.0002080     0.9805443   -0.1323685 
   0.001950475     1.0294230    0.0083611    -0.0065456    0.0029966     0.0003056    0.0002422     0.9817893   -0.1345656 
   0.002050500     0.9434252   -0.0846779    -0.0071585    0.0023337     0.0007428    0.0002487     0.9806948   -0.1508625 
   0.002150525     1.0120040   -0.0567329    -0.0059486    0.0031460    -0.0001875    0.0004363     0.9743072   -0.1532468 
   0.002250550     0.9718603   -0.0791526    -0.0100690    0.0028821     0.0000260   -0.0003620     0.9844677   -0.1636818 
   0.002350575     0.9674274   -0.1316669    -0.0084865    0.0023374     0.0003579   -0.0007613     0.9710150   -0.1640882 
   0.002450600     0.9662417   -0.0873116    -0.0050856    0.0022694     0.0005125    0.0003965     0.9758877   -0.1702933 
   0.002550625     1.0021300   -0.1216508    -0.0057173    0.0042697    -0.0005873   -0.0003128     0.9707364   -0.1807629 
   0.002650650     0.9895066   -0.0409287    -0.0037718    0.0026036    -0.0001096    0.0002418     0.9639535   -0.2016335 
   0.002750675     0.9943700   -0.0601854    -0.0045131    0.0023624     0.0000437    0.0002035     0.9563119   -0.1882118 
   0.002850700     0.9982134   -0.1192278    -0.0049672    0.0058334    -0.0001321   -0.0002868     0.9593005   -0.2004382 
   0.002950725     0.9542248   -0.0847516    -0.0020889    0.0026780     0.0013391    0.0001781     0.9597310   -0.2082646 
   0.003050750     0.9802313   -0.0884357    -0.0029704    0.0049697     0.0003763   -0.0001752     0.9511003   -0.2143672 
   0.003150775     0.9683725   -0.1499073    -0.0025501    0.0012681     0.0001849    0.0008758     0.9476349   -0.2248504 
   0.003250800     0.9501716   -0.1217106    -0.0036656    0.0023837     0.0000635    0.0004871     0.9515076   -0.2265547 
   0.003350825     0.9951566   -0.1062082    -0.0020508    0.0039288     0.0001324    0.0003940     0.9463525   -0.2350107 
   0.003450850     0.9777609   -0.1469564    -0.0008370    0.0069340    -0.0004212    0.0001903     0.9423773   -0.2370580 
   0.003550875     0.9546870   -0.1172190    -0.0037392    0.0018093    -0.0001649    0.0002617     0.9366284   -0.2451441 
   0.003650900     0.9915012   -0.1015003    -0.0030840    0.0034544    -0.0002193    0.0001777     0.9345227   -0.2487624 
   0.003750925     0.9704967   -0.1294229    -0.0029395    0.0047465    -0.0000306    0.0000570     0.9259288   -0.2570037 
   0.003850950     0.9871879   -0.1418781    -0.0002829    0.0017254    -0.0002054    0.0004991     0.9269752   -0.2604468 
   0.003950975     0.9837753   -0.1324413     0.0001127    0.0014874     0.0002044   -0.0007328     0.9222097   -0.2696725 
   0.004051001     0.9742032   -0.1703145    -0.0020405    0.0024123     0.0003046   -0.0002796     0.9163269   -0.2711610 
   0.004151026     1.0019930   -0.1790918     0.0012763    0.0040279     0.0000184   -0.0000283     0.9129391   -0.2769769 
   0.004251051     0.9904109   -0.1185823    -0.0011535    0.0009445     0.0003238    0.0001967     0.9174247   -0.2826764 
   0.004351076     0.9479094   -0.1267786    -0.0013752    0.0008680     0.0003805    0.0002581     0.9042372   -0.2927225 
   0.004451101     1.0039400   -0.1829559     0.0033256    0.0022689    -0.0001160   -0.0001469     0.9016420   -0.2928179 
   0.004551126     0.9973288   -0.1517971    -0.0005912    0.0005858    -0.0007779   -0.0006768     0.9021119   -0.2978028 
   0.004651151     0.9758219   -0.1672994     0.0010322    0.0012867    -0.0007607   -0.0003187     0.9010015   -0.3050732 
   0.004751176     0.9780551   -0.1957691    -0.0012660    0.0002906    -0.0000778   -0.0004220     0.8939722   -0.3138095 
   0.004851201     0.9650043   -0.1983956     0.0006914    0.0006604    -0.0003758   -0.0000176     0.8872994   -0.3145513 
   0.004951226     0.9378675   -0.1623454    -0.0019203   -0.0003461    -0.0002822   -0.0000123     0.8831092   -0.3219246 
   0.005051251     0.9840491   -0.1789908    -0.0013211   -0.0033480    -0.0002090   -0.0001073     0.8811608   -0.3238561 
   0.005151276     0.9452042   -0.1689787    -0.0019477    0.0008599    -0.0004477    0.0004682     0.8770364   -0.3304953 
   0.005251301     0.9455255   -0.1757597    -0.0004839    0.0018818     0.0001364   -0.0003931     0.8699465   -0.3293469 
   0.005351326     0.9566948   -0.1438849     0.0006570    0.0027570     0.0001169    0.0002136     0.8692031   -0.3360278 
   0.005451351     0.9589093   -0.1651466     0.0015389    0.0013354    -0.0001256    0.0000215     0.8589838   -0.3429099 
   0.005551376     0.9796740   -0.1898512    -0.0007094    0.0003376    -0.0000112    0.0001020     0.8581802   -0.3434547 
   0.005651401     0.9393545   -0.1771883    -0.0006096    0.0003462    -0.0007629    0.0000118     0.8526976   -0.3583617 
   0.005751426     0.9317767   -0.2020745     0.0004283    0.0010533    -0.0005595   -0.0002310     0.8504633   -0.3570942 
   0.005851451     0.9362614   -0.2250548    -0.0021587    0.0013093     0.0001962    0.0000957     0.8431213   -0.3607150 
   0.005951476     0.9395024   -0.2015511     0.0009846   -0.0025578    -0.0000052    0.0000596     0.8409299   -0.3645333 
   0.006051501     0.9433411   -0.2103861    -0.0004719    0.0001854     0.0000509    0.0001442     0.8355919   -0.3710526 
   0.006151526     0.9647135   -0.2267479     0.0006377    0.0027882     0.0000302    0.0002089     0.8337666   -0.3756755 
   0.006251551     0.9336140   -0.1867088    -0.0008926   -0.0006847    -0.0003346   -0.0000874     0.8253954   -0.3782877 
   0.006351576     0.9319763   -0.2357091    -0.0005215    0.0013913    -0.0001715   -0.0000245     0.8189824   -0.3829192 
   0.006451601     0.9358823   -0.2199731     0.0007993   -0.0006812    -0.0002981    0.0002125     0.8139769   -0.3889771 
   0.006551626     0.9324578   -0.2273490    -0.0012492    0.0001408    -0.0002480    0.0003389     0.8119707   -0.3867258 
   0.006651651     0.9358869   -0.2251443    -0.0001486    0.0001068     0.0002274    0.0000858     0.8042268   -0.3956811 
   0.006751676     0.9249677   -0.2141974    -0.0005526    0.0009212    -0.0000387   -0.0001553     0.8067869   -0.3939723 
   0.006851701     0.9377012   -0.2324189    -0.0003164   -0.0001388    -0.0003444    0.0002714     0.7906271   -0.4015830 
   0.006951726     0.9113829   -0.2417844     0.0010388    0.0001583    -0.0003314   -0.0002463     0.7917395   -0.4001415 
   0.007051751     0.9474706   -0.2338979     0.0004792    0.0015089    -0.0004039   -0.0000003     0.7873045   -0.4060043 
   0.007151776     0.9200483   -0.2639392    -0.0012452    0.0014847    -0.0003355   -0.0000091     0.7800632   -0.4071090 
   0.007251801     0.9489493   -0.2337128     0.0010941    0.0007719     0.0000175    0.0004425     0.7748504   -0.4116292 
   0.007351826     0.9308482   -0.2685245    -0.0006415    0.0002244     0.0005398   -0.0000749     0.7729581   -0.4163221 
   0.007451851     0.9174700   -0.2547288     0.0012688   -0.0005998    -0.0003449    0.0001318     0.7668990   -0.4161956 
   0.007551876     0.9352624   -0.2622250    -0.0000769    0.0013766     0.0003446   -0.0001333     0.7656362   -0.4210321 
   0.007651901     0.9242542   -0.2850568     0.0004843    0.0009047    -0.0003062    0.0004716     0.7597746   -0.4238170 
   0.007751926     0.9242081   -0.2450260     0.0009648   -0.0016564     0.0001824    0.0001258     0.7549343   -0.4261342 
   0.007851951     0.9216991   -0.2512129     0.0007597    0.0004216     0.0009005    0.0005774     0.7464947   -0.4322503 
   0.007951976     0.9198503   -0.3003994     0.0018015    0.0003547    -0.0001225   -0.0000128     0.7411407   -0.4318527 
   0.008052001     0.9167600   -0.2875962     0.0005442    0.0000902    -0.0000155    0.0007125     0.7376199   -0.4369006 
   0.008152026     0.9077653   -0.2693725    -0.0002435   -0.0007114     0.0000269   -0.0001849     0.7377661   -0.4413919 
   0.008252051     0.9033322   -0.2603159    -0.0012698    0.0012827     0.0004375    0.0003286     0.7301728   -0.4387641 
   0.008352076     0.9123101   -0.2935238     0.0001306    0.0008162    -0.0000200   -0.0000357     0.7287978   -0.4405879 
   0.008452101     0.9381102   -0.2848090     0.0010537   -0.0001800     0.0000928    0.0001658     0.7210272   -0.4424096 
   0.008552126     0.9261507   -0.2812328    -0.0014953   -0.0008921     0.0000034    0.0003006     0.7144201   -0.4472201 
   0.008652151     0.9038583   -0.2807370     0.0017731    0.0010681     0.0002158   -0.0003995     0.7106357   -0.4512009 
   0.008752176     0.9108827   -0.2814718    -0.0009951    0.0005485     0.0000411    0.0000032     0.7072328   -0.4567501 
   0.008852201     0.8833848   -0.2837863    -0.0009368   -0.0014372    -0.0001989    0.0002350     0.7016329   -0.4512823 
   0.008952226     0.9110514   -0.2894547    -0.0002251    0.0014314    -0.0002385   -0.0001135     0.6972921   -0.4538037 
   0.009052251     0.9189932   -0.3023758     0.0003297   -0.0014949     0.0001061   -0.0001553     0.6966348   -0.4605269 
   0.009152276     0.9034333   -0.2862868    -0.0003830    0.0023775    -0.0000009    0.0001157     0.6867206   -0.4618339 
   0.009252301     0.8964145   -0.2939811     0.0000481   -0.0011857    -0.0004433   -0.0000536     0.6836857   -0.4633543 
   0.009352326     0.9097797   -0.3106634     0.0000118    0.0001617     0.0000470   -0.0001666     0.6777011   -0.4617417 
   0.009452351     0.8841611   -0.3026588     0.0001245    0.0004841    -0.0001579   -0.0002848     0.6748327   -0.4645080 
   0.009552376     0.9146788   -0.3097236     0.0003550   -0.0007258     0.0000173   -0.0001780     0.6681732   -0.4657227 
   0.009652401     0.8746364   -0.3069932    -0.0009512    0.0008610     0.0004064    0.0003601     0.6634735   -0.4678280 
   0.009752426     0.8840014   -0.3198454     0.0004913    0.0002048    -0.0000347   -0.0000491     0.6615341   -0.4684041 
   0.009852451     0.8891475   -0.3310999     0.0016368    0.0001065     0.0000462   -0.0001884     0.6549888   -0.4720260 
   0.009952476     0.8729294   -0.3329480     0.0001476    0.0007596    -0.0001423    0.0000233     0.6477503   -0.4707456 
   0.010052501     0.8754426   -0.3207899    -0.0004335    0.0024465     0.0001122   -0.0000673     0.6492839   -0.4691102 
   0.010152526     0.8701428   -0.3192634     0.0008082   -0.0013489    -0.0000548    0.0002795     0.6430047   -0.4734764 
   0.010252551     0.8713492   -0.3285185    -0.0002139    0.0000619    -0.0002427   -0.0000862     0.6379438   -0.4770285 
   0.010352576     0.8890885   -0.3298919     0.0000643    0.0005982    -0.0000622   -0.0000890     0.6331316   -0.4748606 
   0.010452601     0.8842595   -0.3174907    -0.0001902   -0.0007031    -0.0001715   -0.0001873     0.6269622   -0.4801187 
   0.010552626     0.8595068   -0.3336574    -0.0004567   -0.0005195    -0.0001939    0.0002138     0.6236913   -0.4804709 
   0.010652651     0.8758005   -0.3409843    -0.0000363    0.0005532    -0.0002608   -0.0004778     0.6201134   -0.4798771 
   0.010752676     0.8720982   -0.3606122    -0.0008389    0.0009247     0.0001726   -0.0001972     0.6133590   -0.4803471 
   0.010852701     0.8857570   -0.3401378     0.0006877    0.0009202     0.0002550    0.0000102     0.6160697   -0.4824125 
   0.010952726     0.8581689   -0.3459380    -0.0001427    0.0006487    -0.0000626   -0.0003836     0.6063805   -0.4840946 
   0.011052751     0.8516022   -0.3593510    -0.0011099   -0.0004932     0.0000712    0.0001406     0.6050073   -0.4848078 
   0.011152776     0.8693801   -0.3428836     0.0001050    0.0010289     0.0002720    0.0004262     0.5965671   -0.4853673 
   0.011252801     0.8572960   -0.3537886    -0.0001243    0.0014495     0.0002602    0.0000518     0.5919788   -0.4840961 
   0.011352826     0.8600628   -0.3801243    -0.0002414    0.0000141     0.0001868   -0.0000564     0.5918575   -0.4846558 
   0.011452851     0.8433752   -0.3539965    -0.0005555   -0.0003141     0.0001798    0.0002567     0.5852956   -0.4884145 
   0.011552876     0.8301191   -0.3674450     0.0005618   -0.0010555    -0.0002392    0.0001500     0.5817302   -0.4899096 
   0.011652901     0.8402404   -0.3675194    -0.0000509   -0.0000362     0.0001357   -0.0002454     0.5768629   -0.4858051 
   0.011752926     0.8336187   -0.3638232     0.0015281    0.0008861     0.0002246    0.0000011     0.5734210   -0.4872180 
   0.011852951     0.8401923   -0.3752454     0.0002773    0.0008859    -0.0002831   -0.0002153     0.5705577   -0.4885375 
   0.011952976     0.8462693   -0.3666895     0.0008536    0.0006614    -0.0001339    0.0000803     0.5643823   -0.4890104 
   0.012053002     0.8318271   -0.3828319     0.0002302   -0.0000836    -0.0001142   -0.0002805     0.5599674   -0.4900644 
   0.012153027     0.8437419   -0.3825892    -0.0001007    0.0005631    -0.0001119   -0.0005046     0.5568190   -0.4915006 
   0.012253052     0.8153720   -0.3839752     0.0010296   -0.0004566     0.0000604   -0.0001444     0.5555219   -0.4912554 
   0.012353077     0.8299208   -0.3735726     0.0006598    0.0006264     0.0001391    0.0001715     0.5507593   -0.4907409 
   0.012453102     0.8257977   -0.3793479     0.0002466   -0.0010938     0.0001096    0.0001879     0.5446938   -0.4924719 
   0.012553127     0.8213615   -0.3974101    -0.0005239   -0.0004178    -0.0002863    0.0002293     0.5390392   -0.4903112 
   0.012653152     0.8420788   -0.3843073     0.0011115    0.0010522    -0.0001739    0.0000983     0.5367758   -0.4916157 
   0.012753177     0.8209099   -0.3821866     0.0015164   -0.0007001     0.0001425    0.0001016     0.5356774   -0.4916401 
   0.012853202     0.8255515   -0.3759334     0.0003273   -0.0011668    -0.0000434    0.0001355     0.5288191   -0.4914228 
   0.012953227     0.8242225   -0.3838091    -0.0008485   -0.0011350     0.0002072    0.0001826     0.5282174   -0.4928460 
   0.013053252     0.8079971   -0.3897021     0.0009112   -0.0009195    -0.0004016    0.0001821     0.5232854   -0.4909715 
   0.013153277     0.8154128   -0.3981283     0.0000485   -0.0003748    -0.0001102   -0.0000244     0.5184375   -0.4943087 
   0.013253302     0.8194227   -0.3996368     0.0007936    0.0003689    -0.0000238   -0.0000299     0.5179918   -0.4887967 
   0.013353327     0.8125269   -0.4013006    -0.0008093   -0.0003633     0.0001182    0.0002530     0.5108882   -0.4919418 
   0.013453352     0.8140563   -0.3831013    -0.0002397    0.0006409    -0.0000260   -0.0000874     0.5089919   -0.4933713 
   0.013553377     0.7954747   -0.3963834    -0.0010894    0.0006725     0.0001569    0.0003538     0.5031599   -0.4937406 
   0.013653402     0.7951572   -0.3987569     0.0001079   -0.0001860    -0.0000479   -0.0001647     0.5009249   -0.4929907 
   0.013753427     0.8029395   -0.4088929     0.0003779    0.0003040     0.0003896   -0.0000907     0.4963044   -0.4922258 
   0.013853452     0.8047298   -0.4123465    -0.0003563    0.0002510     0.0000027    0.0004067     0.4962528   -0.4920527 
   0.013953477     0.7913122   -0.4022056    -0.0001762   -0.0001476     0.0001638   -0.0004050     0.4892304   -0.4942806 
   0.014053502     0.8013865   -0.4275630    -0.0001403    0.0001323    -0.0000643   -0.0000032     0.4866357   -0.4927592 
   0.014153527     0.7852644   -0.4151846    -0.0002081    0.0003509     0.0001234   -0.0002616     0.4842691   -0.4920697 
   0.014253552     0.7980471   -0.4075581    -0.0001582    0.0000792    -0.0002052    0.0002291     0.4818258   -0.4926206 
   0.014353577     0.7866573   -0.4139327    -0.0007200   -0.0007076    -0.0000756    0.0000361     0.4743580   -0.4904467 
   0.014453602     0.7766519   -0.4174695    -0.0003559    0.0008954    -0.0002698   -0.0002148     0.4740971   -0.4911212 
   0.014553627     0.7829611   -0.4160345    -0.0000587   -0.0008904    -0.0001616    0.0001587     0.4704433   -0.4916806 
   0.014653652     0.7812352   -0.4155831    -0.0005431   -0.0002668     0.0002307    0.0000265     0.4678273   -0.4913035 
   0.014753677     0.7806452   -0.4255782     0.0002919   -0.0000389     0.0001761    0.0001045     0.4632991   -0.4908661 
   0.014853702     0.7792642   -0.4248462    -0.0003473   -0.0007203     0.0002294   -0.0001111     0.4604484   -0.4894855 
   0.014953727     0.7689793   -0.4377458     0.0003711    0.0000438    -0.0000719   -0.0000310     0.4576410   -0.4886450 
   0.015053752     0.7756932   -0.4273505     0.0003255   -0.0002169    -0.0001569   -0.0000309     0.4535510   -0.4888046 
   0.015153777     0.7761013   -0.4425493    -0.0002516   -0.0003105     0.0001538   -0.0001468     0.4533905   -0.4916758 
   0.015253802     0.7739478   -0.4291964     0.0004610    0.0003230    -0.0001263    0.0001791     0.4483436   -0.4884986 
   0.015353827     0.7692595   -0.4460432     0.0006032    0.0003364     0.0000670    0.0000701     0.4447819   -0.4885543 
   0.015453852     0.7673051   -0.4358721    -0.0005791   -0.0007451     0.0001976   -0.0000392     0.4430192   -0.4878229 
   0.015553877     0.7660579   -0.4461090     0.0001905    0.0000380     0.0002161    0.0001512     0.4408433   -0.4881817 
   0.015653902     0.7651602   -0.4433776    -0.0002854    0.0002010    -0.0001041    0.0001326     0.4359556   -0.4873862 
   0.015753927     0.7553958   -0.4330527    -0.0003033    0.0003047     0.0002404   -0.0000313     0.4329138   -0.4859726 
   0.015853952     0.7571419   -0.4467407     0.0000129    0.0004377    -0.0000980   -0.0000364     0.4317971   -0.4864080 
   0.015953977     0.7636604   -0.4408663     0.0009643    0.0000072    -0.0000652    0.0001620     0.4265180   -0.4853714 
   0.016054002     0.7494187   -0.4384011    -0.0000326   -0.0001590    -0.0001400    0.0000791     0.4231579   -0.4865682 
   0.016154027     0.7445436   -0.4555648    -0.0000564   -0.0009670    -0.0000407   -0.0000583     0.4209651   -0.4854469 
   0.016254052     0.7396038   -0.4497394    -0.0002258   -0.0000278    -0.0002634    0.0002767     0.4176402   -0.4844660 
   0.016354077     0.7372268   -0.4438078    -0.0005957   -0.0005754    -0.0000096   -0.0001412     0.4155271   -0.4838278 
   0.016454102     0.7431669   -0.4495915    -0.0009158    0.0002098    -0.0000385   -0.0000851     0.4114560   -0.4835835 
   0.016554127     0.7391472   -0.4409805     0.0002296   -0.0006322     0.0002656   -0.0001655     0.4088154   -0.4843283 
   0.016654152     0.7445441   -0.4558369    -0.0007160    0.0002843     0.0001995   -0.0000336     0.4045191   -0.4828693 
   0.016754177     0.7357392   -0.4537018    -0.0000160   -0.0000244     0.0001067   -0.0001655     0.4044717   -0.4819468 
   0.016854202     0.7294559   -0.4551908     0.0001607   -0.0002453    -0.0000033   -0.0000694     0.4020667   -0.4812383 
   0.016954227     0.7365939   -0.4704246     0.0010683    0.0002979     0.0000874    0.0000447     0.3991984   -0.4801818 
   0.017054252     0.7216477   -0.4630080     0.0005750    0.0005918     0.0000754    0.0001014     0.3955493   -0.4772516 
   0.017154277     0.7178648   -0.4568441    -0.0006314    0.0004143     0.0000239    0.0001379     0.3927591   -0.4806421 
   0.017254302     0.7304026   -0.4602579     0.0003606    0.0003479    -0.0001230   -0.0001813     0.3904279   -0.4768273 
   0.017354327     0.7322684   -0.4668895     0.0000485   -0.0002241    -0.0000758    0.0000017     0.3867925   -0.4782449 
   0.017454352     0.7174077   -0.4623246     0.0000305   -0.0001492     0.0001983   -0.0001127     0.3844500   -0.4768553 
   0.017554377     0.7074610   -0.4809676     0.0003345   -0.0003291    -0.0001651   -0.0002862     0.3841228   -0.4764949 
   0.017654402     0.7192068   -0.4689728    -0.0001357   -0.0008951    -0.0000983   -0.0000968     0.3800615   -0.4737313 
   0.017754427     0.7098396   -0.4753295     0.0002929   -0.0000021    -0.0000704    0.0000827     0.3772795   -0.4730998 
   0.017854452     0.7017273   -0.4781351     0.0002495    0.0003531    -0.0000316    0.0001138     0.3748238   -0.4740179 
   0.017954477     0.7042941   -0.4623849    -0.0003351    0.0005644    -0.0000512   -0.0000713     0.3749279   -0.4724926 
   0.018054502     0.7037985   -0.4767464    -0.0001257    0.0002847    -0.0000624    0.0000402     0.3690193   -0.4731327 
   0.018154527     0.7023475   -0.4742630    -0.0003321    0.0000057    -0.0001246    0.0000324     0.3681919   -0.4718308 
   0.018254552     0.6975420   -0.4799345    -0.0008964    0.0000422    -0.0000412    0.0001094     0.3650166   -0.4714469 
   0.018354577     0.6917657   -0.4793436     0.0003017    0.0001314    -0.0000898    0.0002048     0.3620778   -0.4692138 
   0.018454602     0.6850284   -0.4757424     0.0003670    0.0001881     0.0000868   -0.0000506     0.3587451   -0.4708098 
   0.018554627     0.6813943   -0.4812687     0.0000714    0.0002846     0.0002066    0.0001655     0.3598890   -0.4693018 
   0.018654652     0.6830173   -0.4913537    -0.0000275    0.0001135    -0.0001379   -0.0000109     0.3539188   -0.4668579 
   0.018754677     0.6816301   -0.4794368     0.0004759   -0.0001509    -0.0000464   -0.0001433     0.3530370   -0.4679080 
   0.018854702     0.6914515   -0.4809408     0.0001957    0.0004307     0.0000503   -0.0000840     0.3531190   -0.4663217 
   0.018954727     0.6750106   -0.4814173    -0.0004893   -0.0003147    -0.0000375    0.0000053     0.3493659   -0.4645140 
   0.019054752     0.6833061   -0.4793922    -0.0002721    0.0000272    -0.0000227    0.0000738     0.3454809   -0.4668462 
   0.019154777     0.6716104   -0.4848798     0.0000078   -0.0002368     0.0000092   -0.0001173     0.3439030   -0.4636566 
   0.019254802     0.6755558   -0.4869947     0.0003028    0.0004637    -0.0001175    0.0001378     0.3412143   -0.4640791 
   0.019354827     0.6548105   -0.4819782    -0.0003954   -0.0005568    -0.0000811    0.0000391     0.3393812   -0.4622973 
   0.019454852     0.6648695   -0.4880054    -0.0000384    0.0000013    -0.0001554   -0.0000199     0.3370250   -0.4629532 
   0.019554877     0.6605436   -0.4849382    -0.0001367   -0.0002894    -0.0000101   -0.0001454     0.3356130   -0.4622951 
   0.019654902     0.6717635   -0.4936740    -0.0001397   -0.0004162    -0.0000811    0.0000823     0.3343409   -0.4619633 
   0.019754927     0.6599264   -0.4852989     0.0001938   -0.0001212    -0.0001588   -0.0001301     0.3305173   -0.4605816 
   0.019854952     0.6505554   -0.4877953    -0.0002001   -0.0002707     0.0001125   -0.0000775     0.3291962   -0.4586514 
   0.019954977     0.6487147   -0.4949125    -0.0003850   -0.0003582    -0.0000527    0.0000234     0.3273232   -0.4572211 
   0.020055003     0.6568035   -0.5021564    -0.0004922   -0.0009295    -0.0001481   -0.0000573     0.3244846   -0.4570984 
   0.020155028     0.6522060   -0.4943760    -0.0006210    0.0001598    -0.0000069    0.0001220     0.3239295   -0.4580077 
   0.020255053     0.6494418   -0.5010821     0.0002219    0.0000722    -0.0000509    0.0000302     0.3224358   -0.4563768 
   0.020355078     0.6537741   -0.4983312     0.0000565    0.0000244     0.0000986   -0.0000797     0.3191638   -0.4562986 
   0.020455103     0.6492164   -0.4997205    -0.0000724   -0.0000634     0.0002098    0.0002302     0.3177404   -0.4557544 
   0.020555128     0.6399865   -0.5026364     0.0001447    0.0002492    -0.0000806    0.0000343     0.3155075   -0.4547058 
   0.020655153     0.6476666   -0.5009943    -0.0000002    0.0002605     0.0001901   -0.0000471     0.3128156   -0.4516098 
   0.020755178     0.6313442   -0.5014957     0.0001285    0.0002300     0.0000357    0.0001751     0.3111154   -0.4509880 
   0.020855203     0.6392610   -0.4994906    -0.0001012   -0.0002700    -0.0000070   -0.0000645     0.3085669   -0.4513322 
   0.020955228     0.6356757   -0.4987276     0.0001980    0.0001972    -0.0001836   -0.0000199     0.3067887   -0.4499532 
   0.021055253     0.6224469   -0.5070294     0.0000081    0.0004308    -0.0000388   -0.0000728     0.3054772   -0.4483555 
   0.021155278     0.6292917   -0.5094501     0.0001011    0.0000285    -0.0000425   -0.0000319     0.3053540   -0.4501398 
   0.021255303     0.6178732   -0.5024571    -0.0002446    0.0001377    -0.0001076   -0.0001148     0.3011209   -0.4488258 
   0.021355328     0.6301996   -0.5028852    -0.0002980    0.0002121    -0.0001567    0.0001376     0.3004985   -0.4450224 
   0.021455353     0.6121976   -0.5082390    -0.0003378   -0.0003234    -0.0001310   -0.0000343     0.2984697   -0.4459667 
   0.021555378     0.6234249   -0.5097744     0.0001451    0.0002555    -0.0000419    0.0001055     0.2961455   -0.4442396 
   0.021655403     0.6187772   -0.5149665     0.0003377    0.0001239    -0.0000138    0.0001441     0.2962020   -0.4427292 
   0.021755428     0.6133029   -0.5049413     0.0000286    0.0000914    -0.0001757    0.0000895     0.2936298   -0.4439236 
   0.021855453     0.6156470   -0.5057040    -0.0003487    0.0003467     0.0000170    0.0000260     0.2910259   -0.4402555 
   0.021955478     0.6072479   -0.5104337     0.0003805   -0.0000002    -0.0000587   -0.0000351     0.2900045   -0.4419984 
   0.022055503     0.6129380   -0.5126987    -0.0000766    0.0001720    -0.0001145    0.0001521     0.2870134   -0.4406515 
   0.022155528     0.6020895   -0.5098258     0.0000073   -0.0003935    -0.0001175    0.0001368     0.2869221   -0.4411241 
   0.022255553     0.6015151   -0.5120654     0.0000248   -0.0006909    -0.0001769    0.0000088     0.2844257   -0.4393086 
   0.022355578     0.6009667   -0.5096173     0.0005535   -0.0001744    -0.0000587    0.0001327     0.2834373   -0.4377582 
   0.022455603     0.5972835   -0.5216213     0.0001471   -0.0002672    -0.0000268    0.0001163     0.2805350   -0.4364778 
   0.022555628     0.5996634   -0.5146961     0.0000426   -0.0005369    -0.0000395    0.0000566     0.2796317   -0.4364932 
   0.022655653     0.6041600   -0.5169619     0.0006298    0.0002351    -0.0000918   -0.0000180     0.2772903   -0.4359761 
   0.022755678     0.5853811   -0.5176978    -0.0000080    0.0001930     0.0000770    0.0000642     0.2769081   -0.4355952 
   0.022855703     0.5887064   -0.5178192    -0.0000055    0.0000812     0.0001083    0.0000348     0.2750273   -0.4326947 
   0.022955728     0.5902177   -0.5111859    -0.0000892   -0.0000667     0.0000942   -0.0000559     0.2731084   -0.4332864 
   0.023055753     0.5853394   -0.5168454    -0.0001051    0.0000320    -0.0001278    0.0001399     0.2716480   -0.4311813 
   0.023155778     0.5849397   -0.5170689    -0.0003623    0.0000027    -0.0000539    0.0000047     0.2698234   -0.4311442 
   0.023255803     0.5748068   -0.5188515    -0.0000078    0.0002782    -0.0001214    0.0000122     0.2675808   -0.4296381 
   0.023355828     0.5802476   -0.5190340     0.0000609   -0.0001167     0.0000446    0.0000901     0.2656250   -0.4295961 
   0.023455853     0.5763080   -0.5220847    -0.0001714   -0.0002290     0.0000956   -0.0001037     0.2641469   -0.4289166 
   0.023555878     0.5750110   -0.5223271    -0.0001873    0.0000672    -0.0000841    0.0000262     0.2629861   -0.4274272 
   0.023655903     0.5702060   -0.5149800    -0.0002546   -0.0003629    -0.0000862   -0.0000481     0.2626452   -0.4269783 
   0.023755928     0.5680233   -0.5187353     0.0004027   -0.0001875    -0.0001272    0.0000129     0.2603862   -0.4253970 
   0.023855953     0.5696347   -0.5190808    -0.0006009    0.0002706    -0.0000699    0.0000475     0.2577518   -0.4249150 
   0.023955978     0.5627575   -0.5225650     0.0000707    0.0001660    -0.0001156    0.0000469     0.2586285   -0.4257521 
   0.024056003     0.5688680   -0.5203283     0.0002766    0.0003922    -0.0001002   -0.0002144     0.2554903   -0.4235735 
   0.024156028     0.5582847   -0.5228474    -0.0004013   -0.0002241    -0.0002132   -0.0000201     0.2558951   -0.4224725 
   0.024256053     0.5550119   -0.5225946    -0.0001184   -0.0002001    -0.0000237   -0.0000096     0.2528557   -0.4218195 
   0.024356078     0.5557684   -0.5212331    -0.0000634   -0.0000537    -0.0000682    0.0001094     0.2528517   -0.4220547 
   0.024456103     0.5523018   -0.5202730    -0.0001972    0.0002926    -0.0000004    0.0001342     0.2504667   -0.4205481 
   0.024556128     0.5587696   -0.5202250    -0.0001088    0.0001293    -0.0001616    0.0000676     0.2482831   -0.4201844 
   0.024656153     0.5528591   -0.5236826    -0.0001562    0.0002548    -0.0001159    0.0000364     0.2481790   -0.4184586 
   0.024756178     0.5492209   -0.5244217     0.0000389    0.0002034    -0.0001338    0.0000208     0.2457665   -0.4176395 
   0.024856203     0.5507898   -0.5240308     0.0000050   -0.0000389    -0.0001206    0.0000067     0.2445532   -0.4160371 
   0.024956228     0.5506930   -0.5233806     0.0001542    0.0001258    -0.0001366    0.0001226     0.2443875   -0.4157748 
   0.025056253     0.5393661   -0.5208977    -0.0001356    0.0001419    -0.0000801    0.0000157     0.2421751   -0.4162545 
   0.025156278     0.5451682   -0.5286138    -0.0001206    0.0000364    -0.0000894    0.0000750     0.2415026   -0.4142383 
   0.025256303     0.5403271   -0.5215780    -0.0001029    0.0000734    -0.0000061    0.0001175     0.2399082   -0.4138239 
   0.025356328     0.5432251   -0.5293048    -0.0003816   -0.0001584    -0.0000206    0.0001490     0.2381672   -0.4127825 
   0.025456353     0.5337328   -0.5256109    -0.0004377    0.0000051    -0.0001201    0.0000938     0.2366115   -0.4117497 
   0.025556378     0.5323763   -0.5283756    -0.0001548    0.0001204    -0.0000789    0.0000060     0.2359131   -0.4111940 
   0.025656403     0.5341395   -0.5301473     0.0002598   -0.0003566    -0.0000099    0.0000173     0.2344216   -0.4095320 
   0.025756428     0.5341647   -0.5334633    -0.0002434    0.0001777    -0.0000776    0.0000549     0.2321532   -0.4083658 
   0.025856453     0.5271205   -0.5295953    -0.0003548    0.0001125    -0.0001395    0.0001809     0.2316275   -0.4076465 
   0.025956478     0.5261157   -0.5257913     0.0001026    0.0004518     0.0000399    0.0000984     0.2305786   -0.4079322 
   0.026056503     0.5219433   -0.5288348     0.0001970    0.0003644    -0.0000007    0.0000771     0.2307147   -0.4056798 
   0.026156528     0.5192321   -0.5240102    -0.0001206    0.0003096    -0.0000764    0.0000667     0.2275280   -0.4062414 
   0.026256553     0.5226890   -0.5258873    -0.0001828    0.0001600     0.0000179    0.0001107     0.2258979   -0.4043614 
   0.026356578     0.5214603   -0.5312192    -0.0003704   -0.0000486    -0.0001360    0.0000831     0.2262815   -0.4059989 
   0.026456603     0.5123281   -0.5318176    -0.0000620    0.0001886    -0.0000311    0.0000016     0.2246070   -0.4039773 
   0.026556628     0.5143975   -0.5319550    -0.0001911   -0.0001923    -0.0000333    0.0000447     0.2223584   -0.4024537 
   0.026656653     0.5089461   -0.5261331    -0.0002652   -0.0001677    -0.0001029    0.0000489     0.2227660   -0.4017196 
   0.026756678     0.5092391   -0.5328903     0.0000774    0.0001637    -0.0000705   -0.0000568     0.2228122   -0.4015932 
   0.026856703     0.5073624   -0.5363511    -0.0003677    0.0002063    -0.0000819    0.0001897     0.2211465   -0.4013656 
   0.026956728     0.5083536   -0.5287447    -0.0000501    0.0000635    -0.0000170    0.0000547     0.2186871   -0.3987171 
   0.027056753     0.5035520   -0.5309344    -0.0002834   -0.0001451    -0.0000081    0.0002385     0.2173497   -0.3975009 
   0.027156778     0.5021412   -0.5324616    -0.0003496   -0.0001787    -0.0000255    0.0000201     0.2171408   -0.3966145 
   0.027256803     0.5015600   -0.5255026     0.0000248    0.0001215     0.0000613    0.0000692     0.2150476   -0.3977293 
   0.027356828     0.5024345   -0.5317480    -0.0002542   -0.0000981    -0.0002215    0.0000126     0.2144641   -0.3961936 
   0.027456853     0.4950261   -0.5322878     0.0002527    0.0002558    -0.0001060   -0.0000007     0.2138229   -0.3970997 
   0.027556878     0.4922755   -0.5311252     0.0000605    0.0003682    -0.0001120    0.0000687     0.2116541   -0.3938539 
   0.027656903     0.4973790   -0.5325872    -0.0001934    0.0000532    -0.0000113    0.0000270     0.2107393   -0.3938111 
   0.027756928     0.4864215   -0.5323997    -0.0006448    0.0000156    -0.0000223    0.0001545     0.2100555   -0.3930232 
   0.027856953     0.4884204   -0.5334127     0.0002321    0.0001476    -0.0000924    0.0001318     0.2099014   -0.3913978 
   0.027956978     0.4841581   -0.5315222    -0.0002986    0.0000060    -0.0001239    0.0001085     0.2073223   -0.3906192 
   0.028057004     0.4844529   -0.5281821    -0.0000681    0.0005271    -0.0001092    0.0000549     0.2065338   -0.3899943 
   0.028157029     0.4797079   -0.5327706    -0.0001498   -0.0000279    -0.0000067    0.0001112     0.2056678   -0.3897771 
   0.028257054     0.4780368   -0.5315000     0.0002178    0.0000290    -0.0000771    0.0001180     0.2052097   -0.3894145 
   0.028357079     0.4726588   -0.5314476    -0.0001105    0.0000425    -0.0001239    0.0001654     0.2032705   -0.3879332 
   0.028457104     0.4756499   -0.5313467     0.0003867   -0.0000005    -0.0000959    0.0001541     0.2023176   -0.3876898 
   0.028557129     0.4720251   -0.5335312    -0.0002577    0.0000355    -0.0000837    0.0001044     0.2016884   -0.3877493 
   0.028657154     0.4725049   -0.5309135     0.0002413    0.0003380    -0.0001112    0.0002155     0.2007463   -0.3853113 
   0.028757179     0.4736864   -0.5324814     0.0000483    0.0000235    -0.0000555   -0.0000051     0.2015557   -0.3853504 
   0.028857204     0.4700353   -0.5320467     0.0001449    0.0000699    -0.0000518    0.0001069     0.1989600   -0.3847473 
   0.028957229     0.4631215   -0.5349175     0.0001093   -0.0001251    -0.0000390    0.0001359     0.1976024   -0.3841672 
   0.029057254     0.4687173   -0.5394005     0.0003288   -0.0001071    -0.0000165    0.0000729     0.1983947   -0.3833664 
   0.029157279     0.4630415   -0.5304282    -0.0005077   -0.0001890    -0.0001207    0.0001437     0.1958266   -0.3826014 
   0.029257304     0.4606192   -0.5374246     0.0000006    0.0000586     0.0000060    0.0000804     0.1941863   -0.3810907 
   0.029357329     0.4565981   -0.5297863     0.0000515    0.0000628    -0.0001064    0.0000200     0.1944854   -0.3805859 
   0.029457354     0.4597932   -0.5332509    -0.0001577    0.0000357    -0.0000494    0.0000208     0.1918131   -0.3793489 
   0.029557379     0.4544389   -0.5371446    -0.0003461    0.0001464    -0.0001331    0.0001152     0.1919236   -0.3795783 
   0.029657404     0.4577540   -0.5313945     0.0000021    0.0001393    -0.0001445    0.0001763     0.1916946   -0.3787873 
   0.029757429     0.4509013   -0.5360790     0.0000156    0.0002673    -0.0000472    0.0000477     0.1906520   -0.3769817 
   0.029857454     0.4468323   -0.5332494    -0.0000993    0.0001111    -0.0001109    0.0000924     0.1898223   -0.3760723 
   0.029957479     0.4487401   -0.5328826     0.0000968    0.0003811    -0.0001022    0.0000743     0.1891988   -0.3755966 
   0.030057504     0.4439786   -0.5357003    -0.0000606    0.0000658     0.0000213    0.0000803     0.1883956   -0.3743349 
   0.030157529     0.4462591   -0.5312702    -0.0001885   -0.0001117    -0.0000167    0.0001555     0.1871857   -0.3740579 
   0.030257554     0.4429621   -0.5284628    -0.0001825    0.0002258    -0.0000748    0.0000135     0.1862103   -0.3722059 
   0.030357579     0.4414781   -0.5249231    -0.0004024    0.0003801    -0.0002672    0.0000133     0.1850230   -0.3730843 
   0.030457604     0.4432060   -0.5314335    -0.0003153    0.0001964    -0.0000128    0.0001869     0.1846149   -0.3725353 
   0.030557629     0.4389296   -0.5295647    -0.0005191   -0.0002149    -0.0000203    0.0000882     0.1836495   -0.3712160 
   0.030657654     0.4320630   -0.5319316     0.0000577   -0.0001413    -0.0000807    0.0000674     0.1834941   -0.3705064 
   0.030757679     0.4315718   -0.5311370    -0.0002423    0.0001763    -0.0001258    0.0000624     0.1822376   -0.3703561 
   0.030857704     0.4292402   -0.5300316     0.0001404    0.0000751    -0.0000598    0.0000506     0.1808270   -0.3691791 
   0.030957729     0.4328948   -0.5358529    -0.0003778   -0.0001619    -0.0001326    0.0000432     0.1796591   -0.3685493 
   0.031057754     0.4285257   -0.5292016    -0.0005280    0.0004049    -0.0000910    0.0000465     0.1792543   -0.3681878 
   0.031157779     0.4288208   -0.5392512    -0.0004585    0.0001290    -0.0000977    0.0000852     0.1783013   -0.3680895 
   0.031257804     0.4220635   -0.5325806     0.0000600    0.0001139     0.0000218    0.0000703     0.1778463   -0.3673362 
   0.031357829     0.4245958   -0.5314519    -0.0001997   -0.0001181    -0.0001866    0.0000857     0.1767242   -0.3659120 
   0.031457854     0.4184396   -0.5276965    -0.0003364    0.0002141    -0.0000677    0.0000851     0.1761314   -0.3660774 
   0.031557879     0.4173083   -0.5311263     0.0000427    0.0002792    -0.0001321    0.0000469     0.1758525   -0.3649029 
   0.031657904     0.4144956   -0.5311237    -0.0000992    0.0001432    -0.0000550    0.0000800     0.1746427   -0.3637225 
   0.031757929     0.4192561   -0.5291367    -0.0001050    0.0001971    -0.0001627    0.0000693     0.1729141   -0.3629068 
   0.031857954     0.4134360   -0.5330107     0.0001012    0.0001700    -0.0000265    0.0002069     0.1736482   -0.3624151 
   0.031957979     0.4134815   -0.5304276    -0.0000347    0.0000670    -0.0001285   -0.0000449     0.1726580   -0.3614371 
   0.032058004     0.4141311   -0.5308998    -0.0002950    0.0005775    -0.0000548    0.0001392     0.1711129   -0.3619947 
   0.032158029     0.4097916   -0.5311225    -0.0003199    0.0004088    -0.0000962    0.0001696     0.1705375   -0.3599973 
   0.032258054     0.4113512   -0.5297006     0.0002360    0.0000798    -0.0001190    0.0000549     0.1701087   -0.3596860 
   0.032358079     0.4071804   -0.5289461    -0.0001226   -0.0002360    -0.0000125   -0.0000123     0.1686846   -0.3576455 
   0.032458104     0.4060723   -0.5300657    -0.0000128   -0.0002406    -0.0000360    0.0001852     0.1680198   -0.3583905 
   0.032558129     0.4029662   -0.5255832     0.0003966    0.0000296    -0.0001048    0.0000552     0.1679481   -0.3576792 
   0.032658154     0.4037514   -0.5306939    -0.0000503    0.0000607    -0.0002031    0.0000515     0.1663624   -0.3562998 
   0.032758179     0.3997826   -0.5301514     0.0002131    0.0004718    -0.0001036    0.0001064     0.1667649   -0.3556165 
   0.032858204     0.3992046   -0.5256370    -0.0000537    0.0002018    -0.0001201    0.0002529     0.1649987   -0.3553573 
   0.032958229     0.3981908   -0.5273107    -0.0000148    0.0006031    -0.0001008    0.0001452     0.1647345   -0.3539539 
   0.033058254     0.3944575   -0.5267970    -0.0005309   -0.0002230    -0.0001659    0.0001288     0.1640797   -0.3545045 
   0.033158279     0.3869296   -0.5289315     0.0002413    0.0003188    -0.0001238    0.0001624     0.1632235   -0.3529367 
   0.033258304     0.3900764   -0.5258169    -0.0005339    0.0000988    -0.0000778    0.0000855     0.1622922   -0.3525511 
   0.033358329     0.3851411   -0.5232633    -0.0001603    0.0000988    -0.0001181    0.0001295     0.1619512   -0.3522927 
   0.033458354     0.3873363   -0.5256162     0.0001430    0.0004654     0.0000022    0.0001394     0.1622202   -0.3509449 
   0.033558379     0.3868284   -0.5284657    -0.0001386    0.0001028    -0.0001175    0.0000194     0.1604788   -0.3499532 
   0.033658404     0.3800554   -0.5268371     0.0003393    0.0001217    -0.0000811    0.0002721     0.1592105   -0.3496970 
   0.033758429     0.3808329   -0.5255467    -0.0000160    0.0000643    -0.0000385    0.0001957     0.1590356   -0.3490834 
   0.033858454     0.3782591   -0.5278511     0.0000142   -0.0000993    -0.0001064    0.0001991     0.1581444   -0.3488981 
   0.033958479     0.3811007   -0.5300011    -0.0001550    0.0006366    -0.0001024    0.0001054     0.1575928   -0.3477263 
   0.034058504     0.3763435   -0.5253314     0.0000363    0.0000810     0.0000402    0.0001165     0.1563932   -0.3478611 
   0.034158529     0.3731241   -0.5253292    -0.0003692   -0.0000413     0.0000675    0.0000909     0.1573293   -0.3459885 
   0.034258554     0.3760245   -0.5236196     0.0001760   -0.0001252    -0.0001015    0.0001980     0.1564275   -0.3463286 
   0.034358579     0.3727759   -0.5260694    -0.0000801   -0.0001494    -0.0000644    0.0001304     0.1550539   -0.3451775 
   0.034458604     0.3733445   -0.5267979     0.0002328    0.0000446    -0.0001599    0.0000592     0.1553841   -0.3443641 
   0.034558629     0.3724226   -0.5236245    -0.0001441    0.0003633     0.0000009    0.0000035     0.1534745   -0.3438717 
   0.034658654     0.3662692   -0.5240706    -0.0000424    0.0005580    -0.0000742    0.0001550     0.1541003   -0.3420798 
   0.034758679     0.3626255   -0.5243014     0.0002660    0.0001355    -0.0000706    0.0000147     0.1535433   -0.3427727 
   0.034858704     0.3686954   -0.5237233     0.0000169    0.0001483     0.0000959    0.0002474     0.1518992   -0.3419015 
   0.034958729     0.3672631   -0.5202047    -0.0001958    0.0003852    -0.0000186    0.0001378     0.1509684   -0.3415157 
   0.035058754     0.3633046   -0.5213277    -0.0002711   -0.0000058    -0.0001025    0.0000728     0.1505206   -0.3414165 
   0.035158779     0.3655299   -0.5251814     0.0000320    0.0000236    -0.0000753    0.0000810     0.1493599   -0.3403479 
   0.035258804     0.3582640   -0.5246998    -0.0004113    0.0000727    -0.0000198    0.0001661     0.1494223   -0.3396686 
   0.035358829     0.3569814   -0.5185418     0.0000467    0.0004488    -0.0001779    0.0000728     0.1492511   -0.3384797 
   0.035458854     0.3554625   -0.5205286     0.0001750   -0.0005987     0.0000181    0.0001830     0.1477176   -0.3383216 
   0.035558879     0.3577657   -0.5198992     0.0000785   -0.0001130    -0.0001257    0.0000705     0.1483317   -0.3372908 
   0.035658904     0.3503006   -0.5229743    -0.0004828    0.0000610    -0.0001651    0.0000099     0.1475369   -0.3374673 
   0.035758929     0.3520387   -0.5157126    -0.0003200   -0.0000535    -0.0001018    0.0001349     0.1466559   -0.3362527 
   0.035858954     0.3516533   -0.5174044    -0.0002046    0.0005170    -0.0001428    0.0001877     0.1461867   -0.3356073 
   0.035958979     0.3503256   -0.5221796    -0.0000228   -0.0003474     0.0000396    0.0001888     0.1460318   -0.3357257 
   0.036059005     0.3503899   -0.5171335    -0.0001136    0.0001292    -0.0000841    0.0001654     0.1457629   -0.3344682 
   0.036159030     0.3496262   -0.5192590    -0.0000726    0.0000012    -0.0001820    0.0001535     0.1443793   -0.3346459 
   0.036259055     0.3434966   -0.5149791    -0.0000731    0.0001893    -0.0000779    0.0001547     0.1434166   -0.3337390 
   0.036359080     0.3397320   -0.5142184    -0.0000849    0.0005180    -0.0001231    0.0001420     0.1430940   -0.3332242 
   0.036459105     0.3417067   -0.5192158     0.0000741    0.0003817    -0.0000894    0.0000850     0.1426981   -0.3324334 
   0.036559130     0.3411509   -0.5139393    -0.0004322    0.0005126    -0.0000392    0.0002061     0.1416865   -0.3314016 
   0.036659155     0.3374187   -0.5206767    -0.0002809   -0.0004304    -0.0000771   -0.0000105     0.1418088   -0.3312266 
   0.036759180     0.3379688   -0.5154080    -0.0002342   -0.0003308    -0.0000537    0.0001671     0.1414232   -0.3305200 
   0.036859205     0.3347439   -0.5173247     0.0001143   -0.0002182    -0.0000637    0.0001925     0.1402694   -0.3301381 
   0.036959230     0.3332674   -0.5169014    -0.0002295    0.0000741    -0.0000750    0.0002116     0.1394943   -0.3298775 
   0.037059255     0.3321335   -0.5180346     0.0002845    0.0000506    -0.0001620    0.0000758     0.1392661   -0.3296008 
   0.037159280     0.3313495   -0.5167996    -0.0004498    0.0002867    -0.0001622    0.0001071     0.1391241   -0.3283629 
   0.037259305     0.3293577   -0.5201174    -0.0006195    0.0003026    -0.0001471    0.0003125     0.1381628   -0.3286819 
   0.037359330     0.3279012   -0.5157630    -0.0000026    0.0001049     0.0000003   -0.0000585     0.1380545   -0.3271379 
   0.037459355     0.3298028   -0.5138798     0.0000011   -0.0000180     0.0000208    0.0000986     0.1369132   -0.3261491 
   0.037559380     0.3281856   -0.5151023    -0.0004679   -0.0000417    -0.0000845    0.0000413     0.1370423   -0.3262882 
   0.037659405     0.3235297   -0.5145810    -0.0002466    0.0003223    -0.0000265    0.0002229     0.1362471   -0.3250436 
   0.037759430     0.3257082   -0.5177443     0.0004158   -0.0002514    -0.0002301   -0.0000005     0.1355850   -0.3243777 
   0.037859455     0.3179731   -0.5110987    -0.0005219    0.0003496    -0.0002177   -0.0000261     0.1349491   -0.3246164 
   0.037959480     0.3196408   -0.5105720    -0.0001363    0.0001121     0.0000597    0.0001378     0.1344869   -0.3238173 
   0.038059505     0.3196793   -0.5089922     0.0000996   -0.0001235    -0.0000920    0.0002262     0.1342531   -0.3238590 
   0.038159530     0.3196312   -0.5108309    -0.0001318    0.0000300    -0.0001343    0.0001994     0.1339632   -0.3222238 
   0.038259555     0.3127246   -0.5138621    -0.0000451    0.0005745    -0.0003872    0.0001162     0.1332825   -0.3224283 
   0.038359580     0.3134606   -0.5090145    -0.0003079    0.0002429    -0.0001612    0.0001084     0.1329738   -0.3213398 
   0.038459605     0.3151127   -0.5093069     0.0005096   -0.0004699     0.0000633    0.0002160     0.1311148   -0.3202720 
   0.038559630     0.3127051   -0.5129764     0.0000947    0.0000305    -0.0003298    0.0002067     0.1315344   -0.3213532 
   0.038659655     0.3121260   -0.5134710    -0.0007885    0.0001346    -0.0000127    0.0001329     0.1320405   -0.3190922 
   0.038759680     0.3105190   -0.5062608     0.0001011    0.0001413     0.0000418    0.0001664     0.1300472   -0.3199917 
   0.038859705     0.3050804   -0.5118257    -0.0002170    0.0004671    -0.0000988    0.0000898     0.1306051   -0.3185535 
   0.038959730     0.3082246   -0.5129372    -0.0000297    0.0003475    -0.0001592    0.0000859     0.1302359   -0.3185191 
   0.039059755     0.3040174   -0.5080827     0.0002027   -0.0000875     0.0000190    0.0002662     0.1298130   -0.3167306 
   0.039159780     0.3030387   -0.5079781    -0.0003628    0.0001084    -0.0001447    0.0002986     0.1288688   -0.3177485 
   0.039259805     0.3009379   -0.5078706    -0.0004320    0.0000629    -0.0000164    0.0002237     0.1282670   -0.3170256 
   0.039359830     0.3007680   -0.5049814    -0.0000908    0.0000196    -0.0000656    0.0001306     0.1280653   -0.3165697 
   0.039459855     0.3005129   -0.5091662    -0.0001593   -0.0001620    -0.0000674    0.0000098     0.1273092   -0.3155588 
   0.039559880     0.2982605   -0.5047187     0.0000780    0.0001785    -0.0000553    0.0000468     0.1273382   -0.3147344 
   0.039659905     0.2984188   -0.5035289     0.0004817    0.0006104    -0.0001527    0.0001192     0.1260549   -0.3139715 
   0.039759930     0.2975653   -0.5045146     0.0000066    0.0002804    -0.0000259    0.0001762     0.1265649   -0.3138103 
   0.039859955     0.2962528   -0.5050620     0.0001696    0.0005159    -0.0000801    0.0000740     0.1263166   -0.3139046 
   0.039959980     0.2924373   -0.5058296     0.0000020    0.0007606    -0.0001717    0.0001976     0.1248587   -0.3131880 
   0.040060005     0.2924491   -0.5069826    -0.0000743   -0.0001282    -0.0000131    0.0001691     0.1256459   -0.3118524 
   0.040160030     0.2905761   -0.5029081    -0.0009198    0.0005621    -0.0002059    0.0000468     0.1244624   -0.3114658 
   0.040260055     0.2896194   -0.5000653    -0.0000712   -0.0005798    -0.0001334    0.0002196     0.1236754   -0.3112056 
   0.040360080     0.2873088   -0.5022072     0.0004932    0.0006386     0.0000153    0.0002994     0.1225214   -0.3101608 
   0.040460105     0.2898896   -0.5033807    -0.0001977    0.0000431    -0.0003025    0.0001972     0.1227398   -0.3100666 
   0.040560130     0.2889731   -0.5008134    -0.0003667    0.0007781     0.0001089    0.0000150     0.1231608   -0.3104101 
   0.040660155     0.2879306   -0.5046249     0.0002576    0.0004076    -0.0001497    0.0002727     0.1219497   -0.3087283 
   0.040760180     0.2855415   -0.4986729    -0.0000498    0.0000165     0.0000872    0.0000959     0.1205630   -0.3081131 
   0.040860205     0.2806709   -0.4986733    -0.0002048   -0.0001077    -0.0000351    0.0002193     0.1212781   -0.3078872 
   0.040960230     0.2827674   -0.5010176     0.0000799    0.0001943    -0.0001460    0.0002040     0.1209696   -0.3074155 
   0.041060255     0.2850296   -0.5039306    -0.0008531    0.0000414    -0.0001233    0.0002579     0.1203578   -0.3077228 
   0.041160280     0.2782183   -0.5011908     0.0002674    0.0000488    -0.0000968    0.0001853     0.1197234   -0.3065303 
   0.041260305     0.2795726   -0.5010942     0.0001325    0.0002417    -0.0001675    0.0002493     0.1192417   -0.3056566 
   0.041360330     0.2748638   -0.4975697     0.0002920   -0.0002961    -0.0002268    0.0002404     0.1192516   -0.3053522 
   0.041460355     0.2737904   -0.4973705     0.0011956    0.0005892     0.0000007    0.0001910     0.1184484   -0.3058348 
   0.041560380     0.2770791   -0.5010075    -0.0003435    0.0008847    -0.0001854    0.0001635     0.1185952   -0.3046587 
   0.041660405     0.2701721   -0.4991546     0.0002021    0.0003288    -0.0000038    0.0002059     0.1176410   -0.3041915 
   0.041760430     0.2724653   -0.4989190     0.0001372    0.0006244    -0.0001834    0.0002885     0.1185071   -0.3033912 
   0.041860455     0.2700888   -0.4972243    -0.0002507   -0.0003459    -0.0001710    0.0000128     0.1175484   -0.3034104 
   0.041960480     0.2660441   -0.4974869     0.0000025    0.0005638    -0.0000521    0.0001941     0.1162862   -0.3028267 
   0.042060505     0.2698280   -0.4946785    -0.0001769    0.0005240    -0.0001558    0.0002626     0.1164415   -0.3018162 
   0.042160530     0.2659868   -0.4936325     0.0005037    0.0003828    -0.0001502    0.0001570     0.1157375   -0.3021623 
   0.042260555     0.2621170   -0.4936069     0.0000738   -0.0000190     0.0000057    0.0003195     0.1160881   -0.3006895 
   0.042360580     0.2669940   -0.4959177    -0.0001630    0.0003863    -0.0000209    0.0003522     0.1140194   -0.3017219 
   0.042460605     0.2637759   -0.4976152    -0.0003116    0.0006197    -0.0001584    0.0000586     0.1145822   -0.3002609 
   0.042560630     0.2630590   -0.4959979    -0.0002483   -0.0001134     0.0000620    0.0001537     0.1141627   -0.3003752 
   0.042660655     0.2652532   -0.4913657     0.0002038   -0.0000148    -0.0002199    0.0000837     0.1138189   -0.3004924 
   0.042760680     0.2623590   -0.4878159    -0.0003287    0.0000039     0.0000025    0.0002593     0.1134572   -0.2987371 
   0.042860705     0.2596158   -0.4929601     0.0003978    0.0004143     0.0000205    0.0000084     0.1132592   -0.2983440 
   0.042960730     0.2581765   -0.4904662    -0.0004596   -0.0002409    -0.0001329    0.0001626     0.1129049   -0.2976585 
   0.043060755     0.2596445   -0.4913136     0.0000277    0.0003425    -0.0001392    0.0000193     0.1122951   -0.2973981 
   0.043160780     0.2537741   -0.4890177     0.0000371   -0.0000549    -0.0001927    0.0002003     0.1118807   -0.2978160 
   0.043260805     0.2557214   -0.4927368    -0.0005337    0.0004907    -0.0000496    0.0000824     0.1120605   -0.2962329 
   0.043360830     0.2546319   -0.4889872    -0.0006940   -0.0002567    -0.0001289    0.0002399     0.1110368   -0.2963392 
   0.043460855     0.2530018   -0.4870546     0.0002756    0.0002747    -0.0001318    0.0001184     0.1109043   -0.2957315 
   0.043560880     0.2523414   -0.4883228    -0.0001712    0.0001419    -0.0000535    0.0000796     0.1107717   -0.2955671 
   0.043660905     0.2559544   -0.4908625    -0.0003495    0.0000016     0.0000464    0.0004859     0.1102559   -0.2952672 
   0.043760930     0.2497547   -0.4903404    -0.0002239    0.0007008    -0.0000276    0.0000720     0.1090953   -0.2944074 
   0.043860955     0.2518992   -0.4874910     0.0004521   -0.0006326    -0.0001314   -0.0000207     0.1091746   -0.2942473 
   0.043960980     0.2473831   -0.4860147     0.0000052   -0.0000215    -0.0002081    0.0001088     0.1086424   -0.2928295 
   0.044061006     0.2498168   -0.4828617     0.0002856   -0.0000425    -0.0001767    0.0000976     0.1084862   -0.2934252 
   0.044161031     0.2489358   -0.4878101     0.0000438   -0.0003084    -0.0000187    0.0003022     0.1085140   -0.2926401 
   0.044261056     0.2436541   -0.4877159     0.0003930   -0.0002153    -0.0001504    0.0000665     0.1073751   -0.2923070 
   0.044361081     0.2458931   -0.4836226    -0.0009191   -0.0002511     0.0000321   -0.0000032     0.1066503   -0.2923272 
   0.044461106     0.2442199   -0.4838051    -0.0007748   -0.0000829    -0.0001137    0.0002414     0.1072618   -0.2908649 
   0.044561131     0.2453343   -0.4850252    -0.0000638   -0.0003560    -0.0000250    0.0002180     0.1078327   -0.2911352 
   0.044661156     0.2415344   -0.4832028    -0.0000252    0.0001691     0.0001540    0.0002054     0.1063563   -0.2915395 
   0.044761181     0.2420376   -0.4835089    -0.0000837   -0.0000407    -0.0005029    0.0001560     0.1067502   -0.2904088 
   0.044861206     0.2412413   -0.4821308     0.0004439    0.0004929    -0.0001844    0.0001356     0.1066654   -0.2895734 
   0.044961231     0.2350927   -0.4806308     0.0001988    0.0001238     0.0000508    0.0003264     0.1046718   -0.2888969 
   0.045061256     0.2354679   -0.4841422    -0.0007980   -0.0002260     0.0000534    0.0001698     0.1043566   -0.2888147 
   0.045161281     0.2384993   -0.4873067    -0.0000414   -0.0001525    -0.0001134    0.0003586     0.1047976   -0.2872618 
   0.045261306     0.2337396   -0.4797517    -0.0002903    0.0006031    -0.0002106    0.0000791     0.1042132   -0.2887948 
   0.045361331     0.2360187   -0.4824175    -0.0001166    0.0005832    -0.0000474    0.0001464     0.1041073   -0.2872459 
   0.045461356     0.2322154   -0.4788685     0.0001943    0.0004665    -0.0000308    0.0003209     0.1042464   -0.2868816 
   0.045561381     0.2370671   -0.4814979    -0.0006619    0.0005382    -0.0002288    0.0001748     0.1033435   -0.2855303 
   0.045661406     0.2325790   -0.4775990     0.0000449    0.0004955    -0.0001978    0.0003352     0.1028995   -0.2862079 
   0.045761431     0.2330903   -0.4815934     0.0006861    0.0008670     0.0001048    0.0000582     0.1023744   -0.2858073 
   0.045861456     0.2330508   -0.4759305    -0.0000535   -0.0000387    -0.0002212    0.0001230     0.1025565   -0.2849952 
   0.045961481     0.2229456   -0.4749326    -0.0004584    0.0002606     0.0001447    0.0005193     0.1018187   -0.2849840 
   0.046061506     0.2230663   -0.4780105    -0.0004436    0.0004209    -0.0000167    0.0004908     0.1024140   -0.2847469 
   0.046161531     0.2274540   -0.4763885    -0.0003352    0.0003634    -0.0001995    0.0002476     0.1017163   -0.2847169 
   0.046261556     0.2229304   -0.4740201    -0.0000631    0.0002632     0.0000378    0.0002614     0.1012594   -0.2832148 
   0.046361581     0.2257850   -0.4765892     0.0000209   -0.0006367     0.0000257    0.0004307     0.1009363   -0.2830955 
   0.046461606     0.2191955   -0.4749385    -0.0003022    0.0008300    -0.0001464    0.0000905     0.1012459   -0.2818958 
   0.046561631     0.2167546   -0.4734666    -0.0004400    0.0004350    -0.0001249    0.0000599     0.0999243   -0.2819408 
   0.046661656     0.2186358   -0.4738374     0.0003152    0.0004545    -0.0000250   -0.0001384     0.0997136   -0.2820499 
   0.046761681     0.2188684   -0.4748383    -0.0002339   -0.0005081     0.0001002    0.0004779     0.0987930   -0.2822553 
   0.046861706     0.2181979   -0.4728260    -0.0003126    0.0002703    -0.0000693    0.0000190     0.0991409   -0.2812350 
   0.046961731     0.2221661   -0.4705764    -0.0001645    0.0004265    -0.0000610    0.0001919     0.0994596   -0.2804154 
   0.047061756     0.2211110   -0.4701763     0.0001744    0.0000938    -0.0001526    0.0003174     0.0984770   -0.2801260 
   0.047161781     0.2163267   -0.4719861    -0.0005494    0.0002779    -0.0001133    0.0003523     0.0982884   -0.2798450 
   0.047261806     0.2146234   -0.4726227    -0.0007529   -0.0000242     0.0000236    0.0001527     0.0984414   -0.2793367 
   0.047361831     0.2173785   -0.4695624    -0.0006255    0.0002718    -0.0004000    0.0003194     0.0971028   -0.2792601 
   0.047461856     0.2193311   -0.4679640     0.0004530   -0.0003825    -0.0000482   -0.0000435     0.0971982   -0.2793292 
   0.047561881     0.2129746   -0.4655319     0.0003575    0.0001204     0.0001603    0.0000261     0.0974861   -0.2781333 
   0.047661906     0.2110402   -0.4685142     0.0006979   -0.0002977     0.0000097    0.0002951     0.0972025   -0.2782211 
   0.047761931     0.2112715   -0.4708653    -0.0000799    0.0005473    -0.0001036    0.0001944     0.0977214   -0.2771204 
   0.047861956     0.2110376   -0.4701423    -0.0005891   -0.0002985    -0.0000389    0.0004736     0.0969911   -0.2763703 
   0.047961981     0.2061594   -0.4685639    -0.0008996   -0.0000209    -0.0001487    0.0002185     0.0959080   -0.2763204 
   0.048062006     0.2025107   -0.4699560    -0.0004817    0.0004933    -0.0002644    0.0000094     0.0959117   -0.2760248 
   0.048162031     0.2073116   -0.4658749    -0.0002425    0.0000827    -0.0002572    0.0003417     0.0958288   -0.2749817 
   0.048262056     0.2072131   -0.4681143    -0.0009273    0.0013473    -0.0001677    0.0001945     0.0956129   -0.2762984 
   0.048362081     0.2056341   -0.4623055    -0.0003359    0.0003882     0.0000020    0.0001811     0.0955921   -0.2750227 
   0.048462106     0.2066167   -0.4655620     0.0001770   -0.0000933    -0.0000632    0.0004330     0.0947866   -0.2740375 
   0.048562131     0.2024456   -0.4672433     0.0002417    0.0004078    -0.0001637    0.0003148     0.0953872   -0.2746250 
   0.048662156     0.2000222   -0.4656421     0.0001945    0.0003342    -0.0002084    0.0003645     0.0947963   -0.2737317 
   0.048762181     0.1977803   -0.4610810     0.0000631    0.0001044    -0.0002517    0.0004127     0.0940890   -0.2728495 
   0.048862206     0.1959774   -0.4678272    -0.0000945    0.0001104     0.0000694    0.0002126     0.0929423   -0.2740259 
   0.048962231     0.1995103   -0.4616458     0.0001121    0.0004789    -0.0000800    0.0002430     0.0931172   -0.2735251 
   0.049062256     0.1970391   -0.4611270    -0.0000077    0.0003993    -0.0000094    0.0002631     0.0925590   -0.2721297 
   0.049162281     0.1989044   -0.4617178    -0.0002665    0.0008696    -0.0000958    0.0001646     0.0921645   -0.2718207 
   0.049262306     0.2010332   -0.4624325    -0.0001956   -0.0000764    -0.0000178    0.0000739     0.0922787   -0.2718161 
   0.049362331     0.1953539   -0.4571466    -0.0003516    0.0002412     0.0000028    0.0001115     0.0927432   -0.2711128 
   0.049462356     0.1981664   -0.4596217     0.0001843    0.0003581    -0.0000245    0.0002365     0.0913483   -0.2709635 
   0.049562381     0.1964243   -0.4582985    -0.0004002    0.0002939    -0.0000742    0.0002562     0.0916415   -0.2702784 
   0.049662406     0.1962432   -0.4592445    -0.0001098    0.0001817    -0.0000818   -0.0000651     0.0917994   -0.2707057 
   0.049762431     0.1928626   -0.4586548    -0.0001086   -0.0002234    -0.0001105    0.0003996     0.0908999   -0.2693122 
   0.049862456     0.1936256   -0.4595815    -0.0007293    0.0005363     0.0000935    0.0004779     0.0909850   -0.2695697 
   0.049962481     0.1952542   -0.4573374     0.0001130    0.0002442    -0.0001067    0.0003031     0.0908005   -0.2695928 
   0.050062506     0.1913275   -0.4576805    -0.0006580   -0.0002908     0.0002216    0.0002264     0.0901402   -0.2685043 
   0.050162531     0.1862184   -0.4535855    -0.0003232   -0.0006913    -0.0001433    0.0003239     0.0901164   -0.2681102 
   0.050262556     0.1906125   -0.4542270    -0.0005925   -0.0000439    -0.0001097    0.0000393     0.0889934   -0.2667899 
   0.050362581     0.1876161   -0.4582933    -0.0001092   -0.0003947     0.0000434    0.0004175     0.0893329   -0.2672695 
   0.050462606     0.1857399   -0.4557005    -0.0002117    0.0002114     0.0000442    0.0000493     0.0904187   -0.2669080 
   0.050562631     0.1856096   -0.4526443    -0.0004197   -0.0006061    -0.0000015    0.0004311     0.0892456   -0.2664651 
   0.050662656     0.1871807   -0.4584679    -0.0002262   -0.0000232    -0.0000017    0.0001905     0.0890372   -0.2664744 
   0.050762681     0.1832326   -0.4537452     0.0007795   -0.0000890    -0.0000821    0.0001670     0.0888768   -0.2661767 
   0.050862706     0.1892551   -0.4517351    -0.0002097    0.0004088     0.0003076    0.0000997     0.0877319   -0.2662967 
   0.050962731     0.1825626   -0.4514041    -0.0000566   -0.0009924     0.0001200    0.0003796     0.0880925   -0.2650839 
   0.051062756     0.1806583   -0.4523994     0.0003457    0.0001665     0.0001048    0.0003948     0.0879742   -0.2650805 
   0.051162781     0.1766170   -0.4540993     0.0003313    0.0005247     0.0000615    0.0004735     0.0875475   -0.2644705 
   0.051262806     0.1784011   -0.4536554    -0.0003936    0.0008147    -0.0000101    0.0002543     0.0869580   -0.2652522 
   0.051362831     0.1740690   -0.4529745     0.0002658    0.0007877     0.0001479   -0.0001354     0.0870693   -0.2651370 
   0.051462856     0.1781930   -0.4544710    -0.0006689    0.0001327     0.0000750    0.0001088     0.0871756   -0.2634133 
   0.051562881     0.1765318   -0.4498062    -0.0003860    0.0011897    -0.0000136    0.0003367     0.0861570   -0.2637643 
   0.051662906     0.1782060   -0.4494224     0.0000353    0.0003136    -0.0000451    0.0004953     0.0856433   -0.2632474 
   0.051762931     0.1750875   -0.4490217    -0.0008464    0.0000727    -0.0001927    0.0001439     0.0854847   -0.2627073 
   0.051862956     0.1759994   -0.4519072    -0.0005733    0.0008421    -0.0002252    0.0001479     0.0864123   -0.2626652 
   0.051962981     0.1754832   -0.4452776    -0.0012307   -0.0003729    -0.0002368    0.0001473     0.0858293   -0.2621539 
   0.052063007     0.1748249   -0.4486268    -0.0008437    0.0003643    -0.0002380    0.0001772     0.0851848   -0.2613252 
   0.052163032     0.1778130   -0.4496044    -0.0004596    0.0007981     0.0000375    0.0002511     0.0847199   -0.2610104 
   0.052263057     0.1755785   -0.4522090    -0.0004080    0.0001094    -0.0000283    0.0004397     0.0850398   -0.2601908 
   0.052363082     0.1743962   -0.4476103    -0.0003334   -0.0004655     0.0001036    0.0003068     0.0847214   -0.2598390 
   0.052463107     0.1695734   -0.4489325     0.0004889    0.0006712    -0.0001298    0.0002456     0.0843825   -0.2608919 
   0.052563132     0.1716686   -0.4463815     0.0004775    0.0002077    -0.0001441    0.0001827     0.0844515   -0.2606667 
   0.052663157     0.1716678   -0.4400342    -0.0004074    0.0005759     0.0001877    0.0001725     0.0839242   -0.2597506 
   0.052763182     0.1668179   -0.4450746    -0.0001645    0.0001532     0.0001760    0.0002249     0.0834196   -0.2589396 
   0.052863207     0.1686026   -0.4423196    -0.0003402    0.0010571    -0.0000464    0.0000789     0.0844050   -0.2596238 
   0.052963232     0.1705268   -0.4446203    -0.0005938    0.0010728    -0.0001723    0.0001953     0.0830519   -0.2578316 
   0.053063257     0.1686823   -0.4429397    -0.0002989    0.0005571     0.0002232    0.0003323     0.0828978   -0.2583559 
   0.053163282     0.1646867   -0.4411869     0.0001140    0.0004837    -0.0000940    0.0000645     0.0827303   -0.2584834 
   0.053263307     0.1654866   -0.4456637     0.0003147   -0.0000116    -0.0001830    0.0002208     0.0830684   -0.2587923 
   0.053363332     0.1616734   -0.4384946     0.0004711    0.0006999     0.0000368    0.0000308     0.0818009   -0.2569417 
   0.053463357     0.1627368   -0.4399348     0.0005667   -0.0006301     0.0000350    0.0003429     0.0818721   -0.2570915 
   0.053563382     0.1659178   -0.4380113    -0.0001375    0.0004664    -0.0000030    0.0000748     0.0816327   -0.2571253 
   0.053663407     0.1643368   -0.4340018    -0.0004996   -0.0000642     0.0000080    0.0002537     0.0823465   -0.2558370 
   0.053763432     0.1620783   -0.4348628    -0.0001047    0.0006613    -0.0000442    0.0001411     0.0812571   -0.2562623 
   0.053863457     0.1604919   -0.4400901     0.0005749    0.0004371    -0.0002667    0.0000245     0.0807511   -0.2562027 
   0.053963482     0.1589215   -0.4329586    -0.0006531    0.0005947    -0.0001303    0.0004210     0.0807533   -0.2562256 
   0.054063507     0.1631224   -0.4371985     0.0002494    0.0009056    -0.0002284    0.0002932     0.0808911   -0.2550908 
   0.054163532     0.1585418   -0.4345104    -0.0004674    0.0006459    -0.0001052    0.0004375     0.0801513   -0.2537075 
   0.054263557     0.1553978   -0.4394286    -0.0000127    0.0004631     0.0000180    0.0004688     0.0799872   -0.2547339 
   0.054363582     0.1558769   -0.4334803    -0.0002515    0.0002372    -0.0001157    0.0000812     0.0807267   -0.2543168 
   0.054463607     0.1555632   -0.4318472    -0.0000080    0.0010467     0.0000987    0.0002328     0.0798562   -0.2538354 
   0.054563632     0.1538563   -0.4351006     0.0002333    0.0004541    -0.0002851    0.0003480     0.0797294   -0.2534201 
   0.054663657     0.1595596   -0.4304700    -0.0004517   -0.0001019     0.0002732    0.0003997     0.0798513   -0.2530999 
   0.054763682     0.1528069   -0.4359142    -0.0003528    0.0001117    -0.0002398    0.0003080     0.0789239   -0.2523501 
   0.054863707     0.1550205   -0.4330853     0.0005656   -0.0001235    -0.0000535    0.0004057     0.0797739   -0.2523616 
   0.054963732     0.1567173   -0.4341972     0.0007092    0.0005527     0.0001910    0.0002879     0.0790278   -0.2519004 
   0.055063757     0.1525453   -0.4330534    -0.0003218    0.0001921    -0.0000166    0.0003819     0.0779806   -0.2524389 
   0.055163782     0.1505978   -0.4316720     0.0003205    0.0001922     0.0000014    0.0001388     0.0776347   -0.2517052 
   0.055263807     0.1476006   -0.4312645    -0.0001350    0.0006721    -0.0000783    0.0003595     0.0783776   -0.2513923 
   0.055363832     0.1512258   -0.4291245    -0.0002297    0.0000956    -0.0000034    0.0003209     0.0780894   -0.2514479 
   0.055463857     0.1454476   -0.4284602    -0.0003261   -0.0003571     0.0001508    0.0002750     0.0780028   -0.2512892 
   0.055563882     0.1449732   -0.4289837     0.0008510    0.0002597     0.0000105   -0.0000557     0.0770795   -0.2496302 
   0.055663907     0.1508191   -0.4294050     0.0005774    0.0009138    -0.0002967    0.0003220     0.0782865   -0.2499049 
   0.055763932     0.1489824   -0.4254607     0.0005665    0.0008114    -0.0002800    0.0005983     0.0779505   -0.2506212 
   0.055863957     0.1448771   -0.4288515     0.0000525    0.0001267    -0.0003125    0.0002284     0.0772116   -0.2492898 
   0.055963982     0.1448742   -0.4266205     0.0003484   -0.0004960    -0.0000169    0.0001136     0.0771194   -0.2490773 
   0.056064007     0.1459820   -0.4246193     0.0002050   -0.0001715    -0.0001846    0.0001088     0.0761652   -0.2498401 
   0.056164032     0.1430942   -0.4236893    -0.0001325    0.0002197     0.0001105    0.0001481     0.0773398   -0.2501187 
   0.056264057     0.1448136   -0.4249988     0.0002101   -0.0000044     0.0000780    0.0002051     0.0757664   -0.2483949 
   0.056364082     0.1415403   -0.4271014     0.0005248    0.0010851    -0.0000979    0.0000288     0.0763836   -0.2484650 
   0.056464107     0.1403786   -0.4245988     0.0002470    0.0001132    -0.0001046    0.0001561     0.0758130   -0.2480984 
   0.056564132     0.1382499   -0.4172646    -0.0012241    0.0008663    -0.0003474    0.0005535     0.0745821   -0.2471507 
   0.056664157     0.1371788   -0.4214721    -0.0000229    0.0006829    -0.0000014    0.0001972     0.0747303   -0.2470358 
   0.056764182     0.1408319   -0.4251792     0.0005143    0.0005731     0.0002038    0.0004203     0.0752324   -0.2466455 
   0.056864207     0.1401346   -0.4230193     0.0002102    0.0005338    -0.0000963    0.0003072     0.0754979   -0.2465151 
   0.056964232     0.1411404   -0.4224604     0.0000981    0.0001177    -0.0001855    0.0001839     0.0740668   -0.2472594 
   0.057064257     0.1384668   -0.4189856    -0.0010098   -0.0001030    -0.0000381    0.0002774     0.0741942   -0.2450613 
   0.057164282     0.1353492   -0.4242707    -0.0003025    0.0002996    -0.0001091    0.0003938     0.0746767   -0.2455724 
   0.057264307     0.1352213   -0.4222194    -0.0006908    0.0000590    -0.0001162    0.0002790     0.0740967   -0.2463532 
   0.057364332     0.1374930   -0.4217506    -0.0001921   -0.0002221    -0.0002241    0.0000866     0.0738946   -0.2452392 
   0.057464357     0.1391243   -0.4218220     0.0000048    0.0009464    -0.0000815    0.0003530     0.0742075   -0.2449621 
   0.057564382     0.1366623   -0.4169647     0.0004572    0.0005899     0.0000784    0.0001593     0.0734458   -0.2446978 
   0.057664407     0.1311184   -0.4150559     0.0003875    0.0005731     0.0000693    0.0001723     0.0735179   -0.2439922 
   0.057764432     0.1343610   -0.4170867    -0.0007514   -0.0000936    -0.0002606    0.0003591     0.0737990   -0.2434655 
   0.057864457     0.1360134   -0.4172332    -0.0000035    0.0005315    -0.0001652    0.0003204     0.0735010   -0.2449441 
   0.057964482     0.1308460   -0.4157150    -0.0002974    0.0003107    -0.0000094    0.0003680     0.0727250   -0.2432705 
   0.058064507     0.1323785   -0.4177328    -0.0003038   -0.0001429    -0.0003971    0.0000713     0.0735016   -0.2427445 
   0.058164532     0.1323623   -0.4150465    -0.0011506    0.0003104    -0.0000966   -0.0000710     0.0717131   -0.2433924 
   0.058264557     0.1359880   -0.4143105     0.0000290    0.0001117    -0.0001113    0.0003278     0.0717902   -0.2421425 
   0.058364582     0.1302792   -0.4139844    -0.0000633    0.0007580     0.0000978    0.0002703     0.0725046   -0.2420325 
   0.058464607     0.1321894   -0.4137352    -0.0008725    0.0010353     0.0000336    0.0001844     0.0720789   -0.2424621 
   0.058564632     0.1289361   -0.4144423    -0.0001230    0.0005812     0.0001346    0.0004083     0.0718588   -0.2417312 
   0.058664657     0.1295967   -0.4162309     0.0000487   -0.0000085    -0.0000288    0.0004782     0.0717839   -0.2410747 
   0.058764682     0.1300383   -0.4128346     0.0006186    0.0001115    -0.0002912    0.0005019     0.0714372   -0.2408537 
   0.058864707     0.1273672   -0.4128761    -0.0003529    0.0003411    -0.0000941    0.0005964     0.0712099   -0.2415440 
   0.058964732     0.1226602   -0.4125063    -0.0004166   -0.0002489    -0.0000167    0.0001535     0.0705125   -0.2409926 
   0.059064757     0.1273052   -0.4114014    -0.0005292    0.0008642     0.0000754    0.0004161     0.0713732   -0.2406463 
   0.059164782     0.1292190   -0.4106706     0.0002149    0.0001173    -0.0002040    0.0001188     0.0703339   -0.2404047 
   0.059264807     0.1267033   -0.4062674    -0.0004871    0.0002386    -0.0001499    0.0003813     0.0703853   -0.2398196 
   0.059364832     0.1207522   -0.4107389     0.0001103    0.0010110     0.0000052    0.0003024     0.0708044   -0.2406508 
   0.059464857     0.1290500   -0.4098246    -0.0002021    0.0000020    -0.0000016    0.0006204     0.0695420   -0.2391373 
   0.059564882     0.1254191   -0.4072628    -0.0000907   -0.0000409     0.0001493    0.0003621     0.0707581   -0.2401384 
   0.059664907     0.1224721   -0.4109304     0.0001463    0.0004237     0.0001420    0.0003882     0.0690503   -0.2390392 
   0.059764932     0.1212808   -0.4089664    -0.0000094    0.0010408    -0.0000951    0.0003050     0.0699782   -0.2386578 
   0.059864957     0.1221989   -0.4048766    -0.0000468    0.0004445    -0.0000345    0.0003007     0.0698023   -0.2378418 
   0.059964982     0.1199678   -0.4101283     0.0002782    0.0007942    -0.0000698    0.0002774     0.0696987   -0.2384313 
   0.060065008     0.1203010   -0.4050093     0.0000563    0.0006210     0.0000601    0.0006487     0.0684178   -0.2380103 
   0.060165033     0.1168288   -0.4120645    -0.0002217    0.0008266     0.0000871    0.0002982     0.0690649   -0.2376957 
   0.060265058     0.1207094   -0.4062917     0.0004466    0.0005269     0.0000572    0.0002897     0.0676571   -0.2366504 
   0.060365083     0.1216346   -0.4030471    -0.0000036    0.0008208    -0.0000179    0.0002388     0.0692102   -0.2371875 
   0.060465108     0.1180951   -0.4088098    -0.0004280    0.0001993     0.0000959    0.0003651     0.0688056   -0.2368860 
   0.060565133     0.1164861   -0.4023826    -0.0003884    0.0002326    -0.0000731    0.0001636     0.0682488   -0.2369489 
   0.060665158     0.1166225   -0.4045355    -0.0007461    0.0008289    -0.0002802    0.0001653     0.0688702   -0.2366319 
   0.060765183     0.1167561   -0.4011412     0.0006459    0.0000022    -0.0000364    0.0005473     0.0678477   -0.2366128 
   0.060865208     0.1159742   -0.4052806    -0.0003788    0.0008196     0.0000097    0.0003323     0.0679520   -0.2357501 
   0.060965233     0.1179372   -0.4063810    -0.0000175    0.0004217     0.0000405    0.0004687     0.0669790   -0.2361685 
   0.061065258     0.1142496   -0.3987803     0.0000922    0.0010684    -0.0001544    0.0003119     0.0684155   -0.2354441 
   0.061165283     0.1149542   -0.4011887     0.0007433   -0.0002523     0.0000807    0.0002111     0.0671829   -0.2348056 
   0.061265308     0.1070885   -0.3976986    -0.0006298    0.0008234    -0.0001287    0.0004590     0.0670870   -0.2354400 
   0.061365333     0.1169163   -0.3976241     0.0002242    0.0008202     0.0001521    0.0002830     0.0665854   -0.2345256 
   0.061465358     0.1126497   -0.3979724    -0.0006168    0.0009099    -0.0001812    0.0004869     0.0670281   -0.2343922 
   0.061565383     0.1138566   -0.3995287    -0.0001396    0.0005280    -0.0000354    0.0005209     0.0661424   -0.2342706 
   0.061665408     0.1161724   -0.3970088    -0.0001374    0.0005443    -0.0000767    0.0003665     0.0669209   -0.2348694 
   0.061765433     0.1146245   -0.3990590    -0.0000235   -0.0001666    -0.0000604    0.0005416     0.0657821   -0.2337327 
   0.061865458     0.1118729   -0.3954492     0.0005941   -0.0006145     0.0000382    0.0003454     0.0659654   -0.2335825 
   0.061965483     0.1138274   -0.3925286    -0.0003818   -0.0004719    -0.0000746    0.0005271     0.0672833   -0.2329620 
   0.062065508     0.1110780   -0.3935519    -0.0001889    0.0002910    -0.0001688    0.0003044     0.0662131   -0.2323299 
   0.062165533     0.1125139   -0.3960866    -0.0006536    0.0005998    -0.0000501    0.0002245     0.0653173   -0.2318062 
   0.062265558     0.1099151   -0.3950382     0.0003199   -0.0003370    -0.0000719    0.0003318     0.0655433   -0.2325887 
   0.062365583     0.1092901   -0.3957398    -0.0006125    0.0007841    -0.0001130    0.0001662     0.0645365   -0.2322738 
   0.062465608     0.1108985   -0.3953303     0.0004171    0.0001391    -0.0001065    0.0003419     0.0648893   -0.2316814 
   0.062565633     0.1066393   -0.3952387     0.0003698    0.0007593    -0.0002278    0.0001084     0.0650763   -0.2319085 
   0.062665658     0.1013828   -0.3919162     0.0001426    0.0002853    -0.0000823    0.0002790     0.0647023   -0.2311039 
   0.062765683     0.1043473   -0.3935013    -0.0002461    0.0003088     0.0001820    0.0006187     0.0645920   -0.2313060 
   0.062865708     0.1049110   -0.3950528     0.0000395    0.0007218    -0.0000853    0.0001455     0.0642482   -0.2321933 
   0.062965733     0.1104193   -0.3941667     0.0002302    0.0006914     0.0000777    0.0003856     0.0647133   -0.2316483 
   0.063065758     0.1020326   -0.3938860     0.0002669    0.0003956    -0.0000174    0.0001526     0.0650561   -0.2305619 
   0.063165783     0.1062162   -0.3890493     0.0001210    0.0002390    -0.0001904    0.0002229     0.0645342   -0.2299141 
   0.063265808     0.1044777   -0.3906581    -0.0002400    0.0002449     0.0000146    0.0002735     0.0642629   -0.2301231 
   0.063365833     0.1066991   -0.3946066    -0.0005676    0.0006149    -0.0000180    0.0003071     0.0640956   -0.2296619 
   0.063465858     0.1071164   -0.3873245     0.0000615    0.0008167     0.0000355    0.0003453     0.0626299   -0.2299322 
   0.063565883     0.1020492   -0.3882494     0.0004064    0.0001107     0.0000659    0.0002923     0.0630837   -0.2295803 
   0.063665908     0.1040164   -0.3935127    -0.0000306    0.0006822    -0.0000029    0.0003625     0.0624941   -0.2293973 
   0.063765933     0.0988150   -0.3904293     0.0005421    0.0000647    -0.0000289    0.0001714     0.0634185   -0.2296836 
   0.063865958     0.0981232   -0.3921503    -0.0005478   -0.0001012    -0.0001416    0.0004212     0.0628424   -0.2288472 
   0.063965983     0.0976364   -0.3890011     0.0001147   -0.0004903     0.0000717    0.0004054     0.0626657   -0.2291393 
   0.064066008     0.0972877   -0.3870321     0.0000050   -0.0000120    -0.0001251    0.0001003     0.0619801   -0.2280417 
   0.064166033     0.0985334   -0.3875222     0.0007964   -0.0007481     0.0001172    0.0003398     0.0621870   -0.2291913 
   0.064266058     0.0964235   -0.3862917     0.0004287    0.0009280    -0.0000802   -0.0000398     0.0619826   -0.2284426 
   0.064366083     0.0972111   -0.3872106    -0.0011157    0.0005165    -0.0003166    0.0002534     0.0627179   -0.2280729 
   0.064466108     0.0947527   -0.3833311    -0.0004182    0.0002111     0.0000136    0.0005049     0.0622427   -0.2272367 
   0.064566133     0.0980205   -0.3861479     0.0011105    0.0001916    -0.0000771    0.0003584     0.0621648   -0.2254663 
   0.064666158     0.0983058   -0.3854024     0.0010556    0.0002223    -0.0001897    0.0001101     0.0614483   -0.2266143 
   0.064766183     0.0972277   -0.3817419    -0.0000787    0.0001083    -0.0000394    0.0002599     0.0617980   -0.2269166 
   0.064866208     0.0919828   -0.3838467    -0.0000618    0.0003681    -0.0001132    0.0003289     0.0613189   -0.2273082 
   0.064966233     0.0967640   -0.3860324    -0.0000465    0.0003402     0.0001184    0.0002782     0.0611784   -0.2260994 
   0.065066258     0.0960764   -0.3827318    -0.0001716    0.0001591    -0.0000210    0.0006182     0.0613204   -0.2270085 
   0.065166283     0.0939928   -0.3864254     0.0009205    0.0003588    -0.0000665    0.0003285     0.0605882   -0.2264263 
   0.065266308     0.0935751   -0.3830037     0.0000699    0.0001788    -0.0000339    0.0004418     0.0610445   -0.2260567 
   0.065366333     0.0952198   -0.3788859    -0.0001842    0.0004184    -0.0000686    0.0005513     0.0612521   -0.2257435 
   0.065466358     0.0938639   -0.3815038     0.0001571    0.0002710    -0.0003325    0.0002701     0.0608430   -0.2264415 
   0.065566383     0.0931507   -0.3831771    -0.0006992   -0.0001108     0.0000379    0.0005846     0.0598900   -0.2255601 
   0.065666408     0.0905858   -0.3825874     0.0001437    0.0003727     0.0001826    0.0001067     0.0597369   -0.2254434 
   0.065766433     0.0953234   -0.3784661    -0.0000183    0.0000270     0.0000788    0.0001967     0.0600498   -0.2243101 
   0.065866458     0.0920074   -0.3789660    -0.0004229    0.0004278     0.0002285    0.0004865     0.0596077   -0.2237011 
   0.065966483     0.0917938   -0.3791895    -0.0007083    0.0008225    -0.0000451    0.0003602     0.0600769   -0.2245065 
   0.066066508     0.0870825   -0.3794018     0.0007329    0.0009374    -0.0001177    0.0003486     0.0592830   -0.2237796 
   0.066166533     0.0936035   -0.3754337    -0.0005351    0.0000600     0.0000168    0.0001409     0.0588088   -0.2241318 
   0.066266558     0.0878813   -0.3816450     0.0006677   -0.0004115     0.0001344    0.0003674     0.0596718   -0.2240083 
   0.066366583     0.0874154   -0.3764594     0.0007599   -0.0002930    -0.0000291    0.0000757     0.0580293   -0.2230064 
   0.066466608     0.0899300   -0.3764259     0.0006110   -0.0002784     0.0001370    0.0004107     0.0583901   -0.2235891 
   0.066566633     0.0873749   -0.3751183     0.0001042    0.0007325    -0.0001234    0.0005357     0.0581011   -0.2226619 
   0.066666658     0.0868199   -0.3705827     0.0000748    0.0008924    -0.0001400    0.0004148     0.0589852   -0.2234323 
   0.066766683     0.0895709   -0.3752885     0.0000474    0.0006924     0.0000208    0.0003928     0.0585776   -0.2226532 
   0.066866708     0.0900544   -0.3773133    -0.0001220    0.0001874    -0.0001076    0.0004599     0.0577886   -0.2221241 
   0.066966733     0.0866941   -0.3733079    -0.0002682    0.0010446    -0.0000456    0.0004787     0.0587312   -0.2225419 
   0.067066758     0.0861659   -0.3742023     0.0000741    0.0000271     0.0000009    0.0006080     0.0578956   -0.2224607 
   0.067166783     0.0888583   -0.3716966    -0.0001421   -0.0000144    -0.0000825    0.0002678     0.0573315   -0.2211628 
   0.067266808     0.0870761   -0.3729630     0.0003314    0.0004071    -0.0001441    0.0003903     0.0571777   -0.2223187 
   0.067366833     0.0857464   -0.3707420    -0.0005514    0.0004427     0.0000957    0.0002993     0.0579070   -0.2207058 
   0.067466858     0.0858624   -0.3687543    -0.0003493    0.0000006     0.0002865    0.0002238     0.0570617   -0.2203781 
   0.067566883     0.0847462   -0.3720040     0.0002100    0.0004515    -0.0000247    0.0003570     0.0578628   -0.2212547 
   0.067666908     0.0843044   -0.3673376     0.0002084    0.0001575    -0.0003211    0.0004191     0.0574517   -0.2212875 
   0.067766933     0.0830542   -0.3694903    -0.0004143   -0.0002856     0.0001277    0.0001858     0.0567450   -0.2205677 
   0.067866958     0.0884780   -0.3716355     0.0001286    0.0001894     0.0001025    0.0001742     0.0579229   -0.2205075 
   0.067966983     0.0835206   -0.3702630    -0.0000722    0.0003450    -0.0001571    0.0005397     0.0565429   -0.2201132 
   0.068067009     0.0852556   -0.3700048     0.0007125    0.0000884    -0.0000583    0.0003938     0.0569853   -0.2192648 
   0.068167034     0.0795903   -0.3677523    -0.0003229    0.0001642     0.0000996    0.0001687     0.0563337   -0.2194985 
   0.068267059     0.0850093   -0.3673558    -0.0001288    0.0002905     0.0002134    0.0000248     0.0567746   -0.2191263 
   0.068367084     0.0792113   -0.3644159     0.0009466   -0.0000242    -0.0000324    0.0002517     0.0562842   -0.2189320 
   0.068467109     0.0785412   -0.3674990     0.0003448    0.0001751    -0.0000526    0.0006455     0.0568383   -0.2199319 
   0.068567134     0.0803335   -0.3684379     0.0004782    0.0007494     0.0001065    0.0004238     0.0561534   -0.2177763 
   0.068667159     0.0789081   -0.3698273     0.0000714    0.0003048     0.0000112    0.0006209     0.0562597   -0.2191503 
   0.068767184     0.0763250   -0.3679362    -0.0001642    0.0002491     0.0000703    0.0003142     0.0565804   -0.2193969 
   0.068867209     0.0757169   -0.3652312    -0.0006568    0.0011782    -0.0000713    0.0002564     0.0555363   -0.2180485 
   0.068967234     0.0837051   -0.3646729    -0.0000190    0.0006154    -0.0000039    0.0003839     0.0562667   -0.2180455 
   0.069067259     0.0803768   -0.3629493    -0.0001843    0.0005212    -0.0000131    0.0004452     0.0551376   -0.2183912 
   0.069167284     0.0765631   -0.3648559    -0.0002780    0.0005573     0.0001253    0.0004353     0.0552730   -0.2178944 
   0.069267309     0.0785081   -0.3602941    -0.0000025    0.0010392    -0.0002489    0.0002427     0.0551013   -0.2180714 
   0.069367334     0.0778450   -0.3632615     0.0003930   -0.0002087    -0.0001317    0.0002452     0.0543597   -0.2174896 
   0.069467359     0.0744225   -0.3600849    -0.0003430    0.0006141    -0.0000885    0.0002071     0.0549381   -0.2176440 
   0.069567384     0.0767402   -0.3664799     0.0002144    0.0002718     0.0002645    0.0002867     0.0542076   -0.2173715 
   0.069667409     0.0732883   -0.3611989     0.0000524   -0.0001288    -0.0002413    0.0004983     0.0546075   -0.2160884 
   0.069767434     0.0733091   -0.3596221     0.0002586    0.0003807     0.0000318    0.0003767     0.0544977   -0.2166275 
   0.069867459     0.0744982   -0.3594619     0.0003661    0.0003398     0.0000212    0.0003305     0.0533100   -0.2166639 
   0.069967484     0.0789730   -0.3624441     0.0001869    0.0003766    -0.0002067    0.0002603     0.0539747   -0.2172934 
   0.070067509     0.0716455   -0.3567928     0.0004801    0.0001563    -0.0000535    0.0005298     0.0540523   -0.2172653 
   0.070167534     0.0740668   -0.3613240     0.0004510    0.0004959     0.0000794    0.0003449     0.0539500   -0.2154408 
   0.070267559     0.0714137   -0.3583741    -0.0005873    0.0006153     0.0000060    0.0003388     0.0545509   -0.2153859 
   0.070367584     0.0709705   -0.3534575     0.0006903    0.0002098     0.0001574    0.0003972     0.0535794   -0.2148389 
   0.070467609     0.0744467   -0.3585285     0.0001938   -0.0000940     0.0003952    0.0005163     0.0534848   -0.2157198 
   0.070567634     0.0756015   -0.3578764    -0.0002187    0.0008592    -0.0001210    0.0001555     0.0530953   -0.2150570 
   0.070667659     0.0738736   -0.3531464    -0.0002883    0.0002310    -0.0002817    0.0005235     0.0532578   -0.2144536 
   0.070767684     0.0710146   -0.3567924     0.0003074    0.0006752    -0.0000924    0.0002280     0.0525129   -0.2146482 
   0.070867709     0.0720302   -0.3584131    -0.0001872    0.0004770     0.0001393    0.0003023     0.0528791   -0.2144024 
   0.070967734     0.0715870   -0.3554778     0.0001248    0.0000453    -0.0001437    0.0003160     0.0521173   -0.2143531 
   0.071067759     0.0698649   -0.3561301     0.0003158    0.0007753     0.0000759    0.0004829     0.0528862   -0.2141113 
   0.071167784     0.0712188   -0.3557120    -0.0006716    0.0014544    -0.0000397    0.0005095     0.0534475   -0.2138278 
   0.071267809     0.0724234   -0.3573954     0.0001105    0.0005736    -0.0001014    0.0004131     0.0518351   -0.2136051 
   0.071367834     0.0671066   -0.3514359    -0.0000247    0.0002678     0.0003077    0.0004843     0.0520843   -0.2131618 
   0.071467859     0.0699227   -0.3552406     0.0000523    0.0003369     0.0000464    0.0004602     0.0521763   -0.2128284 
   0.071567884     0.0685258   -0.3510352     0.0002296    0.0002923     0.0000096    0.0003885     0.0517454   -0.2131444 
   0.071667909     0.0692896   -0.3542223     0.0004879    0.0001014    -0.0000713    0.0005021     0.0517972   -0.2127295 
   0.071767934     0.0676482   -0.3527018     0.0004281   -0.0002500    -0.0000293    0.0004119     0.0520441   -0.2131842 
   0.071867959     0.0670394   -0.3544440     0.0006185   -0.0000534    -0.0000286    0.0003356     0.0515165   -0.2131149 
   0.071967984     0.0670334   -0.3505764     0.0004861    0.0010190    -0.0000124    0.0003948     0.0515054   -0.2120775 
   0.072068009     0.0655467   -0.3515437    -0.0005727   -0.0000152     0.0002020    0.0004924     0.0516418   -0.2116102 
   0.072168034     0.0659085   -0.3521381     0.0000119    0.0007792     0.0001854    0.0001946     0.0511503   -0.2119077 
   0.072268059     0.0667425   -0.3497716     0.0004361    0.0011652     0.0004564    0.0002672     0.0505459   -0.2112894 
   0.072368084     0.0654743   -0.3510957    -0.0000570    0.0005089     0.0001427    0.0004015     0.0509959   -0.2118510 
   0.072468109     0.0663960   -0.3445553    -0.0008895    0.0000512    -0.0000878    0.0001030     0.0513432   -0.2120612 
   0.072568134     0.0658670   -0.3521963    -0.0002754    0.0006468     0.0000612    0.0002216     0.0515391   -0.2110510 
   0.072668159     0.0659059   -0.3457343    -0.0003833    0.0005675    -0.0000409    0.0004599     0.0509996   -0.2104411 
   0.072768184     0.0630458   -0.3480678    -0.0003940    0.0002639    -0.0001586    0.0004526     0.0502233   -0.2112653 
   0.072868209     0.0615450   -0.3464009    -0.0002465    0.0002406     0.0001068    0.0001210     0.0502859   -0.2108581 
   0.072968234     0.0638623   -0.3493628     0.0005226    0.0002091     0.0003560    0.0005131     0.0503116   -0.2104949 
   0.073068259     0.0632785   -0.3455126    -0.0001223    0.0007583     0.0001703    0.0003671     0.0506499   -0.2113866 
   0.073168284     0.0645023   -0.3444939    -0.0000289   -0.0002802    -0.0000067    0.0004500     0.0507832   -0.2101253 
   0.073268309     0.0646990   -0.3456555    -0.0010275    0.0001890     0.0000821    0.0005463     0.0503564   -0.2096913 
   0.073368334     0.0620574   -0.3446687    -0.0005001    0.0007718     0.0000781    0.0002933     0.0498541   -0.2103866 
   0.073468359     0.0667590   -0.3454853     0.0006691    0.0003825    -0.0000460    0.0002923     0.0506018   -0.2095027 
   0.073568384     0.0622756   -0.3447724    -0.0000958    0.0002402    -0.0000627    0.0005270     0.0489118   -0.2098238 
   0.073668409     0.0605747   -0.3414085     0.0001267    0.0002027     0.0000271    0.0004617     0.0493610   -0.2098836 
   0.073768434     0.0570281   -0.3457098    -0.0002673    0.0005778     0.0002120    0.0002735     0.0497511   -0.2095121 
   0.073868459     0.0621092   -0.3443770     0.0001868    0.0002880     0.0000127    0.0004287     0.0482748   -0.2091114 
   0.073968484     0.0588461   -0.3443069     0.0002029    0.0002366     0.0000147    0.0002533     0.0491654   -0.2088548 
   0.074068509     0.0585454   -0.3437736    -0.0003630    0.0003888     0.0000302    0.0003617     0.0487120   -0.2089707 
   0.074168534     0.0586461   -0.3420125    -0.0000889   -0.0000278    -0.0000546    0.0003863     0.0487680   -0.2093904 
   0.074268559     0.0581917   -0.3421633    -0.0006680    0.0003174     0.0000153    0.0003923     0.0482938   -0.2086860 
   0.074368584     0.0581459   -0.3409606     0.0003449    0.0004328     0.0000018    0.0002932     0.0500712   -0.2087279 
   0.074468609     0.0600346   -0.3402920    -0.0000168    0.0004533     0.0003234    0.0002555     0.0489480   -0.2075420 
   0.074568634     0.0599595   -0.3405221     0.0000607   -0.0000241    -0.0001004    0.0002312     0.0488818   -0.2076167 
   0.074668659     0.0555701   -0.3403179    -0.0004420    0.0002920    -0.0001014    0.0005186     0.0480659   -0.2085279 
   0.074768684     0.0616352   -0.3370374    -0.0001360   -0.0000345     0.0000457    0.0003888     0.0474113   -0.2086975 
   0.074868709     0.0555206   -0.3381708     0.0004060    0.0014861     0.0001962    0.0004382     0.0478782   -0.2081310 
   0.074968734     0.0582229   -0.3356535     0.0002243    0.0003468     0.0002027    0.0004516     0.0474504   -0.2081212 
   0.075068759     0.0561108   -0.3370790    -0.0000426   -0.0000625     0.0000637    0.0004335     0.0471624   -0.2070667 
   0.075168784     0.0570450   -0.3395922    -0.0002181    0.0008916    -0.0001234    0.0005177     0.0481739   -0.2071003 
   0.075268809     0.0562434   -0.3393971    -0.0003544    0.0004737     0.0000625    0.0005487     0.0468769   -0.2063925 
   0.075368834     0.0582007   -0.3362849    -0.0005168    0.0003217     0.0000833    0.0002861     0.0476831   -0.2072726 
   0.075468859     0.0542844   -0.3371734    -0.0002482    0.0006944     0.0000306    0.0003376     0.0476596   -0.2069879 
   0.075568884     0.0565634   -0.3333725     0.0000108    0.0000772    -0.0000858    0.0002468     0.0476689   -0.2065875 
   0.075668909     0.0533341   -0.3351502     0.0005499    0.0005153     0.0000965    0.0002601     0.0461929   -0.2063197 
   0.075768934     0.0551652   -0.3359397     0.0002195    0.0002538     0.0000385    0.0001069     0.0466197   -0.2067656 
   0.075868959     0.0529641   -0.3322369     0.0006174    0.0006144     0.0001224    0.0004851     0.0468537   -0.2066837 
   0.075968984     0.0550304   -0.3366371    -0.0002270   -0.0001244     0.0000352    0.0006623     0.0465372   -0.2065232 
   0.076069010     0.0562179   -0.3337093     0.0000724   -0.0000144     0.0000683    0.0006567     0.0467422   -0.2057246 
   0.076169035     0.0538576   -0.3350644    -0.0003330    0.0000425    -0.0000045    0.0006958     0.0459481   -0.2059497 
   0.076269060     0.0519701   -0.3358843     0.0000737    0.0001670    -0.0001218    0.0005225     0.0454423   -0.2052893 
   0.076369085     0.0540087   -0.3298252     0.0002225    0.0005184    -0.0000459    0.0002797     0.0463023   -0.2062751 
   0.076469110     0.0504565   -0.3307633    -0.0006843    0.0007924     0.0002691    0.0004492     0.0458275   -0.2059128 
   0.076569135     0.0521749   -0.3318215     0.0002284    0.0002277     0.0000076    0.0005594     0.0454395   -0.2049576 
   0.076669160     0.0525780   -0.3262636    -0.0002082    0.0004763    -0.0000428    0.0005720     0.0451933   -0.2053411 
   0.076769185     0.0508514   -0.3285650     0.0007906    0.0005122     0.0000961    0.0002325     0.0460038   -0.2052518 
   0.076869210     0.0525481   -0.3324643     0.0003663    0.0003584    -0.0000130    0.0003764     0.0464155   -0.2043097 
   0.076969235     0.0513978   -0.3289848    -0.0000170    0.0007299    -0.0000435    0.0003619     0.0463265   -0.2040413 
   0.077069260     0.0504550   -0.3289619     0.0004958    0.0008298     0.0002061    0.0004616     0.0447742   -0.2049168 
   0.077169285     0.0511237   -0.3307803     0.0001786    0.0010630     0.0001748    0.0003780     0.0453073   -0.2046919 
   0.077269310     0.0506402   -0.3269373    -0.0002140   -0.0001810    -0.0000566    0.0000907     0.0448747   -0.2041537 
   0.077369335     0.0511166   -0.3288247     0.0001107    0.0007504     0.0003511    0.0006679     0.0446492   -0.2045056 
   0.077469360     0.0492212   -0.3282210     0.0003998    0.0003670    -0.0001409    0.0004996     0.0451638   -0.2036944 
   0.077569385     0.0461709   -0.3266872     0.0000294   -0.0000176     0.0001856    0.0003396     0.0460029   -0.2041642 
   0.077669410     0.0488956   -0.3260513    -0.0002029    0.0002084     0.0000354    0.0004424     0.0451720   -0.2046079 
   0.077769435     0.0485580   -0.3271345     0.0000504    0.0009075    -0.0001706    0.0003474     0.0452202   -0.2035204 
   0.077869460     0.0473948   -0.3279825    -0.0001976    0.0000925     0.0002905    0.0002299     0.0437431   -0.2032728 
   0.077969485     0.0486331   -0.3267188     0.0000755    0.0005588    -0.0002025    0.0003411     0.0440965   -0.2032671 
   0.078069510     0.0460142   -0.3255132    -0.0000183    0.0003602     0.0000978    0.0005334     0.0433776   -0.2031323 
   0.078169535     0.0481133   -0.3255724     0.0000751    0.0003819     0.0000355    0.0006024     0.0441643   -0.2025271 
   0.078269560     0.0452459   -0.3272509     0.0004632    0.0008933     0.0001084    0.0005136     0.0441410   -0.2032214 
   0.078369585     0.0470397   -0.3228384    -0.0003911    0.0005706    -0.0000643    0.0003048     0.0434502   -0.2028788 
   0.078469610     0.0470082   -0.3220306     0.0001531    0.0002965     0.0001153    0.0005659     0.0432331   -0.2027382 
   0.078569635     0.0503634   -0.3233915     0.0006611    0.0005782     0.0000737    0.0003638     0.0441057   -0.2017957 
   0.078669660     0.0470100   -0.3220724     0.0000414    0.0006596     0.0001088    0.0002705     0.0437702   -0.2022549 
   0.078769685     0.0473833   -0.3253378    -0.0001048   -0.0000156    -0.0000405    0.0002149     0.0443357   -0.2012309 
   0.078869710     0.0430668   -0.3231325    -0.0002974   -0.0000283    -0.0001257    0.0004782     0.0430997   -0.2016853 
   0.078969735     0.0484622   -0.3225479     0.0003419    0.0000286     0.0000482    0.0004203     0.0432533   -0.2013924 
   0.079069760     0.0412121   -0.3230472     0.0002042    0.0010504    -0.0000855    0.0002685     0.0432362   -0.2015556 
   0.079169785     0.0458244   -0.3201667     0.0001900    0.0005018     0.0001520    0.0004885     0.0428274   -0.2015595 
   0.079269810     0.0452626   -0.3196944    -0.0004612   -0.0000287     0.0000651    0.0004112     0.0430242   -0.2017008 
   0.079369835     0.0461865   -0.3183457     0.0003369   -0.0000054     0.0000790    0.0003283     0.0427878   -0.2007498 
   0.079469860     0.0434295   -0.3217738    -0.0001145    0.0002816     0.0000151    0.0005763     0.0434073   -0.2005024 
   0.079569885     0.0417308   -0.3192738     0.0001604    0.0004308     0.0000189    0.0002056     0.0427226   -0.1999724 
   0.079669910     0.0431170   -0.3190955     0.0000719    0.0007765    -0.0001337    0.0003728     0.0429795   -0.2007448 
   0.079769935     0.0428185   -0.3177582    -0.0000438    0.0004967    -0.0000086    0.0004193     0.0429191   -0.2003188 
   0.079869960     0.0431177   -0.3178495    -0.0000840    0.0006347     0.0000616    0.0005317     0.0419113   -0.2011942 
   0.079969985     0.0434750   -0.3207301     0.0001233    0.0009739     0.0001294    0.0004067     0.0430593   -0.2004436 
   0.080070010     0.0436001   -0.3162608     0.0004591    0.0004225     0.0000750    0.0003906     0.0422426   -0.2001600 
   0.080170035     0.0444939   -0.3189965     0.0003071    0.0004172    -0.0000616    0.0004897     0.0417331   -0.1996658 
   0.080270060     0.0427018   -0.3153090     0.0000761    0.0011808     0.0001988    0.0005748     0.0408841   -0.1991622 
   0.080370085     0.0403460   -0.3145549     0.0004508    0.0005623    -0.0001085    0.0003896     0.0413557   -0.2000432 
   0.080470110     0.0440686   -0.3146287    -0.0001546    0.0003401     0.0000998    0.0004406     0.0420991   -0.1993390 
   0.080570135     0.0429715   -0.3179102    -0.0000734   -0.0000651    -0.0001843    0.0004546     0.0415943   -0.1990165 
   0.080670160     0.0403671   -0.3169000     0.0001977    0.0004964     0.0001952    0.0005094     0.0421600   -0.1998988 
   0.080770185     0.0432198   -0.3155760     0.0005849    0.0002889     0.0000411    0.0005290     0.0414464   -0.1994891 
   0.080870210     0.0371033   -0.3148590    -0.0005392    0.0005144     0.0001518    0.0002155     0.0412078   -0.1992055 
   0.080970235     0.0393528   -0.3128423    -0.0003735    0.0004577     0.0000589    0.0003929     0.0412141   -0.1987127 
   0.081070260     0.0405167   -0.3143873    -0.0002227    0.0004738     0.0001558    0.0003652     0.0410283   -0.1994959 
   0.081170285     0.0384650   -0.3130237     0.0006326    0.0005330     0.0000375    0.0005171     0.0403196   -0.1989339 
   0.081270310     0.0377320   -0.3128532     0.0000619    0.0002880     0.0001285    0.0004027     0.0412495   -0.1983217 
   0.081370335     0.0402541   -0.3112384     0.0000803    0.0004405     0.0001728    0.0003940     0.0407483   -0.1977854 
   0.081470360     0.0362326   -0.3111278     0.0007290    0.0008252     0.0003483    0.0004655     0.0408909   -0.1987118 
   0.081570385     0.0395897   -0.3136927     0.0001393    0.0001609    -0.0002162    0.0001339     0.0409256   -0.1984541 
   0.081670410     0.0398237   -0.3126183    -0.0003047   -0.0003232     0.0003027    0.0006676     0.0404302   -0.1979318 
   0.081770435     0.0371143   -0.3093124     0.0003128    0.0006619    -0.0000707    0.0003996     0.0400135   -0.1978035 
   0.081870460     0.0389600   -0.3112490    -0.0002512    0.0003959    -0.0000394    0.0003719     0.0396747   -0.1979283 
   0.081970485     0.0389934   -0.3111764    -0.0002607    0.0006871     0.0002760    0.0003387     0.0399511   -0.1970190 
   0.082070510     0.0377770   -0.3104268    -0.0001153    0.0008905    -0.0000076    0.0004439     0.0401055   -0.1974396 
   0.082170535     0.0346204   -0.3099802    -0.0000045    0.0001520    -0.0000807    0.0003497     0.0394320   -0.1972635 
   0.082270560     0.0378825   -0.3094628     0.0000968    0.0001835    -0.0000869    0.0002579     0.0403546   -0.1973184 
   0.082370585     0.0361182   -0.3079393     0.0001277    0.0001843    -0.0001527    0.0007010     0.0393921   -0.1975679 
   0.082470610     0.0348750   -0.3070909     0.0001289    0.0005755     0.0000481    0.0004996     0.0395535   -0.1976445 
   0.082570635     0.0344685   -0.3069301     0.0000670    0.0002986     0.0001291    0.0003816     0.0398400   -0.1968290 
   0.082670660     0.0357461   -0.3047349     0.0002350    0.0004231     0.0000304    0.0004950     0.0396450   -0.1966591 
   0.082770685     0.0362557   -0.3076096     0.0004606    0.0003891     0.0000332    0.0003663     0.0393219   -0.1960607 
   0.082870710     0.0349206   -0.3069980     0.0004333    0.0006607     0.0000569    0.0004627     0.0392065   -0.1963693 
   0.082970735     0.0345194   -0.3079259     0.0005244    0.0001326     0.0001182    0.0006559     0.0397568   -0.1968330 
   0.083070760     0.0352183   -0.3046972     0.0004814    0.0003497     0.0002572    0.0004861     0.0390149   -0.1963386 
   0.083170785     0.0334368   -0.3082438     0.0004935    0.0002752     0.0000866    0.0004552     0.0391418   -0.1958644 
   0.083270810     0.0352013   -0.3053994     0.0001846    0.0006707    -0.0000285    0.0004827     0.0384763   -0.1951011 
   0.083370835     0.0329701   -0.3038410    -0.0002347    0.0004754     0.0000619    0.0002103     0.0394165   -0.1956942 
   0.083470860     0.0352624   -0.3036023     0.0000735    0.0004701    -0.0000033    0.0006221     0.0388087   -0.1953013 
   0.083570885     0.0342286   -0.3013622     0.0001898    0.0004539     0.0001582    0.0006174     0.0382485   -0.1946882 
   0.083670910     0.0375236   -0.3029714     0.0000293    0.0003373    -0.0001015    0.0003209     0.0383704   -0.1960305 
   0.083770935     0.0309736   -0.3021736    -0.0001954    0.0003452     0.0002098    0.0005765     0.0388873   -0.1955577 
   0.083870960     0.0305452   -0.3032655     0.0003631    0.0003316    -0.0000191    0.0004189     0.0379649   -0.1950942 
   0.083970985     0.0305645   -0.3015598    -0.0000410    0.0000077     0.0001710    0.0006910     0.0385770   -0.1951017 
   0.084071011     0.0332479   -0.3025646    -0.0000748    0.0002250     0.0001807    0.0003381     0.0375404   -0.1954907 
   0.084171036     0.0343384   -0.3020899     0.0001442    0.0003528    -0.0000671    0.0006160     0.0379973   -0.1942936 
   0.084271061     0.0325570   -0.3001426     0.0003985    0.0002361     0.0002127    0.0003808     0.0373386   -0.1946969 
   0.084371086     0.0309003   -0.3023559    -0.0003685    0.0002835     0.0002084    0.0005739     0.0372387   -0.1948289 
   0.084471111     0.0304131   -0.2993072     0.0002742   -0.0000194     0.0002004    0.0004937     0.0379247   -0.1941938 
   0.084571136     0.0314030   -0.3028419     0.0004068    0.0003590     0.0001308    0.0005713     0.0383063   -0.1938822 
   0.084671161     0.0312375   -0.3004052     0.0001367    0.0005330    -0.0000650    0.0007259     0.0375934   -0.1945775 
   0.084771186     0.0312634   -0.2974831     0.0004658    0.0003112     0.0002491    0.0004584     0.0367044   -0.1938478 
   0.084871211     0.0294395   -0.3000118    -0.0000179    0.0009188     0.0003083    0.0003422     0.0375067   -0.1937178 
   0.084971236     0.0301522   -0.2964373     0.0001921   -0.0001272     0.0001111    0.0005677     0.0376680   -0.1938765 
   0.085071261     0.0321322   -0.2988901     0.0002228    0.0004997     0.0001421    0.0004671     0.0366811   -0.1942612 
   0.085171286     0.0304026   -0.2962601     0.0002749    0.0001746     0.0001946    0.0004701     0.0358713   -0.1938080 
   0.085271311     0.0317858   -0.2971670     0.0000513    0.0001029     0.0000941    0.0003971     0.0373181   -0.1932760 
   0.085371336     0.0291416   -0.2983492     0.0000183    0.0007294     0.0000932    0.0005084     0.0370375   -0.1933114 
   0.085471361     0.0301972   -0.2986000     0.0001566    0.0004240     0.0001763    0.0002795     0.0359363   -0.1943637 
   0.085571386     0.0273249   -0.2967163     0.0000857    0.0009526     0.0000592    0.0005626     0.0366609   -0.1928674 
   0.085671411     0.0261044   -0.2938666     0.0000553    0.0002441     0.0002524    0.0006752     0.0361734   -0.1935321 
   0.085771436     0.0290693   -0.3001774     0.0002533    0.0008651    -0.0001147    0.0005544     0.0366803   -0.1935232 
   0.085871461     0.0279108   -0.2974140     0.0000455    0.0007842     0.0002064    0.0004538     0.0359492   -0.1928304 
   0.085971486     0.0270328   -0.2947195     0.0000603    0.0006649    -0.0001521    0.0005782     0.0358161   -0.1931253 
   0.086071511     0.0258319   -0.2950733    -0.0001521    0.0000218     0.0000328    0.0003398     0.0359123   -0.1925735 
   0.086171536     0.0282434   -0.2955075     0.0004463    0.0004401     0.0001477    0.0003663     0.0355892   -0.1929175 
   0.086271561     0.0272386   -0.2945364     0.0007081    0.0005341     0.0002524    0.0002717     0.0356406   -0.1922685 
   0.086371586     0.0260408   -0.2935294     0.0000182    0.0005557     0.0000634    0.0003451     0.0366336   -0.1931087 
   0.086471611     0.0256499   -0.2945853    -0.0001823    0.0007428     0.0001639    0.0004374     0.0357804   -0.1922312 
   0.086571636     0.0295287   -0.2926820    -0.0004232    0.0001008     0.0003132    0.0000851     0.0356878   -0.1925196 
   0.086671661     0.0254586   -0.2908971     0.0000251   -0.0000547     0.0001143    0.0005869     0.0349363   -0.1916340 
   0.086771686     0.0266157   -0.2943875    -0.0001382    0.0005466     0.0002484    0.0002783     0.0347819   -0.1919225 
   0.086871711     0.0272776   -0.2919119    -0.0000545    0.0001311     0.0000771    0.0003819     0.0350114   -0.1919321 
   0.086971736     0.0231406   -0.2901131     0.0000647    0.0005925     0.0002146    0.0004566     0.0352808   -0.1914671 
   0.087071761     0.0253703   -0.2906572     0.0002735    0.0004079     0.0003756    0.0004586     0.0347934   -0.1917638 
   0.087171786     0.0254910   -0.2923231     0.0006397    0.0005564     0.0002019    0.0003836     0.0346629   -0.1917526 
   0.087271811     0.0253742   -0.2928137    -0.0000395    0.0008627    -0.0000409    0.0003890     0.0349897   -0.1914038 
   0.087371836     0.0260878   -0.2892502     0.0001171    0.0005281    -0.0000349    0.0005984     0.0345108   -0.1913123 
   0.087471861     0.0249286   -0.2932178    -0.0001391    0.0001376     0.0000965    0.0003887     0.0342691   -0.1916030 
   0.087571886     0.0218142   -0.2910584     0.0000598    0.0001295     0.0001217    0.0004022     0.0342314   -0.1913212 
   0.087671911     0.0292157   -0.2895089     0.0000409    0.0003073     0.0001156    0.0004839     0.0344404   -0.1908939 
   0.087771936     0.0221815   -0.2878999    -0.0000238    0.0006622     0.0000640    0.0004441     0.0341443   -0.1902116 
   0.087871961     0.0253503   -0.2880841     0.0002088    0.0007627     0.0001350    0.0003922     0.0343640   -0.1914144 
   0.087971986     0.0249329   -0.2867539    -0.0000701    0.0004693     0.0001291    0.0005533     0.0348684   -0.1905183 
   0.088072011     0.0244256   -0.2868766     0.0002308    0.0007742     0.0000244    0.0006140     0.0334182   -0.1906773 
   0.088172036     0.0249842   -0.2874119     0.0003020    0.0005127    -0.0001080    0.0004936     0.0334745   -0.1899271 
   0.088272061     0.0238895   -0.2860518    -0.0001848    0.0003774     0.0002648    0.0003113     0.0343153   -0.1905323 
   0.088372086     0.0239594   -0.2859247     0.0001868    0.0004486     0.0002088    0.0005694     0.0332944   -0.1898667 
   0.088472111     0.0239348   -0.2865579     0.0004749    0.0002342     0.0001814    0.0005607     0.0334832   -0.1903442 
   0.088572136     0.0223355   -0.2873058     0.0002844    0.0006683     0.0002746    0.0006353     0.0330594   -0.1895525 
   0.088672161     0.0219910   -0.2861488    -0.0000783    0.0001259     0.0002112    0.0005905     0.0334124   -0.1898633 
   0.088772186     0.0227993   -0.2857839     0.0002993    0.0007704     0.0000152    0.0004262     0.0334198   -0.1900013 
   0.088872211     0.0211172   -0.2838601     0.0005528    0.0004738     0.0003430    0.0005525     0.0328849   -0.1893762 
   0.088972236     0.0216408   -0.2858446     0.0000335    0.0005602     0.0000424    0.0005804     0.0342009   -0.1890079 
   0.089072261     0.0228079   -0.2842799     0.0000953    0.0002842     0.0002297    0.0006001     0.0327025   -0.1900168 
   0.089172286     0.0218750   -0.2870182     0.0006527    0.0004766     0.0001346    0.0004929     0.0333177   -0.1897336 
   0.089272311     0.0217627   -0.2829968     0.0002512    0.0006872     0.0003498    0.0005598     0.0324761   -0.1895353 
   0.089372336     0.0202999   -0.2834700    -0.0004833    0.0004924     0.0001248    0.0002882     0.0329334   -0.1894743 
   0.089472361     0.0208777   -0.2819402     0.0000427    0.0004744     0.0001112    0.0007207     0.0329978   -0.1890777 
   0.089572386     0.0225769   -0.2841193    -0.0001413    0.0005120     0.0001743    0.0004253     0.0322784   -0.1892027 
   0.089672411     0.0205641   -0.2821271    -0.0000202    0.0004587     0.0001364    0.0006394     0.0321571   -0.1885340 
   0.089772436     0.0200383   -0.2791753     0.0002163    0.0008206     0.0001641    0.0004777     0.0328043   -0.1888897 
   0.089872461     0.0209896   -0.2840411     0.0003412    0.0007299     0.0000990    0.0006354     0.0329897   -0.1883708 
   0.089972486     0.0183356   -0.2805173     0.0008100    0.0008112     0.0002183    0.0005139     0.0324034   -0.1887213 
   0.090072511     0.0202291   -0.2829907    -0.0007458    0.0004271     0.0001498    0.0006372     0.0322786   -0.1888843 
   0.090172536     0.0186149   -0.2818102    -0.0002683    0.0005874    -0.0001007    0.0006134     0.0320827   -0.1882655 
   0.090272561     0.0194449   -0.2822180    -0.0001427    0.0005202    -0.0000160    0.0004956     0.0318001   -0.1879693 
   0.090372586     0.0200122   -0.2812648     0.0003621    0.0005939     0.0002509    0.0005117     0.0320516   -0.1876132 
   0.090472611     0.0190127   -0.2792855     0.0003517    0.0006444     0.0002449    0.0003360     0.0325241   -0.1883625 
   0.090572636     0.0199156   -0.2795165     0.0001345    0.0008146     0.0000545    0.0004477     0.0317389   -0.1877727 
   0.090672661     0.0182584   -0.2795647     0.0002270    0.0000411     0.0003198    0.0006371     0.0316271   -0.1878674 
   0.090772686     0.0166994   -0.2777619     0.0005456    0.0005161     0.0001589    0.0006344     0.0314933   -0.1862590 
   0.090872711     0.0181191   -0.2786728    -0.0000313    0.0003689     0.0001431    0.0001821     0.0316190   -0.1877365 
   0.090972736     0.0172609   -0.2769671     0.0002068    0.0004748    -0.0000914    0.0003678     0.0300637   -0.1874667 
   0.091072761     0.0162559   -0.2793802    -0.0002257    0.0001298     0.0001461    0.0005131     0.0310649   -0.1873155 
   0.091172786     0.0168641   -0.2765074     0.0002427    0.0001127    -0.0000111    0.0004814     0.0307869   -0.1874429 
   0.091272811     0.0187897   -0.2772809     0.0001012    0.0006187     0.0003696    0.0004843     0.0310278   -0.1879814 
   0.091372836     0.0180365   -0.2758121     0.0000219    0.0006455     0.0000977    0.0004561     0.0310795   -0.1867519 
   0.091472861     0.0184200   -0.2775664     0.0001614    0.0004700     0.0001906    0.0005655     0.0308675   -0.1871469 
   0.091572886     0.0166100   -0.2760805     0.0000538    0.0004464     0.0001277    0.0004580     0.0310555   -0.1861577 
   0.091672911     0.0183783   -0.2739757     0.0003634    0.0007882     0.0003299    0.0005069     0.0299892   -0.1868203 
   0.091772936     0.0167211   -0.2771286    -0.0002275    0.0002643     0.0002046    0.0005609     0.0303302   -0.1866239 
   0.091872961     0.0167172   -0.2768205     0.0001650    0.0004891     0.0001218    0.0007142     0.0298228   -0.1860801 
   0.091972986     0.0182636   -0.2751873     0.0002605    0.0005157     0.0003471    0.0004539     0.0299889   -0.1869182 
   0.092073012     0.0152125   -0.2736418     0.0003718    0.0002056     0.0002145    0.0004621     0.0296690   -0.1864329 
   0.092173037     0.0157813   -0.2740375     0.0002566    0.0004502     0.0000944    0.0004797     0.0297599   -0.1864640 
   0.092273062     0.0148094   -0.2743140     0.0000979    0.0004864    -0.0000033    0.0002499     0.0295288   -0.1861735 
   0.092373087     0.0181123   -0.2739390    -0.0001129    0.0006191    -0.0000092    0.0005454     0.0291441   -0.1859559 
   0.092473112     0.0154440   -0.2726114     0.0001817    0.0004688     0.0000933    0.0004143     0.0298726   -0.1860868 
   0.092573137     0.0160070   -0.2730738     0.0001730    0.0008386     0.0002729    0.0005213     0.0297531   -0.1866820 
   0.092673162     0.0145094   -0.2725860     0.0001708    0.0004580     0.0001598    0.0004354     0.0289081   -0.1861448 
   0.092773187     0.0161835   -0.2719193     0.0003886    0.0005810     0.0000704    0.0004134     0.0293200   -0.1849346 
   0.092873212     0.0147089   -0.2733531    -0.0000242    0.0004575     0.0002147    0.0004754     0.0298725   -0.1853221 
   0.092973237     0.0149830   -0.2727726     0.0000859    0.0006033     0.0001965    0.0006346     0.0289398   -0.1847780 
   0.093073262     0.0146091   -0.2720242     0.0002954    0.0001834     0.0002178    0.0005348     0.0295822   -0.1848716 
   0.093173287     0.0149830   -0.2679494     0.0005788    0.0002816     0.0001474    0.0005976     0.0285095   -0.1848898 
   0.093273312     0.0168494   -0.2724643     0.0002085    0.0006020     0.0004521    0.0006425     0.0292646   -0.1849923 
   0.093373337     0.0144734   -0.2707036    -0.0002586    0.0004617     0.0001759    0.0003676     0.0286913   -0.1852306 
   0.093473362     0.0146872   -0.2703170     0.0002694    0.0008233     0.0001908    0.0004434     0.0296026   -0.1856878 
   0.093573387     0.0156709   -0.2698647     0.0002323    0.0003338     0.0002611    0.0005282     0.0283474   -0.1849446 
   0.093673412     0.0155747   -0.2680722     0.0000545    0.0002032     0.0003052    0.0008336     0.0281405   -0.1851605 
   0.093773437     0.0157583   -0.2682624     0.0003745    0.0004766     0.0003101    0.0004629     0.0279121   -0.1844897 
   0.093873462     0.0145787   -0.2692996    -0.0000802    0.0010490     0.0001389    0.0005075     0.0278059   -0.1848490 
   0.093973487     0.0133864   -0.2679183     0.0001249    0.0002168     0.0003583    0.0005498     0.0278224   -0.1842096 
   0.094073512     0.0125860   -0.2685741     0.0007690    0.0001609     0.0003272    0.0004671     0.0287031   -0.1842124 
   0.094173537     0.0113776   -0.2682388     0.0001181    0.0002507     0.0002227    0.0005027     0.0281978   -0.1843612 
   0.094273562     0.0127009   -0.2655055     0.0001447    0.0006050     0.0001039    0.0004537     0.0282351   -0.1840518 
   0.094373587     0.0134652   -0.2655237    -0.0001142    0.0004696     0.0001289    0.0005112     0.0286552   -0.1847902 
   0.094473612     0.0142374   -0.2673692    -0.0001315    0.0006757     0.0004184    0.0005768     0.0283134   -0.1844515 
   0.094573637     0.0121775   -0.2655013     0.0006039    0.0007663     0.0002099    0.0003905     0.0286157   -0.1846531 
   0.094673662     0.0128471   -0.2675199     0.0000597    0.0003393     0.0000961    0.0005091     0.0275575   -0.1848146 
   0.094773687     0.0124447   -0.2680602     0.0001667    0.0003808     0.0002922    0.0004790     0.0279061   -0.1833977 
   0.094873712     0.0121685   -0.2670389     0.0000426    0.0005159     0.0004447    0.0005424     0.0272847   -0.1829834 
   0.094973737     0.0111164   -0.2656925     0.0000231    0.0006904     0.0000762    0.0005814     0.0281506   -0.1838289 
   0.095073762     0.0130434   -0.2652678     0.0003929    0.0004134     0.0001989    0.0004936     0.0270818   -0.1837328 
   0.095173787     0.0122066   -0.2655971     0.0003339    0.0005289     0.0002065    0.0003304     0.0276994   -0.1837646 
   0.095273812     0.0122351   -0.2645634     0.0001590    0.0007607     0.0002977    0.0005660     0.0274700   -0.1833666 
   0.095373837     0.0105683   -0.2650732     0.0000028    0.0002970     0.0001660    0.0005605     0.0271632   -0.1836217 
   0.095473862     0.0119049   -0.2662699     0.0005212    0.0006507     0.0000306    0.0003951     0.0269207   -0.1836996 
   0.095573887     0.0089469   -0.2648124    -0.0001610    0.0004740     0.0003208    0.0007330     0.0272806   -0.1836613 
   0.095673912     0.0117809   -0.2641680     0.0004752    0.0007220     0.0001914    0.0004910     0.0268262   -0.1831906 
   0.095773937     0.0094234   -0.2618723     0.0003944    0.0002875     0.0001867    0.0006645     0.0265138   -0.1836494 
   0.095873962     0.0104113   -0.2626710     0.0002834    0.0007226     0.0000000    0.0004593     0.0273361   -0.1826065 
   0.095973987     0.0090191   -0.2614391     0.0002262    0.0005966     0.0000833    0.0003627     0.0260482   -0.1822606 
   0.096074012     0.0092801   -0.2612836     0.0003387    0.0002466     0.0001281    0.0004000     0.0264555   -0.1832770 
   0.096174037     0.0112713   -0.2611051     0.0000275    0.0004427     0.0002407    0.0004861     0.0261965   -0.1818641 
   0.096274062     0.0100763   -0.2622279     0.0001038    0.0003738     0.0001064    0.0006785     0.0262120   -0.1823954 
   0.096374087     0.0109925   -0.2616578    -0.0001463    0.0002844     0.0004365    0.0004522     0.0262496   -0.1827287 
   0.096474112     0.0102955   -0.2605465     0.0005293    0.0000299     0.0002605    0.0004415     0.0266018   -0.1817747 
   0.096574137     0.0092926   -0.2621507     0.0004110    0.0004354    -0.0000101    0.0006263     0.0259166   -0.1826560 
   0.096674162     0.0082338   -0.2599615     0.0002826    0.0004025     0.0002096    0.0004544     0.0257473   -0.1823636 
   0.096774187     0.0084043   -0.2589812    -0.0001664    0.0004291     0.0001801    0.0007590     0.0265044   -0.1827069 
   0.096874212     0.0095552   -0.2596339     0.0003266    0.0004606    -0.0000248    0.0003973     0.0255921   -0.1816925 
   0.096974237     0.0081467   -0.2597792    -0.0001151    0.0006622     0.0001122    0.0005217     0.0252459   -0.1824075 
   0.097074262     0.0088444   -0.2578542     0.0001716    0.0002408     0.0002970    0.0004703     0.0258162   -0.1815658 
   0.097174287     0.0090576   -0.2592556     0.0000825    0.0005258     0.0002337    0.0004789     0.0251769   -0.1814345 
   0.097274312     0.0100023   -0.2580706    -0.0000196    0.0003073    -0.0000094    0.0004834     0.0259637   -0.1814945 
   0.097374337     0.0071376   -0.2572512     0.0000655    0.0005410     0.0001326    0.0003955     0.0247636   -0.1820397 
   0.097474362     0.0080777   -0.2584299    -0.0001710    0.0010069     0.0002193    0.0003427     0.0256078   -0.1821006 
   0.097574387     0.0066526   -0.2569087     0.0002478    0.0004864     0.0003196    0.0004378     0.0251292   -0.1820019 
   0.097674412     0.0069483   -0.2573076    -0.0000280    0.0002331     0.0000811    0.0006181     0.0250559   -0.1812718 
   0.097774437     0.0092578   -0.2576817     0.0003302    0.0005789     0.0001726    0.0004956     0.0249662   -0.1809590 
   0.097874462     0.0093763   -0.2556343    -0.0000076    0.0004467     0.0000710    0.0005631     0.0251191   -0.1812939 
   0.097974487     0.0082576   -0.2572359     0.0000501    0.0006308     0.0002854    0.0003943     0.0243077   -0.1815922 
   0.098074512     0.0065275   -0.2547598     0.0001959    0.0006276     0.0001207    0.0003094     0.0250764   -0.1804676 
   0.098174537     0.0069330   -0.2547417     0.0002439    0.0004839     0.0002403    0.0004680     0.0238946   -0.1804741 
   0.098274562     0.0060375   -0.2543732     0.0000190    0.0006883     0.0002642    0.0005636     0.0242712   -0.1810383 
   0.098374587     0.0060563   -0.2538826     0.0001132    0.0002898     0.0002422    0.0005565     0.0244681   -0.1807965 
   0.098474612     0.0065726   -0.2554696     0.0002162    0.0005026     0.0000663    0.0004053     0.0247800   -0.1805967 
   0.098574637     0.0060586   -0.2551217     0.0003592    0.0002893     0.0003057    0.0004176     0.0241658   -0.1807214 
   0.098674662     0.0069886   -0.2548999     0.0000108    0.0008720     0.0002625    0.0004314     0.0247144   -0.1810111 
   0.098774687     0.0061271   -0.2536576     0.0000114    0.0006759     0.0002924    0.0004847     0.0239292   -0.1802487 
   0.098874712     0.0057009   -0.2540948    -0.0001835    0.0001833     0.0002476    0.0004939     0.0251542   -0.1805075 
   0.098974737     0.0071540   -0.2531995     0.0004562    0.0006059     0.0002231    0.0004948     0.0236265   -0.1803475 
   0.099074762     0.0071317   -0.2516304     0.0002464    0.0003156     0.0003119    0.0003149     0.0240354   -0.1801004 
   0.099174787     0.0059255   -0.2525029     0.0000466    0.0005168     0.0002256    0.0004384     0.0243687   -0.1797040 
   0.099274812     0.0055737   -0.2510172     0.0001852    0.0006163     0.0002191    0.0005802     0.0235080   -0.1801353 
   0.099374837     0.0055579   -0.2528406     0.0006539    0.0004193     0.0000571    0.0004604     0.0241466   -0.1806788 
   0.099474862     0.0053419   -0.2514347     0.0000937    0.0004184     0.0002614    0.0002547     0.0237451   -0.1799894 
   0.099574887     0.0063608   -0.2513752     0.0000700    0.0007262     0.0001897    0.0006151     0.0242201   -0.1793328 
   0.099674912     0.0057313   -0.2507170     0.0005152    0.0002615     0.0002525    0.0006719     0.0230679   -0.1798057 
   0.099774937     0.0053878   -0.2507643     0.0000772    0.0005447     0.0001711    0.0005783     0.0232732   -0.1800698 
   0.099874962     0.0056784   -0.2519122     0.0002779    0.0005038     0.0003200    0.0005263     0.0232718   -0.1801184 
   0.099974987     0.0050403   -0.2510790     0.0005056    0.0003978     0.0001829    0.0005360     0.0235824   -0.1798582 
   0.100075013     0.0040354   -0.2509338     0.0004185    0.0008964     0.0000428    0.0004910     0.0224546   -0.1799723 
   0.100175038     0.0056506   -0.2502320     0.0003248    0.0005438     0.0002201    0.0004396     0.0225356   -0.1791264 
   0.100275063     0.0029679   -0.2494280    -0.0000562    0.0006477     0.0002962    0.0005726     0.0228332   -0.1791373 
   0.100375088     0.0043995   -0.2487645     0.0000276    0.0003798     0.0003775    0.0005417     0.0219430   -0.1790795 
   0.100475113     0.0041564   -0.2498529     0.0003166    0.0004897     0.0002053    0.0004388     0.0223363   -0.1796420 
   0.100575138     0.0041891   -0.2492508     0.0004471    0.0005692     0.0002901    0.0003645     0.0229108   -0.1791939 
   0.100675163     0.0028709   -0.2482923     0.0000561    0.0003106     0.0002866    0.0002761     0.0227779   -0.1790616 
   0.100775188     0.0028056   -0.2483216     0.0000405    0.0003126     0.0005106    0.0006970     0.0224337   -0.1793882 
   0.100875213     0.0045103   -0.2476080     0.0002798    0.0006616     0.0001413    0.0004544     0.0219686   -0.1793353 
   0.100975238     0.0035552   -0.2479403     0.0004478    0.0003851     0.0002420    0.0005835     0.0214813   -0.1793004 
   0.101075263     0.0022811   -0.2472280     0.0005728    0.0008791     0.0002401    0.0006282     0.0225777   -0.1785723 
   0.101175288     0.0036924   -0.2475839     0.0000518    0.0006090     0.0002629    0.0005512     0.0218038   -0.1783575 
   0.101275313     0.0015756   -0.2472581     0.0002565    0.0005253     0.0002798    0.0006966     0.0215499   -0.1782146 
   0.101375338     0.0029685   -0.2466186     0.0002402    0.0005040     0.0003887    0.0007356     0.0220476   -0.1789351 
   0.101475363     0.0034268   -0.2455281     0.0003414    0.0005830     0.0002699    0.0003453     0.0215594   -0.1781776 
   0.101575388     0.0020311   -0.2459539     0.0001712    0.0004680     0.0002763    0.0004305     0.0214657   -0.1783591 
   0.101675413     0.0026499   -0.2467096     0.0005750    0.0003082     0.0002266    0.0005196     0.0221973   -0.1785069 
   0.101775438     0.0025891   -0.2466516     0.0002865    0.0002508     0.0002329    0.0004752     0.0219237   -0.1786792 
   0.101875463     0.0023215   -0.2452225     0.0003876    0.0008954     0.0001606    0.0005895     0.0211997   -0.1774536 
   0.101975488     0.0005727   -0.2430685     0.0004724    0.0001042     0.0002016    0.0004709     0.0212706   -0.1787703 
   0.102075513     0.0016813   -0.2443605     0.0002389    0.0003434     0.0004410    0.0003676     0.0206097   -0.1775591 
   0.102175538     0.0022883   -0.2453336     0.0003324    0.0004886     0.0002361    0.0005510     0.0210150   -0.1792199 
   0.102275563     0.0013512   -0.2447802     0.0002607    0.0009934     0.0001783    0.0005124     0.0204414   -0.1776094 
   0.102375588     0.0018481   -0.2427560    -0.0000598    0.0004207     0.0002203    0.0005296     0.0200584   -0.1787188 
   0.102475613     0.0025369   -0.2430115     0.0004061    0.0004236     0.0002096    0.0003828     0.0211937   -0.1782615 
   0.102575638     0.0031976   -0.2427054     0.0004243    0.0004791     0.0003904    0.0005777     0.0203497   -0.1780062 
   0.102675663     0.0016614   -0.2425699     0.0002498    0.0006156     0.0001784    0.0003064     0.0205930   -0.1777934 
   0.102775688     0.0009755   -0.2437152     0.0004888    0.0005248     0.0001899    0.0006187     0.0205038   -0.1781368 
   0.102875713     0.0028528   -0.2415348     0.0003642    0.0005707     0.0002636    0.0003888     0.0206576   -0.1786352 
   0.102975738     0.0002946   -0.2425268     0.0001701    0.0004168     0.0001740    0.0005777     0.0206081   -0.1779998 
   0.103075763     0.0002993   -0.2427953     0.0001217    0.0006547     0.0001845    0.0005504     0.0202804   -0.1772835 
   0.103175788     0.0002641   -0.2416840     0.0001774    0.0000677     0.0002885    0.0005659     0.0203612   -0.1769992 
   0.103275813     0.0020343   -0.2404565     0.0001249    0.0007230     0.0005204    0.0005297     0.0207673   -0.1775067 
   0.103375838     0.0008384   -0.2418088     0.0002647    0.0004245     0.0000685    0.0005366     0.0207607   -0.1771545 
   0.103475863     0.0013235   -0.2409290     0.0003930    0.0005848     0.0002393    0.0005686     0.0197060   -0.1773437 
   0.103575888     0.0012995   -0.2411202    -0.0000025    0.0004631     0.0003353    0.0005216     0.0200428   -0.1769828 
   0.103675913     0.0008192   -0.2386860     0.0000435    0.0002961     0.0001996    0.0004143     0.0204910   -0.1770435 
   0.103775938     0.0003221   -0.2399458     0.0001608    0.0004150     0.0003577    0.0003230     0.0199691   -0.1771479 
   0.103875963     0.0015314   -0.2401037     0.0003169    0.0002247     0.0003009    0.0006080     0.0193103   -0.1766500 
   0.103975988     0.0013249   -0.2389930     0.0002744    0.0005808     0.0003081    0.0006415     0.0197136   -0.1764280 
   0.104076013     0.0001503   -0.2400596     0.0002671    0.0006106     0.0002150    0.0004671     0.0192222   -0.1772117 
   0.104176038     0.0010909   -0.2379242     0.0004805    0.0006043     0.0000643    0.0003818     0.0194750   -0.1760209 
   0.104276063     0.0002829   -0.2385028     0.0004523    0.0002662     0.0004516    0.0005419     0.0194218   -0.1766094 
   0.104376088    -0.0000120   -0.2375326     0.0001844    0.0005938     0.0002435    0.0005595     0.0187021   -0.1764517 
   0.104476113    -0.0000034   -0.2380818     0.0003259    0.0006825     0.0000485    0.0004881     0.0195558   -0.1765333 
   0.104576138    -0.0007246   -0.2372700     0.0000524    0.0006298     0.0003106    0.0006764     0.0182119   -0.1764877 
   0.104676163    -0.0010183   -0.2366699     0.0000471    0.0007181     0.0004085    0.0006254     0.0189412   -0.1759481 
   0.104776188    -0.0008148   -0.2368616     0.0001715    0.0000379     0.0002891    0.0005192     0.0185969   -0.1760417 
   0.104876213    -0.0019273   -0.2361682     0.0002672    0.0002650     0.0002130    0.0005535     0.0192176   -0.1759060 
   0.104976238     0.0001106   -0.2360258     0.0004245    0.0007743     0.0001686    0.0005320     0.0184491   -0.1758994 
   0.105076263    -0.0007178   -0.2369055     0.0004278    0.0003564     0.0000813    0.0006007     0.0183948   -0.1761808 
   0.105176288    -0.0004755   -0.2363654     0.0002223    0.0004849     0.0001711    0.0006755     0.0190071   -0.1757769 
   0.105276313    -0.0018335   -0.2352440     0.0002843    0.0004936     0.0003811    0.0005092     0.0188949   -0.1761329 
   0.105376338    -0.0011797   -0.2354121     0.0004204    0.0004434     0.0002549    0.0005694     0.0178812   -0.1754245 
   0.105476363    -0.0014809   -0.2348955     0.0003554    0.0008109     0.0001473    0.0005764     0.0183699   -0.1763926 
   0.105576388    -0.0012632   -0.2343006     0.0000061    0.0007054     0.0000318    0.0005709     0.0180433   -0.1754683 
   0.105676413    -0.0014499   -0.2355289     0.0000644    0.0005180     0.0002844    0.0004911     0.0181208   -0.1762249 
   0.105776438    -0.0016572   -0.2340525     0.0002826    0.0005960     0.0002146    0.0004126     0.0182499   -0.1752720 
   0.105876463    -0.0024805   -0.2342524     0.0000887    0.0006607     0.0001057    0.0004295     0.0185062   -0.1747283 
   0.105976488    -0.0032968   -0.2345279     0.0005537    0.0004995     0.0002299    0.0005684     0.0185331   -0.1749268 
   0.106076513    -0.0027194   -0.2337037     0.0003528    0.0005874     0.0003076    0.0005527     0.0177662   -0.1753502 
   0.106176538    -0.0032835   -0.2337649     0.0001746    0.0004697     0.0002655    0.0007304     0.0174938   -0.1758394 
   0.106276563    -0.0022190   -0.2323682     0.0003776    0.0005989     0.0003280    0.0008445     0.0176886   -0.1760807 
   0.106376588    -0.0026217   -0.2334238     0.0002966    0.0004951     0.0003150    0.0007098     0.0176626   -0.1748920 
   0.106476613    -0.0024616   -0.2325494     0.0000941    0.0004024     0.0003934    0.0004754     0.0176918   -0.1745856 
   0.106576638    -0.0023280   -0.2314994     0.0003306    0.0004977     0.0003766    0.0004388     0.0175816   -0.1756591 
   0.106676663    -0.0026353   -0.2323620     0.0005026    0.0002067     0.0003466    0.0005603     0.0175746   -0.1741022 
   0.106776688    -0.0038907   -0.2320358     0.0003955    0.0003819     0.0002245    0.0006351     0.0173881   -0.1744961 
   0.106876713    -0.0026781   -0.2317506     0.0003356    0.0006081     0.0002811    0.0004396     0.0174950   -0.1747268 
   0.106976738    -0.0032435   -0.2300606     0.0002620    0.0003917     0.0001399    0.0004941     0.0179556   -0.1746351 
   0.107076763    -0.0031142   -0.2317598     0.0001872    0.0005345     0.0002965    0.0004085     0.0170568   -0.1745108 
   0.107176788    -0.0032963   -0.2303955     0.0002948    0.0003463     0.0003213    0.0005751     0.0168376   -0.1739845 
   0.107276813    -0.0022925   -0.2299211     0.0001714    0.0005313     0.0002911    0.0005737     0.0164106   -0.1740682 
   0.107376838    -0.0033170   -0.2308452     0.0002817    0.0004978     0.0001404    0.0006685     0.0168701   -0.1742206 
   0.107476863    -0.0040096   -0.2300523     0.0003194    0.0006976     0.0001207    0.0005280     0.0167140   -0.1745343 
   0.107576888    -0.0026066   -0.2299524     0.0001045    0.0002766     0.0001014    0.0004717     0.0171579   -0.1743109 
   0.107676913    -0.0036691   -0.2288665     0.0001817    0.0007402     0.0003107    0.0006297     0.0166434   -0.1740365 
   0.107776938    -0.0053704   -0.2288400     0.0002101    0.0006741     0.0003260    0.0003440     0.0163851   -0.1744450 
   0.107876963    -0.0027664   -0.2286465     0.0004172    0.0012942     0.0003566    0.0003667     0.0168209   -0.1742927 
   0.107976988    -0.0035228   -0.2281914     0.0001545    0.0007813     0.0003376    0.0003745     0.0162020   -0.1748960 
   0.108077014    -0.0047837   -0.2289814    -0.0001325    0.0005115     0.0000872    0.0005645     0.0166780   -0.1739106 
   0.108177039    -0.0043956   -0.2266632     0.0000763    0.0006779     0.0002921    0.0004756     0.0161811   -0.1738202 
   0.108277064    -0.0041450   -0.2273605     0.0004526    0.0008230     0.0001988    0.0004329     0.0158815   -0.1734490 
   0.108377089    -0.0038211   -0.2268429     0.0001339    0.0005245     0.0005924    0.0004006     0.0158471   -0.1734964 
   0.108477114    -0.0042861   -0.2276780    -0.0000024    0.0003823     0.0002343    0.0005267     0.0161068   -0.1738649 
   0.108577139    -0.0058126   -0.2268100     0.0002842    0.0004043     0.0002830    0.0004742     0.0157680   -0.1744802 
   0.108677164    -0.0055026   -0.2263023     0.0005578    0.0004174     0.0003760    0.0005861     0.0160645   -0.1739672 
   0.108777189    -0.0049167   -0.2260428     0.0003052    0.0003124     0.0004777    0.0005196     0.0156515   -0.1734565 
   0.108877214    -0.0044249   -0.2265143     0.0003085    0.0004245     0.0002914    0.0004055     0.0156813   -0.1736512 
   0.108977239    -0.0039690   -0.2264178     0.0006084    0.0008915     0.0003726    0.0006255     0.0156114   -0.1729358 
   0.109077264    -0.0041196   -0.2258633     0.0001271    0.0006195     0.0002686    0.0005404     0.0154599   -0.1735466 
   0.109177289    -0.0049491   -0.2253655     0.0002981    0.0002674     0.0004459    0.0004632     0.0161991   -0.1736719 
   0.109277314    -0.0049830   -0.2262566     0.0000878    0.0008446     0.0002626    0.0005877     0.0153212   -0.1729104 
   0.109377339    -0.0055610   -0.2253436     0.0004058    0.0002895     0.0002010    0.0006199     0.0150601   -0.1729505 
   0.109477364    -0.0039673   -0.2239340     0.0000373    0.0006623     0.0001820    0.0004968     0.0150633   -0.1732354 
   0.109577389    -0.0058291   -0.2261215     0.0003770    0.0006170     0.0002505    0.0003578     0.0146823   -0.1732102 
   0.109677414    -0.0057004   -0.2241712     0.0000044    0.0005012     0.0001424    0.0008134     0.0147868   -0.1738165 
   0.109777439    -0.0047896   -0.2232491     0.0002397    0.0006718     0.0005236    0.0003752     0.0147412   -0.1730439 
   0.109877464    -0.0066358   -0.2246971     0.0000895    0.0004066     0.0003382    0.0004772     0.0145988   -0.1736781 
   0.109977489    -0.0048888   -0.2248368     0.0006725    0.0005791     0.0003053    0.0003841     0.0149381   -0.1729791 
   0.110077514    -0.0058497   -0.2233843     0.0001276    0.0007223     0.0002474    0.0003673     0.0145339   -0.1729779 
   0.110177539    -0.0063194   -0.2226017     0.0001587    0.0003974     0.0003630    0.0005416     0.0147937   -0.1730022 
   0.110277564    -0.0058994   -0.2229726     0.0000199    0.0004160     0.0002421    0.0005713     0.0145266   -0.1728610 
   0.110377589    -0.0060422   -0.2218549     0.0003505    0.0003342     0.0003952    0.0005098     0.0143835   -0.1726575 
   0.110477614    -0.0064563   -0.2221173     0.0001077    0.0002126     0.0003144    0.0005705     0.0145473   -0.1727918 
   0.110577639    -0.0058736   -0.2224359     0.0002267    0.0002245     0.0002771    0.0005787     0.0139060   -0.1725141 
   0.110677664    -0.0074321   -0.2223837     0.0002376    0.0003427     0.0002209    0.0005289     0.0138488   -0.1717095 
   0.110777689    -0.0063829   -0.2227891     0.0000840    0.0003013     0.0000956    0.0005089     0.0142488   -0.1717452 
   0.110877714    -0.0054373   -0.2207835     0.0003878    0.0007519     0.0003195    0.0004788     0.0137143   -0.1720344 
   0.110977739    -0.0066110   -0.2205114     0.0003817    0.0005091     0.0003040    0.0003547     0.0137245   -0.1725454 
   0.111077764    -0.0071129   -0.2204564     0.0003728    0.0005341     0.0002397    0.0004797     0.0139347   -0.1728119 
   0.111177789    -0.0079379   -0.2203323     0.0001580    0.0006467     0.0002807    0.0007331     0.0136908   -0.1721343 
   0.111277814    -0.0069294   -0.2193084     0.0003258    0.0006569     0.0003200    0.0007399     0.0136766   -0.1719117 
   0.111377839    -0.0071457   -0.2211382     0.0003099    0.0003918     0.0002473    0.0005960     0.0129746   -0.1724571 
   0.111477864    -0.0065697   -0.2194795     0.0001286    0.0004184     0.0001490    0.0005581     0.0136288   -0.1716736 
   0.111577889    -0.0067205   -0.2194275     0.0003211    0.0007616     0.0001658    0.0006629     0.0133545   -0.1711205 
   0.111677914    -0.0065466   -0.2191403     0.0005495    0.0004253     0.0003355    0.0005906     0.0138733   -0.1712846 
   0.111777939    -0.0078361   -0.2184982     0.0001789    0.0006605     0.0003662    0.0004684     0.0132168   -0.1714521 
   0.111877964    -0.0083734   -0.2198256     0.0004783    0.0002266     0.0002628    0.0006617     0.0132381   -0.1719393 
   0.111977989    -0.0071892   -0.2179928     0.0001485    0.0008745     0.0004261    0.0004432     0.0131890   -0.1718385 
   0.112078014    -0.0076492   -0.2179559     0.0002734    0.0008246     0.0003625    0.0005126     0.0136921   -0.1716231 
   0.112178039    -0.0075246   -0.2181720     0.0003076    0.0004245     0.0003934    0.0004924     0.0129898   -0.1715455 
   0.112278064    -0.0084263   -0.2176430     0.0000678    0.0007395     0.0005268    0.0007393     0.0133310   -0.1715939 
   0.112378089    -0.0067866   -0.2173413     0.0003576    0.0006620     0.0003946    0.0003972     0.0124747   -0.1712737 
   0.112478114    -0.0081353   -0.2175365     0.0002869    0.0005477     0.0003049    0.0006558     0.0124530   -0.1716977 
   0.112578139    -0.0084849   -0.2156042     0.0002921    0.0007081     0.0002666    0.0005704     0.0129643   -0.1708787 
   0.112678164    -0.0070655   -0.2182220     0.0004525    0.0004024     0.0004944    0.0004941     0.0124598   -0.1718685 
   0.112778189    -0.0086607   -0.2169727     0.0002656    0.0002287     0.0002907    0.0004503     0.0128854   -0.1709008 
   0.112878214    -0.0084034   -0.2164612    -0.0001391    0.0003312     0.0002204    0.0003517     0.0129965   -0.1707984 
   0.112978239    -0.0085793   -0.2153468     0.0001702    0.0004968     0.0001426    0.0003295     0.0123714   -0.1708330 
   0.113078264    -0.0078390   -0.2159347     0.0002862    0.0007209     0.0001808    0.0004127     0.0122319   -0.1706746 
   0.113178289    -0.0082726   -0.2151823     0.0007550    0.0004209     0.0002242    0.0006957     0.0119567   -0.1715645 
   0.113278314    -0.0077618   -0.2154728     0.0002718    0.0005998     0.0002447    0.0004624     0.0116598   -0.1710363 
   0.113378339    -0.0083025   -0.2148028     0.0001062    0.0008749     0.0001174    0.0005548     0.0120781   -0.1707239 
   0.113478364    -0.0081150   -0.2152771     0.0002898    0.0003345     0.0003265    0.0005716     0.0114904   -0.1709495 
   0.113578389    -0.0092561   -0.2129728     0.0005137    0.0009976     0.0003679    0.0006408     0.0121027   -0.1704147 
   0.113678414    -0.0083671   -0.2138307     0.0003877    0.0005270     0.0001970    0.0004953     0.0118082   -0.1709246 
   0.113778439    -0.0088202   -0.2148595     0.0002522    0.0006184     0.0002976    0.0003752     0.0119185   -0.1703071 
   0.113878464    -0.0086885   -0.2134545     0.0003173    0.0005583     0.0002204    0.0006228     0.0117495   -0.1706204 
   0.113978489    -0.0090237   -0.2131515     0.0005149    0.0004468     0.0004828    0.0005316     0.0118785   -0.1708340 
   0.114078514    -0.0096720   -0.2121625     0.0004774    0.0003342     0.0004278    0.0006843     0.0122333   -0.1701549 
   0.114178539    -0.0094930   -0.2128638     0.0001802    0.0003464     0.0001301    0.0006806     0.0110211   -0.1703905 
   0.114278564    -0.0088537   -0.2114268     0.0004080    0.0006061     0.0003973    0.0005830     0.0106527   -0.1703628 
   0.114378589    -0.0089626   -0.2132390     0.0006117    0.0003724     0.0004302    0.0007544     0.0110509   -0.1701498 
   0.114478614    -0.0094867   -0.2123930     0.0005234    0.0006341     0.0002081    0.0003439     0.0105518   -0.1707732 
   0.114578639    -0.0098846   -0.2116280     0.0001018    0.0004308     0.0004238    0.0006307     0.0103652   -0.1697546 
   0.114678664    -0.0092745   -0.2113383     0.0001838    0.0005228     0.0002776    0.0005285     0.0106782   -0.1705756 
   0.114778689    -0.0098845   -0.2123400    -0.0000193    0.0007793     0.0002167    0.0006983     0.0109709   -0.1700137 
   0.114878714    -0.0096059   -0.2118071     0.0002764    0.0006654     0.0002234    0.0006081     0.0105384   -0.1695462 
   0.114978739    -0.0093579   -0.2108469     0.0005835    0.0000648     0.0002179    0.0004457     0.0104869   -0.1696292 
   0.115078764    -0.0098108   -0.2109793     0.0002102    0.0004688     0.0005536    0.0006946     0.0108100   -0.1696567 
   0.115178789    -0.0097604   -0.2108673     0.0001739    0.0008834     0.0003421    0.0004559     0.0102615   -0.1700987 
   0.115278814    -0.0091300   -0.2108959     0.0006737    0.0005832     0.0004716    0.0004659     0.0104755   -0.1695888 
   0.115378839    -0.0100534   -0.2093681     0.0002537    0.0006919     0.0002540    0.0005790     0.0102116   -0.1693396 
   0.115478864    -0.0093177   -0.2100495     0.0004851    0.0006033     0.0004117    0.0005154     0.0103378   -0.1696283 
   0.115578889    -0.0103555   -0.2091291     0.0002928    0.0003175     0.0002897    0.0007005     0.0100774   -0.1696530 
   0.115678914    -0.0099744   -0.2087795     0.0003969    0.0007394     0.0001967    0.0005960     0.0101444   -0.1695602 
   0.115778939    -0.0089699   -0.2085049     0.0002982    0.0005514     0.0003060    0.0006833     0.0098005   -0.1696313 
   0.115878964    -0.0089522   -0.2089724     0.0005933    0.0009282     0.0004619    0.0005717     0.0099386   -0.1695052 
   0.115978989    -0.0106570   -0.2082064     0.0001115    0.0008452     0.0004947    0.0006349     0.0097093   -0.1693198 
   0.116079015    -0.0100907   -0.2077474     0.0004446    0.0006754     0.0003820    0.0005368     0.0102381   -0.1690225 
   0.116179040    -0.0110090   -0.2085533     0.0002556    0.0003724     0.0003340    0.0006795     0.0093933   -0.1692294 
   0.116279065    -0.0095191   -0.2078970     0.0002645    0.0004650     0.0004012    0.0005390     0.0099329   -0.1687314 
   0.116379090    -0.0108878   -0.2087775     0.0001198    0.0008094     0.0004575    0.0005615     0.0097536   -0.1695357 
   0.116479115    -0.0106971   -0.2084470     0.0001412    0.0006659     0.0002965    0.0006628     0.0097362   -0.1687256 
   0.116579140    -0.0111191   -0.2070844     0.0004416    0.0002923     0.0003303    0.0003995     0.0098018   -0.1689817 
   0.116679165    -0.0103722   -0.2061578     0.0003206    0.0005038     0.0004470    0.0005643     0.0088092   -0.1697205 
   0.116779190    -0.0106829   -0.2060494     0.0005509    0.0002510     0.0004410    0.0005597     0.0088471   -0.1694590 
   0.116879215    -0.0112236   -0.2059107     0.0004329    0.0004920     0.0004398    0.0004511     0.0091726   -0.1686638 
   0.116979240    -0.0101492   -0.2062508     0.0004978    0.0005831     0.0004284    0.0005938     0.0093450   -0.1687461 
   0.117079265    -0.0103856   -0.2055865     0.0006102    0.0004504     0.0004731    0.0005353     0.0088764   -0.1690083 
   0.117179290    -0.0111427   -0.2056203     0.0002648    0.0004311     0.0002945    0.0006222     0.0094351   -0.1690908 
   0.117279315    -0.0104058   -0.2058518     0.0002384    0.0002735     0.0004725    0.0005436     0.0091634   -0.1684098 
   0.117379340    -0.0109198   -0.2045434     0.0004362    0.0003817     0.0002553    0.0005362     0.0088686   -0.1682704 
   0.117479365    -0.0115109   -0.2054075     0.0007405    0.0005970     0.0004021    0.0006618     0.0091623   -0.1686578 
   0.117579390    -0.0115412   -0.2052546     0.0003787    0.0004053     0.0002450    0.0006557     0.0079982   -0.1682977 
   0.117679415    -0.0121858   -0.2054415     0.0004390    0.0005567     0.0004317    0.0004851     0.0084250   -0.1683526 
   0.117779440    -0.0117568   -0.2039584     0.0001612    0.0005695     0.0002936    0.0005052     0.0086626   -0.1686747 
   0.117879465    -0.0114530   -0.2036908     0.0002619    0.0004659     0.0005366    0.0003758     0.0081879   -0.1690613 
   0.117979490    -0.0114138   -0.2042512     0.0002590    0.0002723     0.0004514    0.0004395     0.0086130   -0.1688619 
   0.118079515    -0.0105524   -0.2047416     0.0002507    0.0003628     0.0002953    0.0004813     0.0084655   -0.1681307 
   0.118179540    -0.0122458   -0.2041618     0.0003366    0.0004662     0.0002123    0.0005928     0.0082178   -0.1686257 
   0.118279565    -0.0111617   -0.2033691     0.0006870    0.0005880     0.0002629    0.0005483     0.0081383   -0.1680096 
   0.118379590    -0.0124986   -0.2024495     0.0004818    0.0004517     0.0003390    0.0004451     0.0077259   -0.1681483 
   0.118479615    -0.0117003   -0.2028569     0.0002771    0.0003222     0.0003885    0.0005032     0.0080853   -0.1680446 
   0.118579640    -0.0111302   -0.2025542     0.0002283    0.0003118     0.0004041    0.0005323     0.0079077   -0.1677426 
   0.118679665    -0.0127517   -0.2019073     0.0002295    0.0002526     0.0003462    0.0006471     0.0077057   -0.1684333 
   0.118779690    -0.0113213   -0.2019119     0.0005432    0.0006709     0.0003468    0.0005421     0.0074054   -0.1683429 
   0.118879715    -0.0131240   -0.2014535     0.0004004    0.0002477     0.0003254    0.0006301     0.0077188   -0.1678039 
   0.118979740    -0.0122206   -0.2011923     0.0005117    0.0007350     0.0000440    0.0005734     0.0079351   -0.1673481 
   0.119079765    -0.0117115   -0.2015310     0.0001102    0.0006995     0.0003398    0.0004390     0.0072574   -0.1670912 
   0.119179790    -0.0130483   -0.2016766    -0.0000091    0.0007545     0.0002490    0.0006288     0.0076880   -0.1680633 
   0.119279815    -0.0124170   -0.2017942    -0.0000819    0.0005509     0.0003078    0.0006741     0.0079235   -0.1674143 
   0.119379840    -0.0124611   -0.2003078     0.0001455    0.0006017     0.0002535    0.0006755     0.0076740   -0.1681000 
   0.119479865    -0.0127938   -0.2001917     0.0005257    0.0005612     0.0003064    0.0005044     0.0075701   -0.1678541 
   0.119579890    -0.0128831   -0.1981364     0.0002093    0.0006213     0.0005067    0.0005561     0.0073093   -0.1673445 
   0.119679915    -0.0129779   -0.2006416     0.0001376    0.0006901     0.0003739    0.0004606     0.0070397   -0.1671566 
   0.119779940    -0.0125851   -0.1995134     0.0002845    0.0003520     0.0006413    0.0004005     0.0069133   -0.1678005 
   0.119879965    -0.0123098   -0.1996909     0.0001359    0.0006222     0.0001169    0.0004991     0.0067136   -0.1671105 
   0.119979990    -0.0131719   -0.1995752     0.0007544    0.0004743     0.0003268    0.0007446     0.0070418   -0.1672864 
   0.120080015    -0.0116632   -0.1986345     0.0004949    0.0005413     0.0004613    0.0006095     0.0065942   -0.1669567 
   0.120180040    -0.0133274   -0.1990009     0.0003199    0.0004707     0.0003276    0.0005726     0.0067645   -0.1670410 
   0.120280065    -0.0136470   -0.1985393     0.0003796    0.0005648     0.0003023    0.0005078     0.0065061   -0.1674723 
   0.120380090    -0.0127569   -0.1986603     0.0003367    0.0006845     0.0005609    0.0005407     0.0065399   -0.1673646 
   0.120480115    -0.0121615   -0.1977455     0.0006823    0.0008232     0.0004012    0.0005671     0.0066649   -0.1666449 
   0.120580140    -0.0121029   -0.1969782     0.0002137    0.0009065     0.0004092    0.0005863     0.0061567   -0.1674063 
   0.120680165    -0.0129504   -0.1971508     0.0003237    0.0006532     0.0001712    0.0006646     0.0063581   -0.1675513 
   0.120780190    -0.0133508   -0.1979619     0.0004624    0.0004594     0.0003664    0.0004745     0.0064120   -0.1674009 
   0.120880215    -0.0138028   -0.1965986     0.0005405    0.0005749     0.0004501    0.0004988     0.0058705   -0.1673591 
   0.120980240    -0.0131760   -0.1957771     0.0006335    0.0003667     0.0004412    0.0004114     0.0056773   -0.1668328 
   0.121080265    -0.0142201   -0.1972800     0.0002084    0.0007964     0.0001933    0.0005600     0.0058092   -0.1670272 
   0.121180290    -0.0133013   -0.1956131     0.0001817    0.0007727     0.0003774    0.0005377     0.0054221   -0.1664414 
   0.121280315    -0.0132565   -0.1961117     0.0006611    0.0001847     0.0005159    0.0005867     0.0055177   -0.1667505 
   0.121380340    -0.0135548   -0.1961922     0.0003076    0.0001941     0.0004075    0.0006117     0.0057383   -0.1664626 
   0.121480365    -0.0141263   -0.1957217     0.0005815    0.0004385     0.0002103    0.0007025     0.0050852   -0.1665571 
   0.121580390    -0.0138668   -0.1959595     0.0002303    0.0003464     0.0003593    0.0005825     0.0053879   -0.1661721 
   0.121680415    -0.0136173   -0.1948743     0.0003445    0.0006523     0.0004152    0.0005124     0.0054120   -0.1671293 
   0.121780440    -0.0133936   -0.1953826     0.0004302    0.0005635     0.0003970    0.0004335     0.0052004   -0.1665716 
   0.121880465    -0.0140964   -0.1945182     0.0004640    0.0005243     0.0003840    0.0006422     0.0051385   -0.1660856 
   0.121980490    -0.0149620   -0.1951238     0.0002237    0.0005029     0.0004131    0.0007048     0.0049705   -0.1668071 
   0.122080515    -0.0136852   -0.1933024     0.0005339    0.0003962     0.0004384    0.0005190     0.0053357   -0.1663222 
   0.122180540    -0.0132403   -0.1947590     0.0003728    0.0007572     0.0003591    0.0006495     0.0048763   -0.1662063 
   0.122280565    -0.0131326   -0.1953747     0.0001349    0.0006637     0.0003160    0.0004723     0.0050129   -0.1667065 
   0.122380590    -0.0141773   -0.1931673     0.0003005    0.0002034     0.0004717    0.0006436     0.0046165   -0.1663284 
   0.122480615    -0.0134784   -0.1950747     0.0001669    0.0007391     0.0004327    0.0004732     0.0051670   -0.1660547 
   0.122580640    -0.0143296   -0.1936076     0.0008778    0.0004524     0.0002102    0.0006522     0.0044759   -0.1664440 
   0.122680665    -0.0137276   -0.1931353     0.0003780    0.0006462     0.0003503    0.0004834     0.0044053   -0.1661051 
   0.122780690    -0.0140116   -0.1929862     0.0003749    0.0001905     0.0007004    0.0005500     0.0045441   -0.1662824 
   0.122880715    -0.0139002   -0.1930696     0.0004550    0.0004679     0.0003099    0.0007407     0.0047753   -0.1662335 
   0.122980740    -0.0143564   -0.1918481     0.0000844    0.0005346     0.0005035    0.0006232     0.0047983   -0.1659839 
   0.123080765    -0.0139678   -0.1918641     0.0001804    0.0007956     0.0003749    0.0007902     0.0047642   -0.1662130 
   0.123180790    -0.0142832   -0.1911841     0.0002882    0.0006468     0.0003645    0.0006320     0.0045101   -0.1653658 
   0.123280815    -0.0141214   -0.1917755     0.0007427    0.0007426     0.0005313    0.0005968     0.0044987   -0.1656188 
   0.123380840    -0.0132990   -0.1926761     0.0003791    0.0009043     0.0004814    0.0004626     0.0043699   -0.1657532 
   0.123480865    -0.0139989   -0.1914054     0.0000300    0.0005604     0.0001772    0.0005694     0.0035501   -0.1653876 
   0.123580890    -0.0149016   -0.1921775     0.0006334    0.0003246     0.0003795    0.0005328     0.0035276   -0.1658771 
   0.123680915    -0.0139756   -0.1922996     0.0002951    0.0006738     0.0003148    0.0005468     0.0039289   -0.1657518 
   0.123780940    -0.0152406   -0.1908758     0.0003842    0.0005561     0.0001712    0.0006811     0.0038471   -0.1658947 
   0.123880965    -0.0153920   -0.1909801     0.0002180    0.0007013     0.0004818    0.0005949     0.0038772   -0.1658513 
   0.123980990    -0.0144308   -0.1902460     0.0000835    0.0008485     0.0004972    0.0005417     0.0036077   -0.1654339 
   0.124081016    -0.0144643   -0.1903588     0.0004222    0.0005133     0.0005612    0.0006921     0.0033699   -0.1654880 
   0.124181041    -0.0144178   -0.1896645     0.0005344    0.0006849     0.0003662    0.0006169     0.0031869   -0.1654537 
   0.124281066    -0.0151189   -0.1909175     0.0003462    0.0006805     0.0004002    0.0005304     0.0033188   -0.1654574 
   0.124381091    -0.0143073   -0.1892257     0.0003226    0.0004111     0.0004565    0.0005849     0.0033062   -0.1651074 
   0.124481116    -0.0141355   -0.1887853     0.0005823    0.0006191     0.0001801    0.0005242     0.0031120   -0.1654710 
   0.124581141    -0.0149498   -0.1886343     0.0005867    0.0006825     0.0003005    0.0006037     0.0030954   -0.1654108 
   0.124681166    -0.0146701   -0.1886021     0.0004879    0.0005679     0.0003339    0.0005225     0.0025966   -0.1652705 
   0.124781191    -0.0154474   -0.1887421     0.0004745    0.0004155     0.0001268    0.0004139     0.0030541   -0.1651003 
   0.124881216    -0.0148857   -0.1888936     0.0002990    0.0003563     0.0001745    0.0006596     0.0028160   -0.1650160 
   0.124981241    -0.0147722   -0.1882783     0.0004862    0.0011009     0.0004774    0.0007949     0.0028418   -0.1644098 
   0.125081266    -0.0149022   -0.1884066     0.0004512    0.0004258     0.0005902    0.0004848     0.0034453   -0.1641423 
   0.125181291    -0.0145501   -0.1879605     0.0004876    0.0005649     0.0005260    0.0004872     0.0028732   -0.1647514 
   0.125281316    -0.0153071   -0.1886361     0.0001058    0.0006853     0.0004844    0.0004914     0.0029395   -0.1651840 
   0.125381341    -0.0155606   -0.1879777    -0.0000257    0.0004101     0.0004625    0.0004921     0.0029017   -0.1650786 
   0.125481366    -0.0144993   -0.1865932     0.0010301    0.0006491     0.0003493    0.0004635     0.0027409   -0.1651886 
   0.125581391    -0.0151165   -0.1876497     0.0002130    0.0003557     0.0002967    0.0005512     0.0022742   -0.1650054 
   0.125681416    -0.0160879   -0.1866751     0.0006040    0.0005111     0.0003906    0.0007101     0.0027412   -0.1645291 
   0.125781441    -0.0153242   -0.1868379     0.0005219    0.0002897     0.0005088    0.0007131     0.0021013   -0.1645320 
   0.125881466    -0.0154977   -0.1867604     0.0003968    0.0004940     0.0005083    0.0008747     0.0026229   -0.1645112 
   0.125981491    -0.0159102   -0.1856624     0.0001699    0.0004694     0.0004374    0.0007792     0.0016808   -0.1639606 
   0.126081516    -0.0156227   -0.1857793     0.0004116    0.0005470     0.0003597    0.0006545     0.0016658   -0.1645048 
   0.126181541    -0.0152742   -0.1856025     0.0004202    0.0003173     0.0004863    0.0005912     0.0016637   -0.1648247 
   0.126281566    -0.0164317   -0.1858916     0.0004489    0.0006633     0.0003137    0.0005196     0.0018297   -0.1645135 
   0.126381591    -0.0150385   -0.1859606     0.0006113    0.0003459     0.0004073    0.0005537     0.0012953   -0.1643422 
   0.126481616    -0.0161688   -0.1853055     0.0002036    0.0006147     0.0006348    0.0005134     0.0017200   -0.1644061 
   0.126581641    -0.0161270   -0.1850595     0.0007166    0.0003834     0.0004487    0.0005436     0.0019671   -0.1642023 
   0.126681666    -0.0157760   -0.1851414     0.0002932    0.0003784     0.0003347    0.0006327     0.0014525   -0.1643685 
   0.126781691    -0.0159519   -0.1848608     0.0006179    0.0006720     0.0003546    0.0003969     0.0015361   -0.1643692 
   0.126881716    -0.0150932   -0.1848750     0.0003527    0.0006414     0.0003804    0.0005362     0.0013261   -0.1641713 
   0.126981741    -0.0155884   -0.1837897     0.0001039    0.0005520     0.0005653    0.0006083     0.0012657   -0.1644252 
   0.127081766    -0.0159542   -0.1841604     0.0005014    0.0005027     0.0002617    0.0006582     0.0008442   -0.1639132 
   0.127181791    -0.0165712   -0.1833539     0.0006221    0.0007490     0.0004968    0.0004250     0.0008717   -0.1634910 
   0.127281816    -0.0157414   -0.1833835     0.0005668    0.0001952     0.0004328    0.0005061     0.0014530   -0.1641578 
   0.127381841    -0.0168021   -0.1827200     0.0005976    0.0003616     0.0002939    0.0004932     0.0005780   -0.1638665 
   0.127481866    -0.0165875   -0.1826468     0.0001919    0.0009224     0.0004907    0.0006662     0.0010898   -0.1639847 
   0.127581891    -0.0162181   -0.1832076     0.0002996    0.0008843     0.0005289    0.0005662     0.0008445   -0.1636515 
   0.127681916    -0.0159475   -0.1833157     0.0002703    0.0006559     0.0003511    0.0006957     0.0006250   -0.1638808 
   0.127781941    -0.0164751   -0.1818485     0.0003298    0.0002707     0.0003487    0.0006042     0.0008555   -0.1639709 
   0.127881966    -0.0159885   -0.1822765     0.0006057    0.0006242     0.0004139    0.0005930     0.0008216   -0.1636128 
   0.127981991    -0.0170769   -0.1828467     0.0005530    0.0005591     0.0003480    0.0006749     0.0005852   -0.1635040 
   0.128082016    -0.0161436   -0.1818229     0.0001745    0.0006266     0.0004423    0.0006828     0.0007310   -0.1635482 
   0.128182041    -0.0163954   -0.1817970     0.0003163    0.0007780     0.0004726    0.0004906     0.0005024   -0.1637696 
   0.128282066    -0.0163639   -0.1814584     0.0001431    0.0004023     0.0001739    0.0005801     0.0006663   -0.1637034 
   0.128382091    -0.0161555   -0.1810128     0.0007692    0.0006561     0.0004152    0.0006473    -0.0001340   -0.1631009 
   0.128482116    -0.0165536   -0.1809208     0.0005644    0.0004925     0.0004611    0.0008928    -0.0004189   -0.1634352 
   0.128582141    -0.0172216   -0.1818321     0.0001071    0.0006387     0.0004228    0.0002813     0.0004537   -0.1630444 
   0.128682166    -0.0165242   -0.1812146    -0.0000110    0.0004959     0.0005705    0.0005199     0.0000299   -0.1633353 
   0.128782191    -0.0163364   -0.1806002     0.0004418    0.0003772     0.0003446    0.0006535     0.0000937   -0.1634020 
   0.128882216    -0.0164873   -0.1797626     0.0004130    0.0007811     0.0003361    0.0003132    -0.0003170   -0.1638144 
   0.128982241    -0.0165963   -0.1795995     0.0000222    0.0002305     0.0004645    0.0006270    -0.0008605   -0.1630680 
   0.129082266    -0.0169576   -0.1794410     0.0002179    0.0005685     0.0004090    0.0005978    -0.0002793   -0.1633969 
   0.129182291    -0.0163792   -0.1799098     0.0006360    0.0005889     0.0006367    0.0007316    -0.0002207   -0.1633888 
   0.129282316    -0.0171983   -0.1791704     0.0005405    0.0007200     0.0004612    0.0005249    -0.0003675   -0.1631203 
   0.129382341    -0.0167828   -0.1792210     0.0002102    0.0002821     0.0004995    0.0004067    -0.0010121   -0.1629759 
   0.129482366    -0.0170513   -0.1783604     0.0005419    0.0005148     0.0004988    0.0005962    -0.0002890   -0.1631056 
   0.129582391    -0.0167869   -0.1794703     0.0005051    0.0004903     0.0004254    0.0003398    -0.0005538   -0.1633169 
   0.129682416    -0.0171167   -0.1787229     0.0003426    0.0003124     0.0003672    0.0006872    -0.0007151   -0.1623994 
   0.129782441    -0.0176902   -0.1786608     0.0002378    0.0004004     0.0004026    0.0005020    -0.0004017   -0.1627700 
   0.129882466    -0.0166052   -0.1785934     0.0005596    0.0004663     0.0002683    0.0005885    -0.0012122   -0.1626711 
   0.129982491    -0.0168816   -0.1789043     0.0005867    0.0005875     0.0004102    0.0006081    -0.0003063   -0.1626017 
   0.130082516    -0.0164017   -0.1783929     0.0003909    0.0010680     0.0004849    0.0004873    -0.0009102   -0.1629230 
   0.130182541    -0.0169127   -0.1779639     0.0002349    0.0004004     0.0006065    0.0007035    -0.0009184   -0.1627043 
   0.130282566    -0.0176416   -0.1774924     0.0005882    0.0006814     0.0004749    0.0005999    -0.0010541   -0.1633880 
   0.130382591    -0.0178655   -0.1767111     0.0001604    0.0002646     0.0005185    0.0005031    -0.0014043   -0.1624577 
   0.130482616    -0.0176658   -0.1773577     0.0003504    0.0008024     0.0005698    0.0005870    -0.0018408   -0.1626308 
   0.130582641    -0.0172228   -0.1764743     0.0007642    0.0005251     0.0005860    0.0005704    -0.0015291   -0.1621958 
   0.130682666    -0.0168399   -0.1769351     0.0003052    0.0004456     0.0006297    0.0004425    -0.0018930   -0.1623312 
   0.130782691    -0.0171533   -0.1774265     0.0003786    0.0004594     0.0003576    0.0006133    -0.0015881   -0.1621237 
   0.130882716    -0.0165787   -0.1759602     0.0003286    0.0004469     0.0003741    0.0006100    -0.0021555   -0.1619470 
   0.130982741    -0.0169666   -0.1765534     0.0005499    0.0006725     0.0005023    0.0006160    -0.0021951   -0.1625634 
   0.131082766    -0.0159817   -0.1756331     0.0006447    0.0004713     0.0007461    0.0004584    -0.0014460   -0.1623431 
   0.131182791    -0.0173759   -0.1761490     0.0008512    0.0004431     0.0004320    0.0006910    -0.0018707   -0.1621345 
   0.131282816    -0.0174206   -0.1749996     0.0005722    0.0007046     0.0003875    0.0005813    -0.0018760   -0.1616296 
   0.131382841    -0.0184083   -0.1752298     0.0005575    0.0005641     0.0002684    0.0003793    -0.0019411   -0.1626188 
   0.131482866    -0.0178464   -0.1747265     0.0001893    0.0007681     0.0002697    0.0004166    -0.0022927   -0.1623060 
   0.131582891    -0.0176295   -0.1753267     0.0007945    0.0004913     0.0006119    0.0004832    -0.0026212   -0.1619916 
   0.131682916    -0.0172695   -0.1749480     0.0004918    0.0004071     0.0004339    0.0003839    -0.0025489   -0.1618343 
   0.131782941    -0.0169777   -0.1738731     0.0004738    0.0004762     0.0004643    0.0006078    -0.0025337   -0.1623273 
   0.131882966    -0.0172695   -0.1746115     0.0003160    0.0004262     0.0004834    0.0004768    -0.0022785   -0.1618990 
   0.131982991    -0.0177260   -0.1747960     0.0003204    0.0003974     0.0004220    0.0005350    -0.0029707   -0.1617857 
   0.132083017    -0.0173497   -0.1734322     0.0004774    0.0003501     0.0004123    0.0006431    -0.0026311   -0.1617654 
   0.132183042    -0.0177282   -0.1741091     0.0003086    0.0007146     0.0004068    0.0004660    -0.0033225   -0.1616831 
   0.132283067    -0.0177867   -0.1731801     0.0007851    0.0006432     0.0005837    0.0005131    -0.0028787   -0.1614825 
   0.132383092    -0.0180962   -0.1731293     0.0002338    0.0009346     0.0003749    0.0005852    -0.0028215   -0.1618848 
   0.132483117    -0.0172201   -0.1730997     0.0006567    0.0005078     0.0006321    0.0004985    -0.0034463   -0.1611513 
   0.132583142    -0.0189553   -0.1730368     0.0004413    0.0004328     0.0004976    0.0007398    -0.0033996   -0.1612153 
   0.132683167    -0.0183605   -0.1729892     0.0000878    0.0006740     0.0005867    0.0006790    -0.0032418   -0.1614749 
   0.132783192    -0.0170602   -0.1719016     0.0007170    0.0004888     0.0004949    0.0005681    -0.0036536   -0.1616296 
   0.132883217    -0.0188854   -0.1733129     0.0004869    0.0007394     0.0005294    0.0005833    -0.0032756   -0.1614825 
   0.132983242    -0.0172905   -0.1719299     0.0003881    0.0000491     0.0005294    0.0004059    -0.0032813   -0.1617011 
   0.133083267    -0.0181679   -0.1726208     0.0003248    0.0004620     0.0003220    0.0004916    -0.0034767   -0.1617080 
   0.133183292    -0.0184434   -0.1716581     0.0003220    0.0008516     0.0004306    0.0005406    -0.0033650   -0.1611128 
   0.133283317    -0.0176272   -0.1717739     0.0004073    0.0006115     0.0006331    0.0005234    -0.0039444   -0.1607697 
   0.133383342    -0.0181994   -0.1714463     0.0001957    0.0007283     0.0005949    0.0005038    -0.0040852   -0.1615050 
   0.133483367    -0.0182404   -0.1715697     0.0001703    0.0001918     0.0004962    0.0004214    -0.0038300   -0.1615698 
   0.133583392    -0.0169844   -0.1714405     0.0006298    0.0006532     0.0004616    0.0007938    -0.0037308   -0.1614446 
   0.133683417    -0.0185809   -0.1711219     0.0000457    0.0008571     0.0005771    0.0005121    -0.0040956   -0.1613869 
   0.133783442    -0.0176491   -0.1707224     0.0003704    0.0003234     0.0006850    0.0006353    -0.0042313   -0.1612138 
   0.133883467    -0.0178656   -0.1707813     0.0005915    0.0005274     0.0005523    0.0005188    -0.0038236   -0.1609932 
   0.133983492    -0.0176426   -0.1705478     0.0004988    0.0005002     0.0005134    0.0004661    -0.0044004   -0.1609516 
   0.134083517    -0.0174838   -0.1712168     0.0004365    0.0008919     0.0007048    0.0005350    -0.0046477   -0.1603928 
   0.134183542    -0.0182087   -0.1693224     0.0006497    0.0005761     0.0004940    0.0005812    -0.0040921   -0.1605122 
   0.134283567    -0.0184371   -0.1697601     0.0005600    0.0004644     0.0006866    0.0006184    -0.0041760   -0.1609891 
   0.134383592    -0.0181036   -0.1704279     0.0003454    0.0006373     0.0004776    0.0004679    -0.0047116   -0.1606208 
   0.134483617    -0.0184284   -0.1691099     0.0002173    0.0005225     0.0003850    0.0006745    -0.0044851   -0.1609510 
   0.134583642    -0.0188397   -0.1693801     0.0004588    0.0005317     0.0006471    0.0003491    -0.0046177   -0.1608481 
   0.134683667    -0.0179659   -0.1687293     0.0005213    0.0004325     0.0005178    0.0007361    -0.0044582   -0.1606915 
   0.134783692    -0.0177007   -0.1688497     0.0004123    0.0003595     0.0004743    0.0006512    -0.0047446   -0.1605669 
   0.134883717    -0.0187028   -0.1690832     0.0007749    0.0010672     0.0005489    0.0003919    -0.0050215   -0.1603707 
   0.134983742    -0.0183697   -0.1685547     0.0005771    0.0004663     0.0004209    0.0006008    -0.0055697   -0.1602557 
   0.135083767    -0.0178446   -0.1685246     0.0004807    0.0008058     0.0006441    0.0004213    -0.0049256   -0.1606248 
   0.135183792    -0.0181506   -0.1682095     0.0006926    0.0002657     0.0004086    0.0005659    -0.0053049   -0.1603377 
   0.135283817    -0.0181057   -0.1683210     0.0004664    0.0003672     0.0003073    0.0005001    -0.0054942   -0.1605646 
   0.135383842    -0.0186908   -0.1672257     0.0006308    0.0004339     0.0004020    0.0005528    -0.0056291   -0.1602859 
   0.135483867    -0.0182121   -0.1667489     0.0004065    0.0006146     0.0006493    0.0006797    -0.0052548   -0.1607663 
   0.135583892    -0.0187391   -0.1671282     0.0002116    0.0005072     0.0003633    0.0005999    -0.0049092   -0.1608445 
   0.135683917    -0.0187697   -0.1678587     0.0002633    0.0005407     0.0004143    0.0004406    -0.0054103   -0.1607939 
   0.135783942    -0.0180141   -0.1678982     0.0005952    0.0002832     0.0004025    0.0004769    -0.0055770   -0.1602908 
   0.135883967    -0.0189779   -0.1674126     0.0006432    0.0005954     0.0007731    0.0006953    -0.0056717   -0.1598764 
   0.135983992    -0.0183855   -0.1666303     0.0009125    0.0000796     0.0007035    0.0002688    -0.0057100   -0.1603852 
   0.136084017    -0.0185883   -0.1665054     0.0002304    0.0007741     0.0005117    0.0003653    -0.0057107   -0.1603794 
   0.136184042    -0.0182516   -0.1667242     0.0006674    0.0008443     0.0004789    0.0005052    -0.0058288   -0.1604002 
   0.136284067    -0.0185994   -0.1660165     0.0008674    0.0004862     0.0004590    0.0003992    -0.0061610   -0.1598850 
   0.136384092    -0.0181585   -0.1661105     0.0004499    0.0007334     0.0006923    0.0007168    -0.0063812   -0.1596405 
   0.136484117    -0.0188182   -0.1661323     0.0004906    0.0008101     0.0004367    0.0004612    -0.0059804   -0.1603482 
   0.136584142    -0.0191612   -0.1661359     0.0003616    0.0001921     0.0005479    0.0005665    -0.0060173   -0.1596116 
   0.136684167    -0.0189988   -0.1657201     0.0005396    0.0004071     0.0004585    0.0005546    -0.0063260   -0.1597512 
   0.136784192    -0.0189879   -0.1651003     0.0005162    0.0006542     0.0005916    0.0008025    -0.0063221   -0.1597809 
   0.136884217    -0.0176565   -0.1655711     0.0008086    0.0006219     0.0006145    0.0005904    -0.0072272   -0.1598542 
   0.136984242    -0.0187039   -0.1661409     0.0003385    0.0007474     0.0004739    0.0005391    -0.0068484   -0.1597370 
   0.137084267    -0.0188845   -0.1648873     0.0006558    0.0004314     0.0004599    0.0006020    -0.0069449   -0.1597385 
   0.137184292    -0.0190290   -0.1646676     0.0007823    0.0006134     0.0009196    0.0005565    -0.0072770   -0.1594680 
   0.137284317    -0.0185493   -0.1643270     0.0003298    0.0007077     0.0004900    0.0004859    -0.0067658   -0.1592500 
   0.137384342    -0.0183823   -0.1641485     0.0004066    0.0004739     0.0004258    0.0005700    -0.0066358   -0.1594342 
   0.137484367    -0.0200450   -0.1648757     0.0006973    0.0008750     0.0005344    0.0004859    -0.0070210   -0.1597763 
   0.137584392    -0.0191650   -0.1636898     0.0005358    0.0003175     0.0004915    0.0004918    -0.0071712   -0.1596035 
   0.137684417    -0.0193348   -0.1638656     0.0004917    0.0006328     0.0006451    0.0006015    -0.0067622   -0.1590834 
   0.137784442    -0.0189461   -0.1641129     0.0006662    0.0003659     0.0005389    0.0004782    -0.0071655   -0.1590686 
   0.137884467    -0.0181602   -0.1634590     0.0007324    0.0002469     0.0003412    0.0007770    -0.0074748   -0.1598532 
   0.137984492    -0.0192045   -0.1628781     0.0002706    0.0006838     0.0005027    0.0004615    -0.0076956   -0.1592183 
   0.138084517    -0.0189636   -0.1625473     0.0005906    0.0004272     0.0007179    0.0005877    -0.0069612   -0.1593251 
   0.138184542    -0.0192167   -0.1621146     0.0005239    0.0005095     0.0006985    0.0005367    -0.0074298   -0.1594259 
   0.138284567    -0.0194135   -0.1621267     0.0005888    0.0006881     0.0005848    0.0004839    -0.0075566   -0.1591660 
   0.138384592    -0.0188972   -0.1625174     0.0004067    0.0003334     0.0003674    0.0006159    -0.0077570   -0.1592253 
   0.138484617    -0.0189095   -0.1623341     0.0005557    0.0007534     0.0003361    0.0004023    -0.0074572   -0.1590665 
   0.138584642    -0.0189949   -0.1618780     0.0006799    0.0008328     0.0005160    0.0007761    -0.0079976   -0.1591277 
   0.138684667    -0.0198119   -0.1624166     0.0003026    0.0002539     0.0003918    0.0005118    -0.0081053   -0.1589446 
   0.138784692    -0.0185476   -0.1624669     0.0005295    0.0005061     0.0006465    0.0006028    -0.0081457   -0.1592476 
   0.138884717    -0.0183232   -0.1619302     0.0004749    0.0003998     0.0005048    0.0004519    -0.0078372   -0.1588099 
   0.138984742    -0.0195378   -0.1617145     0.0001499    0.0007756     0.0004854    0.0007346    -0.0080520   -0.1584832 
   0.139084767    -0.0196898   -0.1610436     0.0003732    0.0007904     0.0006246    0.0005921    -0.0082656   -0.1588152 
   0.139184792    -0.0194247   -0.1607431     0.0006861    0.0004551     0.0007036    0.0006421    -0.0085521   -0.1586250 
   0.139284817    -0.0192269   -0.1607392     0.0003551    0.0004192     0.0005909    0.0002720    -0.0078713   -0.1585982 
   0.139384842    -0.0188931   -0.1612553     0.0005687    0.0002497     0.0003737    0.0006157    -0.0083652   -0.1587517 
   0.139484867    -0.0191276   -0.1608844     0.0007184    0.0009686     0.0006444    0.0006282    -0.0088438   -0.1585438 
   0.139584892    -0.0192014   -0.1610801     0.0001868    0.0005197     0.0002781    0.0005510    -0.0078276   -0.1586896 
   0.139684917    -0.0193017   -0.1604681     0.0005916    0.0006238     0.0005488    0.0006302    -0.0089715   -0.1588837 
   0.139784942    -0.0188034   -0.1605138     0.0009408    0.0006574     0.0005455    0.0004257    -0.0089851   -0.1590815 
   0.139884967    -0.0198160   -0.1599821     0.0007159    0.0004012     0.0005691    0.0003660    -0.0089449   -0.1587287 
   0.139984992    -0.0196375   -0.1591347     0.0006872    0.0004968     0.0005291    0.0006576    -0.0084616   -0.1582781 
   0.140085018    -0.0188156   -0.1599756     0.0006862    0.0005813     0.0005007    0.0004866    -0.0087747   -0.1581815 
   0.140185043    -0.0192556   -0.1593761     0.0008045    0.0005283     0.0004851    0.0008320    -0.0093245   -0.1579402 
   0.140285068    -0.0190585   -0.1586390     0.0005896    0.0006411     0.0006002    0.0005004    -0.0085931   -0.1584986 
   0.140385093    -0.0190217   -0.1591300     0.0007756    0.0006720     0.0006921    0.0003935    -0.0087107   -0.1585745 
   0.140485118    -0.0192646   -0.1586797     0.0005220    0.0005010     0.0006010    0.0004884    -0.0095660   -0.1575665 
   0.140585143    -0.0191528   -0.1590123     0.0006780    0.0004252     0.0006255    0.0004597    -0.0091036   -0.1582457 
   0.140685168    -0.0194480   -0.1590061     0.0006263    0.0010122     0.0006530    0.0005667    -0.0097178   -0.1582988 
   0.140785193    -0.0188234   -0.1587429     0.0006976    0.0005130     0.0005606    0.0006941    -0.0095326   -0.1579084 
   0.140885218    -0.0190615   -0.1585911     0.0005977    0.0009426     0.0005154    0.0004774    -0.0094592   -0.1577763 
   0.140985243    -0.0187187   -0.1576569     0.0004213    0.0006506     0.0003264    0.0003374    -0.0095708   -0.1582038 
   0.141085268    -0.0191305   -0.1585008     0.0008262    0.0003316     0.0004844    0.0005644    -0.0096962   -0.1585368 
   0.141185293    -0.0195446   -0.1579308     0.0006605    0.0006800     0.0004125    0.0004218    -0.0098646   -0.1575115 
   0.141285318    -0.0195931   -0.1577213     0.0006586    0.0006112     0.0005193    0.0005798    -0.0101973   -0.1578326 
   0.141385343    -0.0199257   -0.1574315     0.0007488    0.0005603     0.0006879    0.0006393    -0.0105936   -0.1579798 
   0.141485368    -0.0187030   -0.1569370     0.0007528    0.0004767     0.0004235    0.0006330    -0.0101063   -0.1582447 
   0.141585393    -0.0189553   -0.1571698     0.0009163    0.0002894     0.0007181    0.0003670    -0.0098850   -0.1578223 
   0.141685418    -0.0196513   -0.1577832     0.0005416    0.0003095     0.0005423    0.0004495    -0.0102371   -0.1578250 
   0.141785443    -0.0200297   -0.1565370     0.0006244    0.0004564     0.0007792    0.0005588    -0.0100346   -0.1570790 
   0.141885468    -0.0188221   -0.1562758     0.0005833    0.0004625     0.0006882    0.0005051    -0.0102887   -0.1574731 
   0.141985493    -0.0193185   -0.1556128     0.0005453    0.0008010     0.0006195    0.0005166    -0.0109530   -0.1578275 
   0.142085518    -0.0200030   -0.1563317     0.0008171    0.0010546     0.0006224    0.0007531    -0.0109969   -0.1577858 
   0.142185543    -0.0202941   -0.1562214     0.0008083    0.0007099     0.0007411    0.0005539    -0.0111143   -0.1577525 
   0.142285568    -0.0190626   -0.1562461     0.0004553    0.0005368     0.0005341    0.0008141    -0.0110878   -0.1576764 
   0.142385593    -0.0193656   -0.1559336     0.0007924    0.0004997     0.0005132    0.0005572    -0.0107285   -0.1572579 
   0.142485618    -0.0198743   -0.1558969     0.0007818    0.0007795     0.0006418    0.0005027    -0.0114991   -0.1574195 
   0.142585643    -0.0193756   -0.1546358     0.0006897    0.0005932     0.0006332    0.0007529    -0.0108669   -0.1575524 
   0.142685668    -0.0193476   -0.1558922     0.0004730    0.0002831     0.0005745    0.0005852    -0.0110968   -0.1574360 
   0.142785693    -0.0199517   -0.1552315     0.0008838    0.0005046     0.0007116    0.0004684    -0.0112597   -0.1570887 
   0.142885718    -0.0193959   -0.1544056     0.0006590    0.0005410     0.0005443    0.0005990    -0.0114734   -0.1571128 
   0.142985743    -0.0193212   -0.1545881     0.0006337    0.0003587     0.0007648    0.0007649    -0.0111909   -0.1573886 
   0.143085768    -0.0189933   -0.1549024     0.0006190    0.0008347     0.0006258    0.0006523    -0.0114451   -0.1571372 
   0.143185793    -0.0195547   -0.1542465     0.0005770    0.0005199     0.0005503    0.0006435    -0.0120364   -0.1572241 
   0.143285818    -0.0191978   -0.1545694     0.0006542    0.0001627     0.0005303    0.0005244    -0.0117170   -0.1568499 
   0.143385843    -0.0196849   -0.1547109     0.0005546    0.0003283     0.0004821    0.0006202    -0.0114496   -0.1568215 
   0.143485868    -0.0191607   -0.1545726     0.0004630    0.0002854     0.0005223    0.0005139    -0.0113605   -0.1569256 
   0.143585893    -0.0194871   -0.1543099     0.0008768    0.0005990     0.0005629    0.0003858    -0.0123256   -0.1571181 
   0.143685918    -0.0196333   -0.1528222     0.0009142    0.0004930     0.0006644    0.0003998    -0.0118384   -0.1571464 
   0.143785943    -0.0199655   -0.1533886     0.0002861    0.0005491     0.0007321    0.0006076    -0.0125327   -0.1571966 
   0.143885968    -0.0195513   -0.1535908     0.0008120   -0.0000602     0.0005526    0.0003941    -0.0117060   -0.1571254 
   0.143985993    -0.0199939   -0.1531919     0.0007750    0.0002984     0.0005392    0.0005088    -0.0121656   -0.1567868 
   0.144086018    -0.0191742   -0.1533512     0.0007253    0.0004579     0.0004684    0.0004561    -0.0116683   -0.1570123 
   0.144186043    -0.0197913   -0.1533461     0.0003306    0.0004051     0.0007162    0.0006060    -0.0130277   -0.1565628 
   0.144286068    -0.0191378   -0.1524216     0.0009372    0.0006973     0.0006648    0.0004922    -0.0121442   -0.1566398 
   0.144386093    -0.0194716   -0.1525071     0.0004797    0.0008975     0.0005589    0.0004945    -0.0119675   -0.1573874 
   0.144486118    -0.0196356   -0.1522380     0.0007015    0.0009026     0.0004800    0.0003566    -0.0125149   -0.1566633 
   0.144586143    -0.0200694   -0.1520641     0.0009856    0.0008789     0.0006536    0.0007376    -0.0130490   -0.1564161 
   0.144686168    -0.0194844   -0.1512351     0.0007451    0.0007046     0.0004190    0.0006249    -0.0123206   -0.1559145 
   0.144786193    -0.0194333   -0.1520236     0.0006296    0.0004610     0.0006568    0.0004582    -0.0130333   -0.1564565 
   0.144886218    -0.0202856   -0.1515700     0.0009127   -0.0001494     0.0004814    0.0004978    -0.0124742   -0.1565677 
   0.144986243    -0.0194284   -0.1513050     0.0003656    0.0008106     0.0008573    0.0005806    -0.0125296   -0.1563602 
   0.145086268    -0.0196401   -0.1512495     0.0004128    0.0001950     0.0006663    0.0006396    -0.0126653   -0.1568125 
   0.145186293    -0.0197635   -0.1511255     0.0004777    0.0003113     0.0006441    0.0005081    -0.0129736   -0.1566892 
   0.145286318    -0.0200973   -0.1512519     0.0008053    0.0004072     0.0003448    0.0007210    -0.0128312   -0.1562439 
   0.145386343    -0.0198465   -0.1508497     0.0005854    0.0006840     0.0004211    0.0006355    -0.0134151   -0.1561704 
   0.145486368    -0.0198558   -0.1501856     0.0008758    0.0006020     0.0007727    0.0007231    -0.0133632   -0.1557368 
   0.145586393    -0.0190792   -0.1505875     0.0004491    0.0006277     0.0006336    0.0007835    -0.0134411   -0.1563720 
   0.145686418    -0.0197687   -0.1507698     0.0006525    0.0006910     0.0005450    0.0005272    -0.0135990   -0.1560803 
   0.145786443    -0.0191252   -0.1502280     0.0007049    0.0004637     0.0004755    0.0005719    -0.0130154   -0.1556692 
   0.145886468    -0.0192785   -0.1498047     0.0003611    0.0006093     0.0004836    0.0004782    -0.0137043   -0.1562782 
   0.145986493    -0.0198373   -0.1502895     0.0009962    0.0011173     0.0007208    0.0002610    -0.0137311   -0.1554261 
   0.146086518    -0.0196694   -0.1498309     0.0004666    0.0005916     0.0005254    0.0009592    -0.0136532   -0.1556631 
   0.146186543    -0.0196129   -0.1495692     0.0007573    0.0004844     0.0007113    0.0006448    -0.0136558   -0.1559520 
   0.146286568    -0.0206745   -0.1500479     0.0007579    0.0008403     0.0007151    0.0004947    -0.0140347   -0.1559236 
   0.146386593    -0.0202298   -0.1500527     0.0006041    0.0008975     0.0005290    0.0007648    -0.0141697   -0.1555896 
   0.146486618    -0.0200537   -0.1490825     0.0004994    0.0004051     0.0008486    0.0006325    -0.0142180   -0.1564284 
   0.146586643    -0.0198588   -0.1489070     0.0004591    0.0009090     0.0008907    0.0006856    -0.0142129   -0.1554259 
   0.146686668    -0.0191345   -0.1488609     0.0001986    0.0005220     0.0007328    0.0004648    -0.0142942   -0.1555039 
   0.146786693    -0.0208870   -0.1489666     0.0007853    0.0002935     0.0004491    0.0005411    -0.0141093   -0.1554441 
   0.146886718    -0.0193176   -0.1481617     0.0005863    0.0005849     0.0005546    0.0004352    -0.0144852   -0.1552015 
   0.146986743    -0.0197318   -0.1481600     0.0008619    0.0007966     0.0007215    0.0003949    -0.0146831   -0.1553136 
   0.147086768    -0.0208127   -0.1473814     0.0005469    0.0004153     0.0003723    0.0004139    -0.0148577   -0.1555618 
   0.147186793    -0.0199358   -0.1486314     0.0003331    0.0005737     0.0007085    0.0004179    -0.0150527   -0.1556610 
   0.147286818    -0.0194648   -0.1476672     0.0007724    0.0011083     0.0006490    0.0005275    -0.0144741   -0.1553279 
   0.147386843    -0.0198814   -0.1471394     0.0007548    0.0004427     0.0008403    0.0006662    -0.0151197   -0.1561584 
   0.147486868    -0.0204931   -0.1477123     0.0007122    0.0005057     0.0002900    0.0007106    -0.0145744   -0.1555960 
   0.147586893    -0.0202996   -0.1475274     0.0004033    0.0008840     0.0003381    0.0006017    -0.0152980   -0.1551792 
   0.147686918    -0.0203395   -0.1469931     0.0005351    0.0007816     0.0009069    0.0006134    -0.0152030   -0.1556675 
   0.147786943    -0.0204653   -0.1463349     0.0005478    0.0002385     0.0005708    0.0007338    -0.0147321   -0.1549471 
   0.147886968    -0.0194290   -0.1462573     0.0003853    0.0002976     0.0005891    0.0006013    -0.0151458   -0.1551903 
   0.147986993    -0.0204762   -0.1468417     0.0008626    0.0004101     0.0005810    0.0007007    -0.0153630   -0.1547037 
   0.148087019    -0.0195935   -0.1471522     0.0008092    0.0005766     0.0007774    0.0005099    -0.0152935   -0.1554018 
   0.148187044    -0.0205039   -0.1464820     0.0004976    0.0003290     0.0006923    0.0005832    -0.0152900   -0.1549578 
   0.148287069    -0.0195133   -0.1475272     0.0000214    0.0004497     0.0006176    0.0005398    -0.0157544   -0.1549620 
   0.148387094    -0.0194840   -0.1461965     0.0008848    0.0006468     0.0005892    0.0008793    -0.0153892   -0.1549371 
   0.148487119    -0.0200502   -0.1464804     0.0005836    0.0008512     0.0007637    0.0005001    -0.0160022   -0.1547607 
   0.148587144    -0.0198313   -0.1466820     0.0003559    0.0004309     0.0003851    0.0006427    -0.0150876   -0.1553387 
   0.148687169    -0.0200918   -0.1461992     0.0005361    0.0009287     0.0007596    0.0007357    -0.0161286   -0.1548758 
   0.148787194    -0.0193561   -0.1449538     0.0007288    0.0007558     0.0005666    0.0004695    -0.0159151   -0.1552167 
   0.148887219    -0.0200115   -0.1456761     0.0006537    0.0006833     0.0006563    0.0007522    -0.0161622   -0.1546886 
   0.148987244    -0.0201139   -0.1448655     0.0007811    0.0005700     0.0006967    0.0005929    -0.0157358   -0.1552985 
   0.149087269    -0.0190005   -0.1449386     0.0007558    0.0004190     0.0006009    0.0003568    -0.0162439   -0.1544797 
   0.149187294    -0.0204842   -0.1447675     0.0005110    0.0006845     0.0006330    0.0006014    -0.0160706   -0.1554995 
   0.149287319    -0.0203777   -0.1447707     0.0008482    0.0007907     0.0004688    0.0005311    -0.0162349   -0.1549510 
   0.149387344    -0.0197339   -0.1446895     0.0006230    0.0006320     0.0006496    0.0003885    -0.0160991   -0.1545254 
   0.149487369    -0.0207236   -0.1444415     0.0005906    0.0007364     0.0006664    0.0003779    -0.0162548   -0.1550320 
   0.149587394    -0.0205650   -0.1436894     0.0005441    0.0002804     0.0007117    0.0004587    -0.0164806   -0.1552286 
   0.149687419    -0.0195236   -0.1447078     0.0006682    0.0004588     0.0008448    0.0007108    -0.0167849   -0.1551217 
   0.149787444    -0.0201818   -0.1438300     0.0005329    0.0008047     0.0007983    0.0008355    -0.0166535   -0.1537379 
   0.149887469    -0.0198150   -0.1445009     0.0007561    0.0005171     0.0006470    0.0005513    -0.0165526   -0.1544594 
   0.149987494    -0.0197631   -0.1437569     0.0007542    0.0005775     0.0007912    0.0003755    -0.0167969   -0.1542333 
   0.150087519    -0.0206668   -0.1436811     0.0006637    0.0003915     0.0006021    0.0005833    -0.0167288   -0.1547679 
   0.150187544    -0.0196415   -0.1440273     0.0006893    0.0004165     0.0008719    0.0005285    -0.0167768   -0.1539053 
   0.150287569    -0.0197736   -0.1429126     0.0007349    0.0004309     0.0008107    0.0006073    -0.0171077   -0.1544505 
   0.150387594    -0.0199831   -0.1433630     0.0001591    0.0004599     0.0005207    0.0005989    -0.0165129   -0.1547341 
   0.150487619    -0.0212457   -0.1425967     0.0001408    0.0005950     0.0008761    0.0005581    -0.0169697   -0.1542310 
   0.150587644    -0.0203188   -0.1425677     0.0009923    0.0005246     0.0008637    0.0005904    -0.0174688   -0.1541165 
   0.150687669    -0.0202361   -0.1421844     0.0004992   -0.0000281     0.0006932    0.0002780    -0.0169576   -0.1546465 
   0.150787694    -0.0191931   -0.1422289     0.0004235    0.0005607     0.0006387    0.0006826    -0.0173530   -0.1543263 
   0.150887719    -0.0206390   -0.1428663     0.0005360    0.0006991     0.0006933    0.0004807    -0.0173698   -0.1542334 
   0.150987744    -0.0190387   -0.1419337     0.0011241    0.0002345     0.0007114    0.0006712    -0.0175117   -0.1542228 
   0.151087769    -0.0200282   -0.1421719     0.0007697    0.0002697     0.0006409    0.0008447    -0.0179476   -0.1539434 
   0.151187794    -0.0198948   -0.1414032     0.0010290    0.0002168     0.0005889    0.0004844    -0.0175445   -0.1543400 
   0.151287819    -0.0198145   -0.1418792     0.0004581    0.0004997     0.0005014    0.0005507    -0.0171046   -0.1538294 
   0.151387844    -0.0202493   -0.1415081     0.0007124    0.0000882     0.0008161    0.0004092    -0.0173547   -0.1541964 
   0.151487869    -0.0200419   -0.1412761     0.0004497    0.0003802     0.0007471    0.0005152    -0.0175068   -0.1538444 
   0.151587894    -0.0201939   -0.1413563     0.0008601    0.0006706     0.0006522    0.0006449    -0.0180305   -0.1538327 
   0.151687919    -0.0203543   -0.1406098     0.0006977    0.0008440     0.0004539    0.0004620    -0.0174088   -0.1534165 
   0.151787944    -0.0195144   -0.1404629     0.0008602    0.0005121     0.0007444    0.0007200    -0.0178508   -0.1534126 
   0.151887969    -0.0191470   -0.1409720     0.0005027    0.0007430     0.0005874    0.0004109    -0.0178295   -0.1539376 
   0.151987994    -0.0201830   -0.1410324     0.0006495    0.0006191     0.0007068    0.0007735    -0.0180634   -0.1534864 
   0.152088019    -0.0201041   -0.1403665     0.0006941    0.0007195     0.0007847    0.0005714    -0.0183724   -0.1536726 
   0.152188044    -0.0196880   -0.1397900     0.0007786    0.0001978     0.0007995    0.0006473    -0.0183804   -0.1532900 
   0.152288069    -0.0199773   -0.1404524     0.0006485    0.0004909     0.0007853    0.0004735    -0.0183644   -0.1535434 
   0.152388094    -0.0199208   -0.1406227     0.0006391    0.0003873     0.0007163    0.0006484    -0.0188209   -0.1536058 
   0.152488119    -0.0194485   -0.1395513     0.0008197    0.0006462     0.0004483    0.0006035    -0.0190658   -0.1533835 
   0.152588144    -0.0196001   -0.1394857     0.0006666    0.0006505     0.0007285    0.0004498    -0.0190146   -0.1533730 
   0.152688169    -0.0200801   -0.1393316     0.0011121    0.0008211     0.0008551    0.0004654    -0.0190583   -0.1536416 
   0.152788194    -0.0201306   -0.1393704     0.0007022    0.0007791     0.0005713    0.0007222    -0.0189015   -0.1530053 
   0.152888219    -0.0194787   -0.1394580     0.0009140    0.0004558     0.0006753    0.0005472    -0.0192716   -0.1530488 
   0.152988244    -0.0193123   -0.1387081     0.0006911    0.0006111     0.0009915    0.0002939    -0.0191674   -0.1539374 
   0.153088269    -0.0205590   -0.1389848     0.0006423    0.0008258     0.0005755    0.0006030    -0.0186813   -0.1532609 
   0.153188294    -0.0203000   -0.1383012     0.0002675    0.0005181     0.0006054    0.0005784    -0.0194263   -0.1532315 
   0.153288319    -0.0198768   -0.1390177     0.0007597    0.0005517     0.0008458    0.0005341    -0.0185855   -0.1530093 
   0.153388344    -0.0191641   -0.1388224     0.0007363    0.0000765     0.0007179    0.0006427    -0.0193076   -0.1525462 
   0.153488369    -0.0196546   -0.1383958     0.0009538    0.0006946     0.0008595    0.0006029    -0.0190093   -0.1527326 
   0.153588394    -0.0199162   -0.1378249     0.0004685    0.0004722     0.0008078    0.0003177    -0.0193166   -0.1526634 
   0.153688419    -0.0196529   -0.1379067     0.0005568    0.0008000     0.0007985    0.0004601    -0.0195463   -0.1530343 
   0.153788444    -0.0199590   -0.1371890     0.0007819    0.0003377     0.0008023    0.0005233    -0.0198765   -0.1531187 
   0.153888469    -0.0204735   -0.1382244     0.0008231    0.0002215     0.0005075    0.0003375    -0.0197515   -0.1530342 
   0.153988494    -0.0192897   -0.1371904     0.0007822    0.0005328     0.0007914    0.0003313    -0.0194328   -0.1522404 
   0.154088519    -0.0201526   -0.1377556     0.0002614    0.0007140     0.0007974    0.0007764    -0.0204470   -0.1524364 
   0.154188544    -0.0196564   -0.1363906     0.0005239    0.0005325     0.0006210    0.0005535    -0.0199444   -0.1526880 
   0.154288569    -0.0197886   -0.1369615     0.0012210    0.0005957     0.0006643    0.0007161    -0.0200861   -0.1528494 
   0.154388594    -0.0193414   -0.1364320     0.0005696    0.0001998     0.0004502    0.0006155    -0.0199046   -0.1520226 
   0.154488619    -0.0197454   -0.1369041     0.0008695    0.0006656     0.0006620    0.0006257    -0.0196854   -0.1524633 
   0.154588644    -0.0202684   -0.1365454     0.0009726    0.0007466     0.0005481    0.0005323    -0.0199479   -0.1522288 
   0.154688669    -0.0198546   -0.1365522     0.0006045    0.0002061     0.0007903    0.0005164    -0.0205126   -0.1524870 
   0.154788694    -0.0195263   -0.1365635     0.0009762    0.0008222     0.0006681    0.0004612    -0.0206652   -0.1525107 
   0.154888719    -0.0201567   -0.1360325     0.0008438    0.0004303     0.0008954    0.0004397    -0.0201498   -0.1526014 
   0.154988744    -0.0188899   -0.1359849     0.0004269    0.0003131     0.0006288    0.0007904    -0.0206634   -0.1524751 
   0.155088769    -0.0196792   -0.1355695     0.0006968    0.0004140     0.0008728    0.0003764    -0.0204702   -0.1524911 
   0.155188794    -0.0194673   -0.1350730     0.0010650    0.0006372     0.0007700    0.0003680    -0.0208614   -0.1520659 
   0.155288819    -0.0195115   -0.1351365     0.0003234    0.0003664     0.0003653    0.0005307    -0.0212894   -0.1524333 
   0.155388844    -0.0191006   -0.1358350     0.0002647    0.0008965     0.0006092    0.0005599    -0.0206235   -0.1518252 
   0.155488869    -0.0197392   -0.1348744     0.0008443    0.0006914     0.0004949    0.0007400    -0.0208164   -0.1525053 
   0.155588894    -0.0198730   -0.1351273     0.0007935    0.0003579     0.0004803    0.0005176    -0.0210421   -0.1524620 
   0.155688919    -0.0205322   -0.1349193     0.0006205    0.0003981     0.0005555    0.0004311    -0.0213074   -0.1519547 
   0.155788944    -0.0194711   -0.1349089     0.0010786    0.0004464     0.0007254    0.0004486    -0.0205205   -0.1517770 
   0.155888969    -0.0190879   -0.1348225     0.0001440    0.0005632     0.0007584    0.0005524    -0.0213032   -0.1520697 
   0.155988994    -0.0197573   -0.1357511     0.0007779    0.0004144     0.0006341    0.0005441    -0.0211234   -0.1519761 
   0.156089020    -0.0195668   -0.1350047     0.0005473    0.0006045     0.0005864    0.0007154    -0.0215878   -0.1516869 
   0.156189045    -0.0200553   -0.1341185     0.0001300    0.0007376     0.0005626    0.0005976    -0.0208476   -0.1519984 
   0.156289070    -0.0203447   -0.1341880     0.0005479    0.0005473     0.0007432    0.0006452    -0.0212240   -0.1513708 
   0.156389095    -0.0194413   -0.1337536     0.0002327    0.0004370     0.0006872    0.0004870    -0.0214145   -0.1521322 
   0.156489120    -0.0196461   -0.1343641     0.0005687    0.0009570     0.0007538    0.0006128    -0.0217443   -0.1518335 
   0.156589145    -0.0196776   -0.1336458     0.0005805    0.0002147     0.0007873    0.0006209    -0.0213412   -0.1513198 
   0.156689170    -0.0190790   -0.1341437     0.0009343    0.0006086     0.0007668    0.0004308    -0.0219943   -0.1511654 
   0.156789195    -0.0197334   -0.1340096     0.0008294    0.0003977     0.0005805    0.0005359    -0.0215208   -0.1517480 
   0.156889220    -0.0196612   -0.1335568     0.0007355    0.0008107     0.0006480    0.0004588    -0.0216799   -0.1519054 
   0.156989245    -0.0195769   -0.1333483     0.0002813    0.0003740     0.0008499    0.0004002    -0.0220739   -0.1514739 
   0.157089270    -0.0205166   -0.1333436     0.0009225    0.0005200     0.0006442    0.0004217    -0.0222575   -0.1520116 
   0.157189295    -0.0198630   -0.1326702     0.0009952    0.0005283     0.0005527    0.0005255    -0.0220370   -0.1513427 
   0.157289320    -0.0192411   -0.1332085     0.0008817    0.0004022     0.0007951    0.0006093    -0.0222216   -0.1515176 
   0.157389345    -0.0193500   -0.1325709     0.0010228    0.0003359     0.0005188    0.0007094    -0.0229935   -0.1515485 
   0.157489370    -0.0193919   -0.1326598     0.0005195    0.0004782     0.0008561    0.0006061    -0.0223714   -0.1505294 
   0.157589395    -0.0199301   -0.1324777     0.0007614    0.0007927     0.0008471    0.0004788    -0.0220296   -0.1512040 
   0.157689420    -0.0189631   -0.1326479     0.0009102    0.0006182     0.0007719    0.0005626    -0.0225537   -0.1511385 
   0.157789445    -0.0187511   -0.1325720     0.0004717    0.0008396     0.0007625    0.0004490    -0.0223989   -0.1514089 
   0.157889470    -0.0197110   -0.1324064     0.0010837    0.0004746     0.0007740    0.0006306    -0.0223563   -0.1515559 
   0.157989495    -0.0192392   -0.1317980     0.0004627    0.0005549     0.0007426    0.0002871    -0.0234877   -0.1514319 
   0.158089520    -0.0190774   -0.1314166     0.0007664    0.0006909     0.0007944    0.0006135    -0.0221731   -0.1515563 
   0.158189545    -0.0191535   -0.1311803     0.0008480    0.0005813     0.0006744    0.0005713    -0.0233811   -0.1507620 
   0.158289570    -0.0197985   -0.1312536     0.0009384    0.0005008     0.0007426    0.0004788    -0.0221566   -0.1515027 
   0.158389595    -0.0190188   -0.1309143     0.0008965    0.0006685     0.0006382    0.0003935    -0.0225999   -0.1510412 
   0.158489620    -0.0201633   -0.1305465     0.0009944    0.0001393     0.0007912    0.0002683    -0.0237058   -0.1510952 
   0.158589645    -0.0196882   -0.1309791     0.0005763    0.0004302     0.0006441    0.0007255    -0.0235776   -0.1510225 
   0.158689670    -0.0199135   -0.1316982     0.0005786    0.0006534     0.0007914    0.0005515    -0.0234105   -0.1508672 
   0.158789695    -0.0194006   -0.1317782     0.0007597    0.0006686     0.0006364    0.0008363    -0.0233350   -0.1504578 
   0.158889720    -0.0192801   -0.1304733     0.0004026    0.0005969     0.0006412    0.0004718    -0.0231257   -0.1509045 
   0.158989745    -0.0197430   -0.1300918     0.0008365    0.0004245     0.0006684    0.0005260    -0.0234548   -0.1506078 
   0.159089770    -0.0191044   -0.1303303     0.0006392    0.0004743     0.0006908    0.0003103    -0.0231112   -0.1506094 
   0.159189795    -0.0194790   -0.1300565     0.0008819    0.0004382     0.0007814    0.0005368    -0.0236776   -0.1497101 
   0.159289820    -0.0195553   -0.1299039     0.0005896    0.0005726     0.0008837    0.0006672    -0.0235915   -0.1503634 
   0.159389845    -0.0197096   -0.1305150     0.0005073    0.0008862     0.0006365    0.0005837    -0.0230163   -0.1504414 
   0.159489870    -0.0196421   -0.1291314     0.0006883    0.0006122     0.0009114    0.0005029    -0.0241966   -0.1505880 
   0.159589895    -0.0191148   -0.1295342     0.0007152    0.0004666     0.0005847    0.0004685    -0.0241272   -0.1508350 
   0.159689920    -0.0194333   -0.1293251     0.0009672    0.0005894     0.0005985    0.0004907    -0.0238277   -0.1507196 
   0.159789945    -0.0192184   -0.1292615     0.0006716    0.0007221     0.0004959    0.0004620    -0.0232914   -0.1501454 
   0.159889970    -0.0194422   -0.1291756     0.0006126    0.0001564     0.0007844    0.0007894    -0.0235189   -0.1504392 
   0.159989995    -0.0200759   -0.1297528     0.0005972    0.0006933     0.0007486    0.0004866    -0.0244114   -0.1501315 
   0.160090020    -0.0202714   -0.1289993     0.0010596    0.0004100     0.0007782    0.0004498    -0.0237766   -0.1504478 
   0.160190045    -0.0188093   -0.1276120     0.0006153    0.0007522     0.0005608    0.0004395    -0.0241530   -0.1497029 
   0.160290070    -0.0196417   -0.1287811     0.0009564   -0.0000521     0.0006035    0.0004646    -0.0242725   -0.1502230 
   0.160390095    -0.0197990   -0.1286008     0.0005185    0.0004587     0.0006434    0.0005568    -0.0239309   -0.1502373 
   0.160490120    -0.0189496   -0.1279598     0.0010760    0.0007137     0.0007131    0.0005965    -0.0249279   -0.1500933 
   0.160590145    -0.0184339   -0.1276661     0.0006735    0.0007719     0.0008976    0.0006060    -0.0241123   -0.1495455 
   0.160690170    -0.0190668   -0.1279342     0.0006537    0.0005127     0.0006661    0.0004796    -0.0247522   -0.1506731 
   0.160790195    -0.0197351   -0.1276223     0.0008366    0.0007413     0.0007735    0.0004425    -0.0244515   -0.1497798 
   0.160890220    -0.0182669   -0.1270102     0.0004152    0.0004516     0.0007231    0.0004917    -0.0249040   -0.1498047 
   0.160990245    -0.0196380   -0.1277195     0.0011179    0.0005884     0.0006350    0.0004454    -0.0247475   -0.1491319 
   0.161090270    -0.0198284   -0.1277342     0.0008901    0.0003067     0.0006547    0.0005785    -0.0249056   -0.1499621 
   0.161190295    -0.0201184   -0.1272041     0.0006428    0.0007159     0.0006519    0.0004348    -0.0253610   -0.1495517 
   0.161290320    -0.0190980   -0.1269462     0.0009261    0.0007517     0.0007811    0.0004830    -0.0249859   -0.1500100 
   0.161390345    -0.0194233   -0.1273588     0.0005819    0.0005572     0.0008722    0.0006279    -0.0251953   -0.1494729 
   0.161490370    -0.0193559   -0.1270542     0.0008282    0.0007474     0.0008383    0.0004382    -0.0254550   -0.1494935 
   0.161590395    -0.0199934   -0.1261993     0.0006468    0.0005667     0.0006841    0.0005833    -0.0250007   -0.1502366 
   0.161690420    -0.0186314   -0.1266847     0.0006132    0.0005305     0.0008410    0.0002070    -0.0253077   -0.1494345 
   0.161790445    -0.0191877   -0.1259779     0.0009976    0.0000294     0.0008042    0.0004392    -0.0249999   -0.1494235 
   0.161890470    -0.0202299   -0.1259437     0.0011905    0.0003822     0.0006266    0.0005905    -0.0257772   -0.1497031 
   0.161990495    -0.0194992   -0.1257607     0.0009444    0.0001892     0.0008869    0.0005773    -0.0258428   -0.1493059 
   0.162090520    -0.0196154   -0.1263506     0.0002754    0.0004891     0.0006047    0.0004914    -0.0259728   -0.1490686 
   0.162190545    -0.0194642   -0.1258644     0.0011096    0.0005863     0.0008353    0.0003661    -0.0263590   -0.1495705 
   0.162290570    -0.0191691   -0.1251970     0.0009967    0.0005841     0.0007491    0.0004780    -0.0256699   -0.1497309 
   0.162390595    -0.0184169   -0.1265757     0.0009545    0.0003595     0.0008909    0.0005420    -0.0265265   -0.1494972 
   0.162490620    -0.0188888   -0.1246972     0.0008548    0.0003218     0.0006992    0.0005843    -0.0261463   -0.1496964 
   0.162590645    -0.0192811   -0.1249604     0.0010007    0.0007815     0.0008328    0.0004670    -0.0262460   -0.1494755 
   0.162690670    -0.0193250   -0.1254034     0.0007047    0.0003358     0.0006636    0.0004733    -0.0258209   -0.1489515 
   0.162790695    -0.0197928   -0.1249197     0.0008414    0.0007963     0.0008294    0.0004656    -0.0265378   -0.1492406 
   0.162890720    -0.0177823   -0.1250024     0.0011050    0.0006019     0.0007136    0.0003858    -0.0267546   -0.1489320 
   0.162990745    -0.0188746   -0.1254146     0.0008756    0.0005327     0.0008390    0.0004068    -0.0263221   -0.1488492 
   0.163090770    -0.0189873   -0.1256066     0.0007875    0.0003570     0.0003762    0.0004838    -0.0265607   -0.1493864 
   0.163190795    -0.0184745   -0.1253230     0.0008061    0.0005945     0.0007227    0.0005453    -0.0261124   -0.1488829 
   0.163290820    -0.0192125   -0.1245697     0.0006654    0.0007214     0.0008229    0.0006627    -0.0264172   -0.1486290 
   0.163390845    -0.0187729   -0.1246497     0.0004450    0.0007226     0.0005350    0.0004618    -0.0270248   -0.1488205 
   0.163490870    -0.0195093   -0.1241450     0.0008761    0.0005016     0.0006708    0.0003656    -0.0261858   -0.1486038 
   0.163590895    -0.0190959   -0.1237111     0.0008984    0.0002062     0.0005817    0.0006682    -0.0269752   -0.1488657 
   0.163690920    -0.0188874   -0.1247887     0.0007146    0.0006990     0.0006617    0.0005539    -0.0264757   -0.1489172 
   0.163790945    -0.0194389   -0.1241587     0.0007568    0.0005304     0.0007110    0.0006858    -0.0263208   -0.1485130 
   0.163890970    -0.0187137   -0.1226532     0.0007899    0.0002925     0.0007699    0.0006261    -0.0273504   -0.1483342 
   0.163990995    -0.0188144   -0.1231896     0.0005170    0.0004300     0.0006200    0.0005407    -0.0272464   -0.1486925 
   0.164091021    -0.0189030   -0.1231091     0.0008615    0.0005931     0.0008477    0.0002043    -0.0268842   -0.1483411 
   0.164191046    -0.0194992   -0.1236598     0.0009401    0.0004687     0.0007111    0.0004445    -0.0271027   -0.1483285 
   0.164291071    -0.0183473   -0.1231174     0.0007731    0.0004893     0.0010958    0.0003915    -0.0273450   -0.1483603 
   0.164391096    -0.0190215   -0.1235546     0.0006488    0.0001769     0.0008028    0.0005498    -0.0275324   -0.1480823 
   0.164491121    -0.0193823   -0.1230053     0.0004667    0.0003479     0.0005483    0.0004925    -0.0274007   -0.1486313 
   0.164591146    -0.0191402   -0.1225939     0.0004840    0.0006418     0.0009611    0.0003596    -0.0275373   -0.1481056 
   0.164691171    -0.0188675   -0.1224875     0.0008581    0.0004278     0.0006846    0.0005613    -0.0277213   -0.1478895 
   0.164791196    -0.0185375   -0.1226386     0.0008051    0.0006565     0.0007194    0.0006859    -0.0274286   -0.1480005 
   0.164891221    -0.0194206   -0.1226035     0.0007155    0.0003831     0.0006580    0.0002730    -0.0283675   -0.1477137 
   0.164991246    -0.0190679   -0.1223397     0.0007813    0.0004204     0.0007895    0.0005321    -0.0271234   -0.1473390 
   0.165091271    -0.0180665   -0.1222748     0.0006771    0.0003599     0.0009444    0.0005127    -0.0283215   -0.1484081 
   0.165191296    -0.0198681   -0.1217219     0.0007303    0.0006771     0.0006919    0.0005482    -0.0275961   -0.1480525 
   0.165291321    -0.0187734   -0.1211576     0.0005801    0.0003896     0.0006888    0.0004781    -0.0282876   -0.1479481 
   0.165391346    -0.0187314   -0.1216374     0.0006925    0.0002565     0.0007061    0.0006797    -0.0282953   -0.1480533 
   0.165491371    -0.0187409   -0.1209971     0.0006039    0.0005552     0.0004840    0.0003571    -0.0285202   -0.1472864 
   0.165591396    -0.0186690   -0.1209402     0.0007216    0.0004652     0.0006108    0.0005825    -0.0287774   -0.1474939 
   0.165691421    -0.0190161   -0.1219989     0.0009578    0.0003671     0.0007177    0.0003628    -0.0288007   -0.1477245 
   0.165791446    -0.0185588   -0.1215778     0.0004610    0.0004295     0.0006840    0.0005074    -0.0286894   -0.1479295 
   0.165891471    -0.0180726   -0.1214312     0.0009374    0.0005922     0.0009593    0.0005442    -0.0284149   -0.1479039 
   0.165991496    -0.0179990   -0.1206607     0.0006826    0.0001377     0.0008921    0.0006523    -0.0283381   -0.1479911 
   0.166091521    -0.0182828   -0.1207399     0.0009086    0.0005818     0.0006513    0.0005498    -0.0288153   -0.1474900 
   0.166191546    -0.0190294   -0.1204594     0.0006749    0.0006518     0.0007011    0.0007064    -0.0289660   -0.1481552 
   0.166291571    -0.0184726   -0.1197105     0.0010153    0.0003204     0.0009183    0.0003932    -0.0289309   -0.1475978 
   0.166391596    -0.0192428   -0.1209873     0.0009979    0.0003515     0.0009000    0.0005244    -0.0288924   -0.1476766 
   0.166491621    -0.0182772   -0.1207765     0.0006045    0.0006011     0.0006732    0.0004855    -0.0288308   -0.1477765 
   0.166591646    -0.0183999   -0.1199394     0.0007205    0.0006196     0.0007209    0.0004261    -0.0297435   -0.1467557 
   0.166691671    -0.0188253   -0.1196047     0.0007882    0.0008778     0.0006635    0.0005953    -0.0294635   -0.1470798 
   0.166791696    -0.0183994   -0.1194955     0.0007249    0.0009953     0.0009150    0.0005132    -0.0295264   -0.1467576 
   0.166891721    -0.0184539   -0.1195377     0.0006346    0.0006433     0.0009214    0.0005367    -0.0286020   -0.1469248 
   0.166991746    -0.0184785   -0.1189820     0.0011712    0.0007834     0.0008660    0.0002059    -0.0290757   -0.1476279 
   0.167091771    -0.0187412   -0.1195937     0.0004579    0.0005215     0.0008240    0.0005378    -0.0293184   -0.1472227 
   0.167191796    -0.0180281   -0.1193318     0.0008232    0.0005643     0.0007139    0.0006634    -0.0297517   -0.1462807 
   0.167291821    -0.0186947   -0.1204677     0.0005977    0.0003860     0.0007181    0.0005988    -0.0297044   -0.1475796 
   0.167391846    -0.0181597   -0.1192798     0.0008591    0.0008017     0.0009731    0.0007040    -0.0298100   -0.1472509 
   0.167491871    -0.0182472   -0.1197999     0.0008179    0.0005810     0.0006909    0.0006653    -0.0300929   -0.1471500 
   0.167591896    -0.0187556   -0.1184311     0.0008573    0.0003110     0.0009447    0.0005743    -0.0305711   -0.1468841 
   0.167691921    -0.0187346   -0.1187231     0.0007864    0.0007381     0.0007139    0.0004249    -0.0304634   -0.1470450 
   0.167791946    -0.0181510   -0.1183323     0.0011371    0.0008796     0.0006466    0.0006482    -0.0295224   -0.1467925 
   0.167891971    -0.0194217   -0.1182903     0.0007293    0.0002271     0.0008940    0.0003620    -0.0298195   -0.1466331 
   0.167991996    -0.0183766   -0.1184491     0.0009497    0.0007416     0.0008098    0.0004923    -0.0300612   -0.1466767 
   0.168092021    -0.0176468   -0.1177883     0.0008476    0.0006092     0.0009019    0.0006543    -0.0302588   -0.1467367 
   0.168192046    -0.0185986   -0.1186755     0.0010021    0.0001336     0.0007029    0.0004252    -0.0300050   -0.1470863 
   0.168292071    -0.0188135   -0.1184254     0.0006418    0.0003167     0.0006814    0.0005559    -0.0304156   -0.1469517 
   0.168392096    -0.0182405   -0.1178578     0.0007473    0.0001972     0.0009481    0.0003947    -0.0298060   -0.1473723 
   0.168492121    -0.0174159   -0.1166300     0.0008542    0.0004445     0.0007532    0.0004201    -0.0299368   -0.1468802 
   0.168592146    -0.0185580   -0.1176043     0.0009340    0.0006649     0.0009283    0.0003948    -0.0302748   -0.1468317 
   0.168692171    -0.0181943   -0.1176999     0.0005829    0.0005402     0.0009884    0.0003748    -0.0307592   -0.1464659 
   0.168792196    -0.0174310   -0.1180632     0.0007382    0.0006381     0.0007609    0.0006661    -0.0311651   -0.1464410 
   0.168892221    -0.0184982   -0.1167964     0.0006690    0.0004292     0.0007052    0.0003535    -0.0310665   -0.1462619 
   0.168992246    -0.0188188   -0.1171584     0.0009499    0.0005093     0.0008469    0.0006226    -0.0307207   -0.1461622 
   0.169092271    -0.0185301   -0.1169682     0.0009267    0.0005661     0.0007729    0.0005915    -0.0312129   -0.1461177 
   0.169192296    -0.0186001   -0.1167887     0.0008316    0.0006216     0.0007424    0.0005403    -0.0318186   -0.1461043 
   0.169292321    -0.0177978   -0.1166791     0.0009774    0.0004891     0.0010050    0.0003984    -0.0312072   -0.1452418 
   0.169392346    -0.0184690   -0.1163933     0.0012194    0.0004910     0.0008704    0.0005177    -0.0306061   -0.1463423 
   0.169492371    -0.0178981   -0.1162208     0.0005936    0.0003139     0.0007871    0.0003659    -0.0307648   -0.1455405 
   0.169592396    -0.0182653   -0.1159272     0.0008001    0.0002779     0.0008415    0.0004657    -0.0311608   -0.1455236 
   0.169692421    -0.0175142   -0.1167294     0.0009487    0.0006878     0.0007540    0.0007025    -0.0318732   -0.1465151 
   0.169792446    -0.0178315   -0.1171967     0.0007811    0.0000609     0.0007709    0.0004100    -0.0315942   -0.1460693 
   0.169892471    -0.0183458   -0.1155138     0.0007853    0.0005569     0.0009801    0.0005866    -0.0321753   -0.1453338 
   0.169992496    -0.0187721   -0.1160221     0.0009238    0.0007790     0.0007639    0.0005354    -0.0318871   -0.1453526 
   0.170092521    -0.0171360   -0.1153998     0.0009094    0.0004240     0.0008802    0.0003727    -0.0319075   -0.1456196 
   0.170192546    -0.0181490   -0.1166243     0.0007083    0.0004277     0.0007990    0.0004944    -0.0324048   -0.1456007 
   0.170292571    -0.0184747   -0.1151721     0.0007099    0.0004654     0.0008391    0.0004823    -0.0319801   -0.1452495 
   0.170392596    -0.0181021   -0.1157887     0.0009285    0.0005551     0.0009670    0.0005514    -0.0317615   -0.1456533 
   0.170492621    -0.0182824   -0.1153982     0.0009591    0.0005435     0.0009252    0.0002144    -0.0323645   -0.1454338 
   0.170592646    -0.0171537   -0.1150335     0.0010518    0.0005803     0.0006653    0.0003556    -0.0329584   -0.1459029 
   0.170692671    -0.0176298   -0.1145236     0.0006357    0.0005666     0.0008004    0.0006053    -0.0322282   -0.1458293 
   0.170792696    -0.0181718   -0.1143381     0.0007251    0.0005079     0.0009566    0.0005243    -0.0323500   -0.1457230 
   0.170892721    -0.0180314   -0.1149441     0.0008457    0.0004080     0.0008386    0.0003064    -0.0323311   -0.1456939 
   0.170992746    -0.0176929   -0.1146579     0.0008977    0.0002945     0.0008973    0.0004776    -0.0324244   -0.1447720 
   0.171092771    -0.0174743   -0.1143452     0.0008405    0.0006142     0.0007848    0.0004869    -0.0326765   -0.1451622 
   0.171192796    -0.0183124   -0.1143618     0.0007488    0.0003433     0.0010408    0.0004026    -0.0325184   -0.1458464 
   0.171292821    -0.0179188   -0.1140212     0.0008088    0.0005504     0.0008431    0.0004861    -0.0331226   -0.1449410 
   0.171392846    -0.0166574   -0.1144909     0.0010399    0.0003604     0.0008256    0.0003218    -0.0326701   -0.1454021 
   0.171492871    -0.0171179   -0.1137149     0.0008009    0.0004578     0.0007257    0.0006003    -0.0322583   -0.1448031 
   0.171592896    -0.0169220   -0.1138538     0.0009035    0.0003710     0.0007354    0.0003940    -0.0332848   -0.1445609 
   0.171692921    -0.0169749   -0.1132540     0.0009056    0.0003480     0.0007033    0.0006276    -0.0326672   -0.1450182 
   0.171792946    -0.0185723   -0.1145308     0.0007473    0.0006816     0.0008071    0.0003951    -0.0335950   -0.1451482 
   0.171892971    -0.0181692   -0.1140416     0.0008860    0.0005283     0.0009147    0.0005901    -0.0337588   -0.1451930 
   0.171992996    -0.0173230   -0.1134631     0.0008184    0.0006481     0.0007798    0.0005398    -0.0337733   -0.1452590 
   0.172093022    -0.0171282   -0.1124895     0.0010796    0.0004079     0.0007142    0.0004716    -0.0331312   -0.1449141 
   0.172193047    -0.0175054   -0.1136108     0.0007732    0.0003780     0.0008642    0.0006724    -0.0331841   -0.1451795 
   0.172293072    -0.0181196   -0.1136974     0.0012516    0.0004989     0.0007542    0.0005166    -0.0333829   -0.1446240 
   0.172393097    -0.0176359   -0.1137273     0.0007604    0.0003666     0.0010145    0.0007111    -0.0331255   -0.1454202 
   0.172493122    -0.0166176   -0.1134951     0.0007337    0.0004325     0.0007325    0.0003925    -0.0335816   -0.1450191 
   0.172593147    -0.0173095   -0.1129761     0.0006954    0.0003222     0.0010103    0.0003480    -0.0336792   -0.1450478 
   0.172693172    -0.0170831   -0.1131685     0.0005404    0.0006672     0.0007637    0.0005632    -0.0336527   -0.1444075 
   0.172793197    -0.0173153   -0.1129405     0.0007810    0.0005695     0.0008051    0.0006424    -0.0340380   -0.1442098 
   0.172893222    -0.0179472   -0.1118738     0.0007089    0.0005705     0.0006433    0.0002874    -0.0338870   -0.1440455 
   0.172993247    -0.0169148   -0.1118070     0.0009122    0.0003611     0.0006993    0.0004826    -0.0337934   -0.1448116 
   0.173093272    -0.0176479   -0.1116225     0.0007843    0.0003216     0.0010023    0.0003736    -0.0341974   -0.1440159 
   0.173193297    -0.0177800   -0.1110417     0.0008224    0.0004153     0.0007118    0.0003566    -0.0339284   -0.1443759 
   0.173293322    -0.0170781   -0.1119872     0.0009757    0.0005840     0.0006742    0.0004080    -0.0337140   -0.1440721 
   0.173393347    -0.0179187   -0.1124748     0.0005616    0.0006385     0.0007341    0.0003951    -0.0334745   -0.1445986 
   0.173493372    -0.0178281   -0.1117658     0.0007993    0.0007251     0.0010011    0.0006021    -0.0341699   -0.1446500 
   0.173593397    -0.0169509   -0.1115338     0.0008878    0.0000683     0.0009995    0.0007132    -0.0351602   -0.1438160 
   0.173693422    -0.0169990   -0.1113891     0.0010606    0.0004502     0.0008501    0.0003381    -0.0347215   -0.1442010 
   0.173793447    -0.0164669   -0.1104561     0.0008465    0.0004315     0.0008361    0.0005657    -0.0344536   -0.1438566 
   0.173893472    -0.0169540   -0.1109106     0.0008685    0.0005372     0.0007740    0.0004936    -0.0345099   -0.1446322 
   0.173993497    -0.0167328   -0.1111414     0.0009624    0.0003342     0.0009097    0.0003106    -0.0345121   -0.1436262 
   0.174093522    -0.0177745   -0.1111733     0.0008634    0.0002360     0.0009663    0.0005236    -0.0348106   -0.1440113 
   0.174193547    -0.0164207   -0.1102564     0.0007753    0.0003521     0.0008963    0.0005108    -0.0352821   -0.1442646 
   0.174293572    -0.0167300   -0.1109504     0.0008349    0.0008675     0.0008098    0.0004136    -0.0350551   -0.1433337 
   0.174393597    -0.0165961   -0.1111787     0.0010652    0.0003154     0.0007142    0.0005555    -0.0345597   -0.1427955 
   0.174493622    -0.0173297   -0.1099951     0.0011154    0.0005361     0.0009811    0.0006090    -0.0352606   -0.1441256 
   0.174593647    -0.0175028   -0.1103534     0.0008797    0.0005094     0.0008576    0.0006026    -0.0351915   -0.1436793 
   0.174693672    -0.0164271   -0.1098109     0.0008922    0.0002839     0.0008427    0.0004464    -0.0357813   -0.1438716 
   0.174793697    -0.0177993   -0.1103919     0.0008157    0.0005172     0.0009590    0.0005251    -0.0349801   -0.1446753 
   0.174893722    -0.0170894   -0.1101032     0.0008614    0.0004577     0.0008979    0.0005276    -0.0359823   -0.1440446 
   0.174993747    -0.0168780   -0.1100309     0.0007481    0.0004322     0.0009083    0.0005964    -0.0354799   -0.1437357 
   0.175093772    -0.0167168   -0.1096475     0.0012338    0.0002612     0.0008361    0.0005174    -0.0351236   -0.1436985 
   0.175193797    -0.0173755   -0.1095098     0.0009314    0.0004027     0.0011496    0.0003993    -0.0356951   -0.1436415 
   0.175293822    -0.0168710   -0.1096050     0.0006793    0.0006247     0.0010393    0.0004785    -0.0360074   -0.1435834 
   0.175393847    -0.0159931   -0.1096388     0.0007449    0.0003884     0.0007534    0.0005347    -0.0357837   -0.1437298 
   0.175493872    -0.0157612   -0.1093222     0.0008627    0.0003831     0.0008840    0.0003979    -0.0364565   -0.1431939 
   0.175593897    -0.0164763   -0.1093341     0.0007849    0.0005200     0.0007734    0.0003998    -0.0353883   -0.1428974 
   0.175693922    -0.0163433   -0.1095117     0.0009655    0.0003563     0.0008570    0.0004486    -0.0358530   -0.1433956 
   0.175793947    -0.0171168   -0.1090317     0.0008342    0.0001165     0.0009920    0.0004304    -0.0360520   -0.1433450 
   0.175893972    -0.0172091   -0.1085589     0.0006307    0.0003550     0.0006847    0.0006627    -0.0355981   -0.1433751 
   0.175993997    -0.0171724   -0.1095103     0.0007922    0.0005073     0.0009267    0.0004241    -0.0360991   -0.1427522 
   0.176094022    -0.0156757   -0.1089792     0.0010196    0.0005102     0.0008759    0.0004466    -0.0358666   -0.1425760 
   0.176194047    -0.0166893   -0.1086409     0.0006796    0.0003412     0.0008689    0.0005801    -0.0365331   -0.1426488 
   0.176294072    -0.0167028   -0.1094675     0.0005725    0.0005049     0.0008369    0.0004934    -0.0371711   -0.1425294 
   0.176394097    -0.0173293   -0.1084809     0.0008368    0.0007598     0.0008733    0.0005234    -0.0373181   -0.1426144 
   0.176494122    -0.0161457   -0.1082952     0.0006867    0.0005153     0.0008169    0.0004785    -0.0365971   -0.1428278 
   0.176594147    -0.0162502   -0.1083807     0.0010234    0.0003832     0.0008463    0.0004582    -0.0357099   -0.1425993 
   0.176694172    -0.0162712   -0.1082983     0.0009820    0.0002303     0.0009034    0.0004553    -0.0374157   -0.1426643 
   0.176794197    -0.0171061   -0.1079615     0.0011247    0.0006440     0.0009460    0.0004313    -0.0368164   -0.1426249 
   0.176894222    -0.0164564   -0.1090717     0.0006105    0.0001967     0.0009017    0.0004349    -0.0370318   -0.1421705 
   0.176994247    -0.0156035   -0.1075426     0.0007953    0.0005661     0.0008707    0.0004086    -0.0367165   -0.1426365 
   0.177094272    -0.0161956   -0.1073885     0.0010447    0.0004761     0.0007681    0.0003789    -0.0370065   -0.1421823 
   0.177194297    -0.0164884   -0.1076040     0.0007166    0.0003783     0.0009694    0.0002944    -0.0373497   -0.1430452 
   0.177294322    -0.0164917   -0.1080431     0.0009579    0.0003376     0.0008380    0.0005867    -0.0375647   -0.1424006 
   0.177394347    -0.0165924   -0.1070341     0.0008946    0.0005209     0.0007875    0.0004161    -0.0370730   -0.1415819 
   0.177494372    -0.0158906   -0.1076626     0.0011004    0.0006764     0.0010094    0.0005066    -0.0373454   -0.1422181 
   0.177594397    -0.0161887   -0.1065346     0.0008354    0.0002652     0.0009623    0.0003934    -0.0372001   -0.1424328 
   0.177694422    -0.0165753   -0.1067261     0.0007248    0.0004229     0.0007870    0.0004151    -0.0373492   -0.1421429 
   0.177794447    -0.0152843   -0.1070473     0.0009270    0.0006501     0.0007556    0.0008146    -0.0374495   -0.1418133 
   0.177894472    -0.0162137   -0.1064476     0.0007757    0.0003062     0.0008654    0.0003653    -0.0375332   -0.1419583 
   0.177994497    -0.0168075   -0.1064886     0.0010918    0.0001292     0.0009019    0.0005323    -0.0382879   -0.1422732 
   0.178094522    -0.0157157   -0.1059914     0.0010845    0.0005958     0.0009218    0.0003044    -0.0371546   -0.1416443 
   0.178194547    -0.0163998   -0.1063051     0.0005641    0.0003787     0.0009181    0.0003899    -0.0378976   -0.1415446 
   0.178294572    -0.0157257   -0.1062967     0.0007254    0.0004045     0.0011651    0.0003737    -0.0375885   -0.1419514 
   0.178394597    -0.0158908   -0.1058888     0.0010936    0.0001398     0.0007841    0.0005541    -0.0382017   -0.1420979 
   0.178494622    -0.0160130   -0.1054039     0.0007700    0.0002389     0.0008253    0.0003635    -0.0378407   -0.1424240 
   0.178594647    -0.0159278   -0.1058386     0.0007791    0.0005213     0.0008823    0.0002354    -0.0379946   -0.1420238 
   0.178694672    -0.0164427   -0.1064758     0.0009277    0.0002722     0.0008256    0.0003699    -0.0384670   -0.1417005 
   0.178794697    -0.0160657   -0.1049666     0.0009016    0.0005029     0.0009589    0.0005953    -0.0389979   -0.1418699 
   0.178894722    -0.0164064   -0.1058634     0.0009651    0.0004726     0.0008522    0.0003631    -0.0391452   -0.1414444 
   0.178994747    -0.0159542   -0.1055050     0.0009551    0.0005392     0.0007551    0.0003930    -0.0388674   -0.1417484 
   0.179094772    -0.0166183   -0.1057916     0.0009159    0.0004629     0.0010903    0.0003129    -0.0378009   -0.1412160 
   0.179194797    -0.0159272   -0.1052350     0.0008946    0.0006062     0.0009188    0.0005040    -0.0390479   -0.1413161 
   0.179294822    -0.0156657   -0.1058553     0.0011241    0.0001012     0.0008812    0.0005696    -0.0384246   -0.1412168 
   0.179394847    -0.0159625   -0.1050283     0.0009605    0.0004910     0.0009168    0.0005330    -0.0388151   -0.1408081 
   0.179494872    -0.0154899   -0.1054944     0.0008282    0.0005236     0.0009068    0.0004561    -0.0396162   -0.1417591 
   0.179594897    -0.0152444   -0.1050916     0.0009099    0.0005522     0.0009759    0.0004376    -0.0388564   -0.1416457 
   0.179694922    -0.0150499   -0.1049445     0.0012646    0.0005220     0.0009391    0.0002204    -0.0393545   -0.1402497 
   0.179794947    -0.0154691   -0.1042106     0.0007996    0.0002646     0.0009084    0.0004074    -0.0384902   -0.1405968 
   0.179894972    -0.0156822   -0.1047541     0.0011173    0.0005488     0.0009511    0.0005600    -0.0395229   -0.1414970 
   0.179994997    -0.0161823   -0.1045272     0.0009137    0.0004727     0.0009374    0.0004562    -0.0385317   -0.1412191 
   0.180095023    -0.0163825   -0.1045539     0.0012484    0.0003436     0.0008475    0.0003924    -0.0394814   -0.1410483 
   0.180195048    -0.0154787   -0.1044031     0.0010754    0.0005876     0.0010664    0.0004279    -0.0393817   -0.1411931 
   0.180295073    -0.0160501   -0.1045247     0.0009197    0.0006286     0.0008473    0.0002971    -0.0390509   -0.1404846 
   0.180395098    -0.0154831   -0.1040964     0.0009879    0.0003010     0.0008761    0.0004811    -0.0397162   -0.1411052 
   0.180495123    -0.0151252   -0.1036185     0.0010199    0.0005106     0.0008462    0.0003578    -0.0402790   -0.1408300 
   0.180595148    -0.0157531   -0.1035166     0.0007702    0.0004852     0.0010079    0.0004814    -0.0396389   -0.1409841 
   0.180695173    -0.0147234   -0.1034593     0.0012638    0.0003383     0.0009111    0.0004040    -0.0401754   -0.1401254 
   0.180795198    -0.0153578   -0.1034159     0.0010683    0.0004369     0.0010404    0.0003833    -0.0399684   -0.1403807 
   0.180895223    -0.0151724   -0.1035580     0.0006828    0.0004815     0.0009062    0.0005307    -0.0405048   -0.1408462 
   0.180995248    -0.0151862   -0.1038992     0.0006625    0.0002445     0.0008353    0.0003748    -0.0403754   -0.1400986 
   0.181095273    -0.0154067   -0.1035632     0.0008374    0.0003055     0.0008661    0.0004922    -0.0398572   -0.1404089 
   0.181195298    -0.0152398   -0.1038954     0.0011590    0.0004996     0.0008203    0.0004105    -0.0403698   -0.1400441 
   0.181295323    -0.0162447   -0.1035709     0.0007879    0.0005924     0.0008560    0.0005419    -0.0406205   -0.1401801 
   0.181395348    -0.0161851   -0.1026933     0.0010787    0.0007167     0.0009499    0.0003813    -0.0401062   -0.1413728 
   0.181495373    -0.0154644   -0.1028866     0.0005520    0.0004335     0.0009832    0.0005699    -0.0401274   -0.1409856 
   0.181595398    -0.0156370   -0.1031474     0.0009393    0.0004426     0.0008942    0.0003970    -0.0404388   -0.1403983 
   0.181695423    -0.0155150   -0.1019446     0.0007373    0.0004179     0.0009932    0.0004398    -0.0410862   -0.1403134 
   0.181795448    -0.0154957   -0.1022320     0.0011257    0.0002791     0.0009168    0.0003586    -0.0410835   -0.1405960 
   0.181895473    -0.0145693   -0.1033280     0.0007852    0.0004590     0.0009810    0.0004564    -0.0408314   -0.1401401 
   0.181995498    -0.0149702   -0.1025083     0.0008827    0.0005046     0.0010142    0.0005838    -0.0409826   -0.1398783 
   0.182095523    -0.0152301   -0.1029279     0.0011704    0.0004697     0.0010492    0.0005083    -0.0403451   -0.1396705 
   0.182195548    -0.0158219   -0.1018299     0.0007915    0.0002513     0.0009861    0.0005226    -0.0416545   -0.1402870 
   0.182295573    -0.0155194   -0.1024293     0.0009274    0.0004778     0.0009761    0.0003180    -0.0410424   -0.1400065 
   0.182395598    -0.0146737   -0.1020403     0.0009035    0.0004357     0.0008368    0.0004134    -0.0413729   -0.1406942 
   0.182495623    -0.0142015   -0.1012703     0.0009536    0.0004902     0.0010223    0.0004206    -0.0420359   -0.1397966 
   0.182595648    -0.0149602   -0.1016557     0.0014642    0.0004012     0.0010805    0.0004654    -0.0413931   -0.1402453 
   0.182695673    -0.0152118   -0.1009977     0.0008288    0.0006975     0.0010441    0.0005577    -0.0417525   -0.1392368 
   0.182795698    -0.0155550   -0.1023805     0.0008348    0.0001234     0.0009922    0.0003875    -0.0412425   -0.1391956 
   0.182895723    -0.0149827   -0.1007914     0.0008552    0.0001950     0.0008884    0.0003771    -0.0410841   -0.1396643 
   0.182995748    -0.0152640   -0.1008126     0.0007563    0.0002365     0.0010279    0.0004868    -0.0416667   -0.1396934 
   0.183095773    -0.0150156   -0.1012613     0.0010066    0.0005765     0.0007914    0.0004465    -0.0419706   -0.1396030 
   0.183195798    -0.0148633   -0.1010623     0.0009895    0.0003002     0.0010877    0.0005309    -0.0417968   -0.1394020 
   0.183295823    -0.0143623   -0.1005422     0.0010858    0.0006416     0.0009352    0.0005893    -0.0415351   -0.1406353 
   0.183395848    -0.0136778   -0.1014134     0.0011931    0.0006048     0.0010617    0.0002883    -0.0420852   -0.1391134 
   0.183495873    -0.0147496   -0.1004806     0.0010067    0.0003192     0.0010678    0.0005033    -0.0417849   -0.1397030 
   0.183595898    -0.0147259   -0.1004408     0.0007799    0.0002863     0.0010227    0.0003611    -0.0419639   -0.1394763 
   0.183695923    -0.0144211   -0.1007038     0.0010099    0.0005100     0.0008145    0.0005481    -0.0422909   -0.1393124 
   0.183795948    -0.0148011   -0.1005763     0.0007446    0.0004564     0.0006997    0.0004398    -0.0427177   -0.1390276 
   0.183895973    -0.0150218   -0.1007191     0.0009659    0.0006265     0.0010054    0.0001870    -0.0427716   -0.1390890 
   0.183995998    -0.0146736   -0.1000723     0.0006911    0.0005217     0.0009907    0.0005402    -0.0426756   -0.1392676 
   0.184096023    -0.0147592   -0.1006314     0.0010008    0.0005635     0.0007903    0.0002514    -0.0427954   -0.1394064 
   0.184196048    -0.0138633   -0.1001943     0.0009970    0.0006757     0.0008756    0.0004185    -0.0426395   -0.1388200 
   0.184296073    -0.0136099   -0.0995125     0.0008360    0.0001485     0.0010280    0.0004032    -0.0424122   -0.1391399 
   0.184396098    -0.0139387   -0.0995331     0.0007356    0.0000582     0.0012276    0.0004935    -0.0432498   -0.1385571 
   0.184496123    -0.0144597   -0.1002023     0.0007492    0.0001384     0.0010264    0.0002576    -0.0426651   -0.1387991 
   0.184596148    -0.0145713   -0.0997581     0.0006172    0.0003021     0.0008323    0.0005828    -0.0426460   -0.1390694 
   0.184696173    -0.0143245   -0.0993004     0.0009195    0.0004819     0.0009564    0.0005525    -0.0432201   -0.1393663 
   0.184796198    -0.0141979   -0.0990090     0.0010056    0.0003659     0.0010116    0.0004915    -0.0429328   -0.1389679 
   0.184896223    -0.0149198   -0.0999870     0.0012014    0.0003737     0.0010538    0.0004214    -0.0431800   -0.1387746 
   0.184996248    -0.0147668   -0.0994137     0.0009087    0.0003894     0.0008158    0.0005432    -0.0436560   -0.1384198 
   0.185096273    -0.0141882   -0.0989639     0.0010775    0.0004868     0.0010050    0.0003301    -0.0428583   -0.1376217 
   0.185196298    -0.0142293   -0.0995491     0.0011794    0.0003475     0.0008671    0.0004424    -0.0429733   -0.1380611 
   0.185296323    -0.0140840   -0.0994214     0.0010637    0.0004241     0.0008192    0.0004198    -0.0431202   -0.1382990 
   0.185396348    -0.0135323   -0.0981414     0.0009729    0.0003268     0.0010314    0.0003764    -0.0439877   -0.1381181 
   0.185496373    -0.0146393   -0.0989360     0.0008926    0.0002045     0.0012079    0.0005858    -0.0433276   -0.1382091 
   0.185596398    -0.0141595   -0.0978607     0.0008951    0.0006193     0.0009346    0.0005738    -0.0443528   -0.1379084 
   0.185696423    -0.0143210   -0.0986446     0.0009368    0.0003760     0.0008264    0.0004207    -0.0435905   -0.1379011 
   0.185796448    -0.0137991   -0.0981321     0.0008593    0.0003754     0.0007961    0.0002055    -0.0437181   -0.1380217 
   0.185896473    -0.0141348   -0.0982435     0.0009815    0.0003634     0.0010443    0.0003083    -0.0447255   -0.1375255 
   0.185996498    -0.0143046   -0.0976520     0.0009619    0.0004612     0.0008915    0.0003557    -0.0446249   -0.1375729 
   0.186096523    -0.0141572   -0.0982333     0.0008629    0.0004289     0.0008991    0.0003676    -0.0439387   -0.1382750 
   0.186196548    -0.0141148   -0.0979953     0.0009702    0.0004829     0.0010918    0.0005461    -0.0444707   -0.1382450 
   0.186296573    -0.0140450   -0.0976557     0.0011452    0.0000606     0.0009218    0.0006542    -0.0434066   -0.1378991 
   0.186396598    -0.0138962   -0.0980776     0.0010958    0.0005536     0.0010596    0.0004582    -0.0442586   -0.1377133 
   0.186496623    -0.0137667   -0.0976501     0.0007817    0.0004063     0.0010117    0.0003650    -0.0452698   -0.1384782 
   0.186596648    -0.0138323   -0.0985244     0.0009930    0.0004867     0.0009420    0.0003783    -0.0446491   -0.1375063 
   0.186696673    -0.0138908   -0.0974028     0.0009591    0.0004367     0.0010521    0.0004497    -0.0447663   -0.1372998 
   0.186796698    -0.0138091   -0.0973885     0.0010587    0.0005171     0.0009711    0.0004659    -0.0451386   -0.1376073 
   0.186896723    -0.0138817   -0.0975439     0.0009436    0.0004920     0.0008696    0.0005347    -0.0441074   -0.1372652 
   0.186996748    -0.0141456   -0.0970644     0.0009360    0.0002936     0.0010109    0.0004283    -0.0444978   -0.1373696 
   0.187096773    -0.0138864   -0.0971705     0.0006869    0.0003749     0.0010004    0.0004199    -0.0452259   -0.1373005 
   0.187196798    -0.0142541   -0.0967260     0.0011345    0.0001483     0.0007976    0.0003098    -0.0446938   -0.1379428 
   0.187296823    -0.0133535   -0.0967742     0.0010244    0.0003141     0.0010342    0.0004236    -0.0454358   -0.1372153 
   0.187396848    -0.0134932   -0.0963437     0.0010115    0.0002976     0.0008572    0.0002579    -0.0452734   -0.1378690 
   0.187496873    -0.0143095   -0.0971113     0.0007054    0.0001912     0.0010071    0.0003183    -0.0447243   -0.1373843 
   0.187596898    -0.0133411   -0.0964741     0.0007480    0.0005150     0.0010543    0.0003634    -0.0449278   -0.1368302 
   0.187696923    -0.0135855   -0.0964275     0.0011040    0.0002318     0.0010178    0.0007202    -0.0460173   -0.1371541 
   0.187796948    -0.0132269   -0.0964146     0.0012480    0.0003638     0.0009633    0.0004751    -0.0452979   -0.1369765 
   0.187896973    -0.0123245   -0.0962680     0.0010202    0.0002992     0.0009657    0.0003663    -0.0456239   -0.1381058 
   0.187996998    -0.0133500   -0.0969826     0.0006499    0.0003706     0.0010722    0.0004322    -0.0453775   -0.1368910 
   0.188097024    -0.0135815   -0.0954380     0.0011191    0.0008186     0.0010030    0.0005147    -0.0453065   -0.1375315 
   0.188197049    -0.0132064   -0.0956838     0.0011066    0.0006285     0.0011243    0.0005446    -0.0458401   -0.1372245 
   0.188297074    -0.0133494   -0.0953913     0.0008009    0.0002793     0.0010157    0.0005338    -0.0454859   -0.1366978 
   0.188397099    -0.0127961   -0.0950681     0.0011883    0.0001842     0.0008643    0.0003331    -0.0465391   -0.1364824 
   0.188497124    -0.0129852   -0.0960350     0.0010682    0.0001786     0.0011124    0.0004416    -0.0457615   -0.1365050 
   0.188597149    -0.0136543   -0.0958434     0.0010300    0.0002381     0.0011327    0.0004868    -0.0465258   -0.1368272 
   0.188697174    -0.0133327   -0.0950741     0.0010103    0.0005738     0.0008620    0.0001296    -0.0458828   -0.1364638 
   0.188797199    -0.0134156   -0.0961132     0.0007720    0.0005925     0.0008155    0.0001640    -0.0469586   -0.1363712 
   0.188897224    -0.0134128   -0.0958217     0.0008042    0.0002354     0.0009433    0.0005050    -0.0465558   -0.1365333 
   0.188997249    -0.0130882   -0.0952418     0.0008696    0.0002553     0.0011849    0.0005389    -0.0465401   -0.1364851 
   0.189097274    -0.0133384   -0.0961471     0.0009323    0.0004231     0.0008755    0.0003343    -0.0466428   -0.1367020 
   0.189197299    -0.0130436   -0.0951471     0.0007513    0.0004480     0.0009945    0.0002205    -0.0462563   -0.1362553 
   0.189297324    -0.0125838   -0.0945493     0.0008785    0.0003924     0.0009128    0.0003517    -0.0466406   -0.1365877 
   0.189397349    -0.0126484   -0.0949818     0.0009909    0.0002458     0.0009975    0.0004024    -0.0475601   -0.1364582 
   0.189497374    -0.0131929   -0.0947453     0.0009702    0.0003323     0.0009745    0.0004531    -0.0472448   -0.1364285 
   0.189597399    -0.0123395   -0.0951641     0.0009373    0.0004013     0.0009383    0.0005777    -0.0466331   -0.1364520 
   0.189697424    -0.0138124   -0.0944491     0.0010107    0.0003847     0.0010681    0.0003668    -0.0461486   -0.1363405 
   0.189797449    -0.0131815   -0.0940410     0.0011953    0.0006290     0.0011277    0.0003884    -0.0466820   -0.1371333 
   0.189897474    -0.0128944   -0.0935952     0.0011913    0.0002499     0.0009470    0.0002588    -0.0472125   -0.1363138 
   0.189997499    -0.0121575   -0.0948871     0.0009247    0.0003545     0.0008542    0.0004177    -0.0470529   -0.1360712 
   0.190097524    -0.0135469   -0.0944339     0.0007401    0.0003928     0.0010300    0.0003536    -0.0464550   -0.1359477 
   0.190197549    -0.0129098   -0.0943410     0.0012232    0.0004362     0.0011151    0.0003529    -0.0474108   -0.1355089 
   0.190297574    -0.0128003   -0.0942571     0.0009813    0.0007791     0.0008903    0.0003993    -0.0476809   -0.1359258 
   0.190397599    -0.0124797   -0.0934430     0.0011495    0.0001797     0.0009519    0.0002644    -0.0472779   -0.1357121 
   0.190497624    -0.0122926   -0.0941903     0.0010121    0.0001320     0.0012282    0.0002387    -0.0478593   -0.1357408 
   0.190597649    -0.0133177   -0.0936073     0.0009202    0.0002535     0.0010275    0.0003269    -0.0473358   -0.1359731 
   0.190697674    -0.0130998   -0.0933564     0.0008780    0.0005516     0.0009539    0.0002575    -0.0479451   -0.1364996 
   0.190797699    -0.0121109   -0.0934947     0.0009767    0.0003481     0.0010205    0.0003856    -0.0478790   -0.1356082 
   0.190897724    -0.0129311   -0.0933912     0.0006951    0.0006596     0.0007666    0.0005111    -0.0475748   -0.1352280 
   0.190997749    -0.0122283   -0.0934916     0.0007712    0.0006063     0.0010438    0.0003244    -0.0479354   -0.1347957 
   0.191097774    -0.0131699   -0.0933536     0.0009510    0.0002045     0.0010281    0.0004532    -0.0479612   -0.1352750 
   0.191197799    -0.0120517   -0.0928541     0.0011138    0.0005474     0.0009597    0.0004146    -0.0479171   -0.1356328 
   0.191297824    -0.0130573   -0.0936190     0.0011436    0.0003119     0.0010818    0.0003148    -0.0483890   -0.1351983 
   0.191397849    -0.0129885   -0.0932748     0.0009139    0.0005265     0.0008113    0.0003587    -0.0486355   -0.1350819 
   0.191497874    -0.0125961   -0.0934843     0.0009581    0.0001336     0.0010243    0.0003350    -0.0485492   -0.1345881 
   0.191597899    -0.0129539   -0.0934926     0.0010064    0.0003685     0.0011861    0.0003732    -0.0482752   -0.1355325 
   0.191697924    -0.0119242   -0.0923616     0.0009056    0.0002253     0.0008869    0.0004560    -0.0491680   -0.1354404 
   0.191797949    -0.0118775   -0.0917901     0.0010386    0.0002289     0.0009279    0.0004149    -0.0490135   -0.1356122 
   0.191897974    -0.0122474   -0.0922154     0.0012511    0.0003421     0.0011878    0.0003698    -0.0483411   -0.1353932 
   0.191997999    -0.0124399   -0.0923994     0.0011391    0.0004362     0.0010338    0.0001846    -0.0495004   -0.1358137 
   0.192098024    -0.0123530   -0.0922266     0.0010337    0.0001913     0.0009263    0.0006552    -0.0485790   -0.1348019 
   0.192198049    -0.0127541   -0.0929727     0.0011198    0.0005298     0.0009116    0.0004928    -0.0498321   -0.1348539 
   0.192298074    -0.0129006   -0.0916588     0.0011925    0.0000908     0.0011799    0.0004787    -0.0491489   -0.1348600 
   0.192398099    -0.0121813   -0.0924703     0.0011564    0.0006029     0.0009276    0.0003374    -0.0496778   -0.1345295 
   0.192498124    -0.0118187   -0.0914285     0.0007786    0.0003106     0.0010894    0.0003025    -0.0498074   -0.1345415 
   0.192598149    -0.0129235   -0.0911969     0.0009821    0.0004841     0.0011878    0.0004246    -0.0495315   -0.1349203 
   0.192698174    -0.0120410   -0.0922003     0.0011037    0.0003486     0.0008928    0.0003297    -0.0487884   -0.1342058 
   0.192798199    -0.0120530   -0.0912671     0.0010869    0.0004023     0.0010074    0.0003219    -0.0496456   -0.1346223 
   0.192898224    -0.0127857   -0.0915607     0.0010496    0.0001693     0.0008023    0.0004336    -0.0491521   -0.1340895 
   0.192998249    -0.0122134   -0.0911038     0.0012231    0.0003302     0.0010684    0.0003494    -0.0496875   -0.1341544 
   0.193098274    -0.0113171   -0.0908585     0.0011100    0.0005587     0.0009947    0.0003830    -0.0501750   -0.1342907 
   0.193198299    -0.0115200   -0.0921577     0.0010089    0.0004285     0.0009489    0.0002852    -0.0499477   -0.1344068 
   0.193298324    -0.0111474   -0.0910729     0.0009491    0.0006503     0.0009929    0.0004032    -0.0500394   -0.1344347 
   0.193398349    -0.0115011   -0.0914328     0.0009477    0.0004018     0.0008437    0.0005435    -0.0502638   -0.1344377 
   0.193498374    -0.0112422   -0.0906773     0.0009950    0.0003934     0.0008716    0.0004290    -0.0506006   -0.1336706 
   0.193598399    -0.0115151   -0.0904293     0.0006584    0.0004499     0.0009141    0.0002544    -0.0501809   -0.1338196 
   0.193698424    -0.0117688   -0.0904790     0.0010178    0.0003304     0.0009093    0.0005321    -0.0505509   -0.1338508 
   0.193798449    -0.0122491   -0.0903503     0.0012956    0.0001739     0.0010762    0.0003821    -0.0501383   -0.1344202 
   0.193898474    -0.0117060   -0.0909707     0.0010099    0.0006479     0.0008895    0.0002184    -0.0506409   -0.1339403 
   0.193998499    -0.0111199   -0.0906036     0.0009942    0.0000441     0.0011437    0.0002728    -0.0509910   -0.1336698 
   0.194098524    -0.0119935   -0.0903791     0.0010573    0.0005909     0.0013664    0.0002678    -0.0504393   -0.1338833 
   0.194198549    -0.0113702   -0.0907843     0.0010084    0.0003727     0.0011805    0.0004145    -0.0500546   -0.1337693 
   0.194298574    -0.0117546   -0.0902875     0.0010842    0.0000224     0.0011422    0.0002389    -0.0506402   -0.1336798 
   0.194398599    -0.0113901   -0.0900605     0.0010598    0.0006253     0.0009649    0.0003448    -0.0509269   -0.1341879 
   0.194498624    -0.0117844   -0.0897189     0.0009102    0.0000630     0.0012330    0.0003699    -0.0507910   -0.1333871 
   0.194598649    -0.0114677   -0.0895141     0.0010241    0.0004277     0.0009691    0.0004298    -0.0508909   -0.1334999 
   0.194698674    -0.0109898   -0.0895817     0.0009174    0.0001072     0.0008117    0.0003530    -0.0516715   -0.1331344 
   0.194798699    -0.0117388   -0.0898095     0.0009412    0.0006483     0.0010597    0.0001759    -0.0514270   -0.1335506 
   0.194898724    -0.0113359   -0.0891402     0.0008581    0.0002800     0.0010064    0.0004046    -0.0511572   -0.1335844 
   0.194998749    -0.0112510   -0.0897174     0.0008776    0.0003853     0.0009191    0.0003049    -0.0517681   -0.1328088 
   0.195098774    -0.0119923   -0.0901038     0.0010300    0.0005168     0.0011371    0.0004070    -0.0512729   -0.1336339 
   0.195198799    -0.0116642   -0.0889886     0.0008336    0.0003327     0.0010653    0.0004627    -0.0512324   -0.1329368 
   0.195298824    -0.0118340   -0.0890724     0.0011159    0.0002413     0.0011532    0.0004851    -0.0508108   -0.1330488 
   0.195398849    -0.0118503   -0.0887536     0.0010495    0.0005078     0.0010136    0.0003750    -0.0522284   -0.1335915 
   0.195498874    -0.0110863   -0.0894216     0.0009431    0.0003159     0.0009539    0.0003345    -0.0515488   -0.1330797 
   0.195598899    -0.0108144   -0.0889825     0.0009257    0.0000615     0.0010519    0.0002255    -0.0513935   -0.1331960 
   0.195698924    -0.0117503   -0.0886149     0.0010224    0.0003171     0.0011132    0.0004294    -0.0514630   -0.1327296 
   0.195798949    -0.0117030   -0.0894458     0.0010607    0.0000576     0.0010009    0.0003488    -0.0513805   -0.1328545 
   0.195898974    -0.0111172   -0.0879872     0.0010380    0.0004083     0.0009118    0.0003478    -0.0521856   -0.1325458 
   0.195998999    -0.0107978   -0.0883731     0.0010799    0.0001019     0.0010851    0.0002363    -0.0516570   -0.1331233 
   0.196099025    -0.0114314   -0.0884871     0.0010961    0.0002981     0.0011820    0.0002113    -0.0525542   -0.1323378 
   0.196199050    -0.0110429   -0.0886304     0.0013146    0.0004302     0.0010701    0.0005163    -0.0524244   -0.1332429 
   0.196299075    -0.0110973   -0.0884336     0.0008407    0.0002526     0.0011903    0.0002895    -0.0524814   -0.1328415 
   0.196399100    -0.0111611   -0.0885209     0.0008112    0.0001794     0.0011525    0.0004178    -0.0520329   -0.1321536 
   0.196499125    -0.0109399   -0.0885313     0.0010986    0.0004084     0.0010124    0.0003762    -0.0528871   -0.1325470 
   0.196599150    -0.0101756   -0.0877860     0.0009930    0.0002775     0.0011446    0.0005355    -0.0524177   -0.1327730 
   0.196699175    -0.0110034   -0.0880552     0.0009512    0.0006809     0.0008505    0.0005152    -0.0527422   -0.1320056 
   0.196799200    -0.0105645   -0.0880909     0.0007982    0.0003177     0.0011299    0.0005109    -0.0534440   -0.1323814 
   0.196899225    -0.0103514   -0.0879132     0.0011925    0.0002276     0.0011696    0.0002100    -0.0524200   -0.1327217 
   0.196999250    -0.0107147   -0.0873524     0.0009511    0.0002932     0.0009691    0.0003063    -0.0531986   -0.1323400 
   0.197099275    -0.0100361   -0.0878806     0.0008970    0.0005093     0.0010895    0.0004477    -0.0529511   -0.1324830 
   0.197199300    -0.0112670   -0.0873714     0.0009832    0.0005031     0.0010817    0.0004046    -0.0531705   -0.1320823 
   0.197299325    -0.0105920   -0.0871644     0.0012167    0.0003656     0.0011863    0.0002939    -0.0526556   -0.1326651 
   0.197399350    -0.0107966   -0.0870051     0.0009148    0.0005753     0.0012632    0.0002207    -0.0532442   -0.1317591 
   0.197499375    -0.0101027   -0.0875524     0.0010411    0.0000098     0.0009252    0.0003231    -0.0530464   -0.1318215 
   0.197599400    -0.0107196   -0.0872588     0.0011616    0.0003406     0.0010673    0.0003603    -0.0533218   -0.1320742 
   0.197699425    -0.0101621   -0.0865155     0.0011830    0.0005060     0.0010928    0.0003130    -0.0530841   -0.1313301 
   0.197799450    -0.0108753   -0.0866762     0.0010178    0.0002463     0.0010554    0.0001654    -0.0538058   -0.1318799 
   0.197899475    -0.0107564   -0.0870065     0.0010442    0.0004621     0.0010837    0.0004374    -0.0532699   -0.1318517 
   0.197999500    -0.0103576   -0.0872394     0.0009773    0.0003011     0.0007995    0.0000598    -0.0531346   -0.1315122 
   0.198099525    -0.0103630   -0.0871277     0.0010852    0.0002765     0.0010126    0.0001809    -0.0535803   -0.1315215 
   0.198199550    -0.0103308   -0.0866574     0.0010098    0.0004386     0.0011352    0.0003322    -0.0539979   -0.1318975 
   0.198299575    -0.0107642   -0.0864714     0.0011447    0.0004386     0.0009098    0.0003083    -0.0539667   -0.1312513 
   0.198399600    -0.0102046   -0.0865650     0.0007436    0.0002670     0.0010549    0.0002379    -0.0543394   -0.1312889 
   0.198499625    -0.0103729   -0.0872470     0.0009867    0.0004020     0.0011670    0.0003229    -0.0540360   -0.1312013 
   0.198599650    -0.0103680   -0.0859041     0.0012412    0.0005926     0.0010918    0.0002811    -0.0529624   -0.1319853 
   0.198699675    -0.0101883   -0.0856676     0.0010674    0.0003637     0.0010243    0.0002692    -0.0539945   -0.1316216 
   0.198799700    -0.0098041   -0.0862607     0.0007876    0.0004634     0.0009071    0.0002910    -0.0547896   -0.1308126 
   0.198899725    -0.0092816   -0.0858605     0.0011005    0.0007199     0.0010319    0.0004277    -0.0545448   -0.1314073 
   0.198999750    -0.0102622   -0.0857533     0.0012012    0.0001617     0.0009473    0.0002842    -0.0543530   -0.1312805 
   0.199099775    -0.0099432   -0.0859553     0.0010066    0.0002012     0.0009350    0.0002459    -0.0546854   -0.1308088 
   0.199199800    -0.0095426   -0.0859488     0.0011042    0.0003085     0.0010821    0.0001404    -0.0543198   -0.1306920 
   0.199299825    -0.0095657   -0.0860795     0.0010621    0.0003668     0.0009887    0.0002323    -0.0554978   -0.1306690 
   0.199399850    -0.0101139   -0.0849684     0.0012134    0.0005072     0.0008875    0.0002513    -0.0550103   -0.1311149 
   0.199499875    -0.0096635   -0.0859070     0.0011742    0.0002304     0.0011653    0.0006248    -0.0553758   -0.1311626 
   0.199599900    -0.0092994   -0.0851902     0.0013702    0.0005028     0.0011800    0.0001660    -0.0549389   -0.1308496 
   0.199699925    -0.0091491   -0.0848828     0.0011458    0.0002923     0.0011119    0.0002708    -0.0552179   -0.1305633 
   0.199799950    -0.0103119   -0.0857133     0.0010048    0.0004480     0.0009940    0.0003694    -0.0553937   -0.1311837 
   0.199899975    -0.0094373   -0.0844351     0.0012768    0.0003277     0.0010838    0.0002612    -0.0551496   -0.1300652 
   0.200000000    -0.0096318   -0.0843849     0.0009452    0.0004625     0.0009446    0.0002701    -0.0557005   -0.1304679 
