! 27-Aug-26 2:20:55 PM
! E:\20260827_VNA\T1T1E1_LOAD_1.S2P
! CHANNEL.1
! TR.MEASUREMENT
! CORRECTED.DATA
# GHZ S RI R 50.0
! FREQ.GHZ         S11RE         S11IM         S21RE         S21IM         S12RE         S12IM         S22RE         S22IM         
!; PortSelection: Port_12
   0.000050000    -0.1832965    0.2013111    -0.1580692    0.0859188     0.0035126    0.0036101     1.0264510    0.0004851 
   0.000150025    -0.2596610   -0.1629283    -0.1482575   -1.7930410     0.0015475    0.0009718     1.0061890   -0.0165018 
   0.000250050    -0.1463545    0.7890535    -0.0022567    0.0002140     0.0011478   -0.0009336     1.0070890   -0.0084720 
   0.000350075     0.9629978    0.0208349    -0.0005719   -0.0072898    -0.0001235    0.0005297     0.9967102   -0.0352773 
   0.000450100     0.9332452   -0.0585762    -0.0062021   -0.0104344    -0.0014557   -0.0000794     0.9870159   -0.0174771 
   0.000550125     1.0013730   -0.0332234    -0.0033631   -0.0129904     0.0003730    0.0002126     0.9974723   -0.0339278 
   0.000650150     0.9542763   -0.0382363    -0.0076606   -0.0116101     0.0003336   -0.0000711     1.0140450   -0.0607678 
   0.000750175     0.9655191   -0.0921948    -0.0028131   -0.0100044    -0.0005759    0.0010455     0.9973699   -0.0535768 
   0.000850200     0.9745381   -0.0218309    -0.0078132   -0.0100537    -0.0014483    0.0001805     0.9920898   -0.0508005 
   0.000950225     1.0223300    0.0015949    -0.0043178   -0.0058318     0.0008964    0.0003319     0.9923840   -0.0690805 
   0.001050250     1.0279230   -0.0478917    -0.0064982   -0.0098992     0.0001724    0.0000134     0.9856902   -0.0678253 
   0.001150275     1.0303950   -0.0509579    -0.0050637   -0.0033572    -0.0002694   -0.0003950     0.9848348   -0.0772838 
   0.001250300     0.9447144   -0.0638494    -0.0081141   -0.0058147    -0.0003484   -0.0001222     0.9960515   -0.0915367 
   0.001350325     0.9850807   -0.1126520    -0.0108610   -0.0019233     0.0000726   -0.0003542     0.9887662   -0.1004633 
   0.001450350     0.9972224   -0.0706684    -0.0109506   -0.0034152    -0.0001184    0.0007005     0.9877620   -0.1041867 
   0.001550375     0.9262285   -0.0574313    -0.0089032   -0.0024641     0.0007757   -0.0002213     0.9969704   -0.1090093 
   0.001650400     0.9739724   -0.0460763    -0.0091921    0.0000357     0.0003184    0.0010090     0.9848841   -0.1165728 
   0.001750425     0.9763753   -0.0756004    -0.0072830   -0.0005392     0.0008489    0.0005237     0.9920311   -0.1241164 
   0.001850450     0.9785975   -0.0866174    -0.0071046    0.0005666     0.0009199    0.0002916     0.9820353   -0.1274091 
   0.001950475     1.0032510   -0.0371763    -0.0105858    0.0002225     0.0002190   -0.0005892     0.9817914   -0.1281732 
   0.002050500     0.9962707   -0.0398504    -0.0072998    0.0007264    -0.0009353   -0.0004993     0.9804044   -0.1477879 
   0.002150525     0.9834961   -0.0533449    -0.0078266    0.0052088     0.0003442   -0.0000307     0.9794572   -0.1422328 
   0.002250550     0.9936950   -0.0896037    -0.0050772    0.0027338    -0.0014258   -0.0005313     0.9743465   -0.1605098 
   0.002350575     0.9608896   -0.0757730    -0.0061685    0.0063560     0.0004134   -0.0005762     0.9757683   -0.1629268 
   0.002450600     0.9782338   -0.1298053    -0.0048358    0.0023698    -0.0003279    0.0002094     0.9772933   -0.1785130 
   0.002550625     0.9614758   -0.0929077    -0.0046456    0.0047732    -0.0008658    0.0001568     0.9747993   -0.1812033 
   0.002650650     0.9855554   -0.0884849    -0.0071369    0.0022088     0.0004193    0.0005413     0.9670499   -0.1876583 
   0.002750675     0.9863697   -0.0542168    -0.0040728    0.0013221     0.0001672    0.0010333     0.9570381   -0.1947270 
   0.002850700     0.9843224   -0.1008186    -0.0029444    0.0031275     0.0001580   -0.0005945     0.9544681   -0.2022086 
   0.002950725     0.9643856   -0.1052387    -0.0046469    0.0018705     0.0006825    0.0007018     0.9565921   -0.2069628 
   0.003050750     0.9964488   -0.0785486    -0.0047580    0.0047089     0.0007833    0.0003227     0.9544418   -0.2115859 
   0.003150775     0.9780450   -0.1649939    -0.0033006    0.0047448    -0.0000531    0.0006107     0.9436640   -0.2181419 
   0.003250800     0.9687995   -0.1074966     0.0000535    0.0053435    -0.0007806   -0.0001740     0.9510123   -0.2252514 
   0.003350825     0.9957271   -0.0758174    -0.0017130    0.0025109     0.0006084   -0.0002073     0.9454904   -0.2371203 
   0.003450850     0.9838007   -0.1770934    -0.0013931    0.0031027     0.0000159    0.0000737     0.9335834   -0.2395338 
   0.003550875     0.9445751   -0.1610805    -0.0002140   -0.0007464     0.0003564   -0.0006908     0.9427202   -0.2504517 
   0.003650900     0.9867148   -0.1062953    -0.0027050    0.0019221     0.0002970    0.0003103     0.9356536   -0.2494095 
   0.003750925     0.9661561   -0.1497660    -0.0017991    0.0004880     0.0002868    0.0003637     0.9257602   -0.2622654 
   0.003850950     0.9847200   -0.1594171    -0.0017975   -0.0003059     0.0003510    0.0003066     0.9296795   -0.2584682 
   0.003950975     0.9922237   -0.1326396    -0.0009156    0.0025510    -0.0001526    0.0000169     0.9236034   -0.2656331 
   0.004051001     0.9573433   -0.1688796    -0.0019388    0.0027996     0.0000636   -0.0001426     0.9128267   -0.2720310 
   0.004151026     0.9930531   -0.1278853    -0.0037934   -0.0000398    -0.0004442   -0.0000301     0.9167410   -0.2768950 
   0.004251051     0.9751832   -0.1677969     0.0001348    0.0022319    -0.0001410    0.0000352     0.9096879   -0.2859339 
   0.004351076     0.9569147   -0.1340831     0.0009994    0.0000380     0.0000522    0.0000154     0.9043148   -0.2898120 
   0.004451101     0.9737948   -0.1586898    -0.0031613    0.0021212    -0.0004808   -0.0002858     0.9021379   -0.2964630 
   0.004551126     0.9651334   -0.1660780    -0.0021363    0.0010125     0.0001183    0.0003521     0.9049828   -0.2966227 
   0.004651151     0.9395816   -0.1463615    -0.0018195    0.0008919     0.0000529    0.0001818     0.8965133   -0.3048402 
   0.004751176     0.9781018   -0.1807779    -0.0005882    0.0006191    -0.0002053   -0.0004692     0.8960140   -0.3123891 
   0.004851201     0.9442868   -0.1637700    -0.0006743    0.0015612     0.0002816   -0.0000105     0.8867310   -0.3166220 
   0.004951226     0.9367335   -0.1473060    -0.0016341    0.0009115     0.0003516    0.0001712     0.8863080   -0.3163702 
   0.005051251     0.9969847   -0.1968098     0.0017798    0.0025877     0.0000654   -0.0005813     0.8789721   -0.3219625 
   0.005151276     0.9518308   -0.1443629    -0.0004218   -0.0002033    -0.0005010    0.0000688     0.8739814   -0.3260774 
   0.005251301     0.9590238   -0.1645577    -0.0008521   -0.0014484    -0.0001500    0.0001810     0.8678624   -0.3298167 
   0.005351326     0.9218224   -0.1643691     0.0013581    0.0012790    -0.0000126   -0.0004648     0.8707873   -0.3390214 
   0.005451351     0.9587129   -0.1773302     0.0003336    0.0011058    -0.0005090   -0.0002287     0.8600022   -0.3494823 
   0.005551376     0.9653738   -0.1917294     0.0017260   -0.0002371     0.0000795    0.0001943     0.8581335   -0.3428029 
   0.005651401     0.9526920   -0.2017024     0.0016242    0.0004408    -0.0000002   -0.0000859     0.8527163   -0.3556025 
   0.005751426     0.9256816   -0.1753129    -0.0000913   -0.0010788    -0.0000664    0.0003451     0.8458767   -0.3527723 
   0.005851451     0.9378409   -0.2113843     0.0006688    0.0006774     0.0001375   -0.0000276     0.8426868   -0.3607638 
   0.005951476     0.9414673   -0.1988510     0.0008973    0.0025304     0.0001174   -0.0002049     0.8427349   -0.3624682 
   0.006051501     0.9300438   -0.2120995     0.0010467    0.0003130    -0.0001883    0.0001224     0.8373734   -0.3689582 
   0.006151526     0.9433807   -0.2217098     0.0006315    0.0026278    -0.0000104    0.0002737     0.8306924   -0.3749941 
   0.006251551     0.9479340   -0.2004106     0.0007509    0.0005123    -0.0000164   -0.0001324     0.8260846   -0.3798494 
   0.006351576     0.9557092   -0.2125414     0.0000969    0.0032657    -0.0001780    0.0001443     0.8184168   -0.3821913 
   0.006451601     0.9518322   -0.2178398    -0.0031259    0.0006474    -0.0000108    0.0001165     0.8124765   -0.3890657 
   0.006551626     0.9377719   -0.2167671    -0.0013593    0.0001694     0.0000247   -0.0001089     0.8112091   -0.3877408 
   0.006651651     0.9370089   -0.2210144    -0.0002983    0.0001904     0.0001176    0.0003087     0.8037595   -0.3942026 
   0.006751676     0.9260446   -0.2420252    -0.0001111    0.0006411    -0.0000987    0.0002971     0.8059968   -0.3925950 
   0.006851701     0.9491040   -0.2622003    -0.0005797    0.0010076     0.0000174   -0.0000155     0.7975327   -0.4039296 
   0.006951726     0.9371045   -0.2349140    -0.0001415    0.0007766    -0.0003188    0.0001068     0.7931085   -0.4009885 
   0.007051751     0.9310409   -0.2332404    -0.0008954   -0.0007298    -0.0001499    0.0000930     0.7874065   -0.4071071 
   0.007151776     0.9214156   -0.2388289     0.0000035    0.0005575    -0.0000357    0.0004356     0.7794856   -0.4085676 
   0.007251801     0.9226245   -0.2291650    -0.0020782    0.0001763    -0.0002327    0.0002946     0.7772406   -0.4108479 
   0.007351826     0.9199308   -0.2735130     0.0011808    0.0016792    -0.0000650    0.0000523     0.7723631   -0.4160494 
   0.007451851     0.9018045   -0.2610791     0.0000251    0.0004546    -0.0001859    0.0003013     0.7669327   -0.4165402 
   0.007551876     0.9262710   -0.2673875    -0.0008836   -0.0009320    -0.0001067    0.0002573     0.7635288   -0.4233688 
   0.007651901     0.9299271   -0.2686397    -0.0014858    0.0009307     0.0003990   -0.0001304     0.7623667   -0.4226834 
   0.007751926     0.9269744   -0.2760141     0.0003109   -0.0009441     0.0003325   -0.0004553     0.7515187   -0.4260425 
   0.007851951     0.9125729   -0.2671882     0.0001219   -0.0013091    -0.0001019    0.0002331     0.7481002   -0.4272399 
   0.007951976     0.9121457   -0.2912183     0.0006374    0.0000882    -0.0001239    0.0001445     0.7428247   -0.4314962 
   0.008052001     0.9306939   -0.2632688    -0.0007243   -0.0017522    -0.0003839    0.0002672     0.7361279   -0.4320706 
   0.008152026     0.9254457   -0.2863569     0.0004394   -0.0000594     0.0004572   -0.0000821     0.7401503   -0.4405726 
   0.008252051     0.9001027   -0.2642891    -0.0002700   -0.0002284    -0.0000960   -0.0001141     0.7277401   -0.4385595 
   0.008352076     0.9317817   -0.2925291     0.0005672    0.0013287     0.0005442    0.0002594     0.7254553   -0.4437187 
   0.008452101     0.9125417   -0.2761441     0.0019067    0.0019034     0.0000936    0.0004264     0.7222726   -0.4422663 
   0.008552126     0.9265021   -0.2915074    -0.0009845    0.0000101     0.0003653    0.0001979     0.7163629   -0.4505782 
   0.008652151     0.9201834   -0.2809230     0.0000938   -0.0002859    -0.0001487    0.0000688     0.7091937   -0.4505783 
   0.008752176     0.9041812   -0.2784579    -0.0007344    0.0003153    -0.0000730   -0.0000202     0.7069779   -0.4524448 
   0.008852201     0.9030334   -0.2622584    -0.0003503   -0.0004504    -0.0004831   -0.0000897     0.6999719   -0.4506803 
   0.008952226     0.8998410   -0.2973225    -0.0005043   -0.0001348    -0.0006206    0.0002536     0.6994572   -0.4543956 
   0.009052251     0.9136056   -0.2874440    -0.0008029    0.0014210     0.0000193   -0.0000416     0.6929080   -0.4589941 
   0.009152276     0.8842635   -0.2987493    -0.0001050    0.0007927    -0.0003202    0.0004006     0.6880684   -0.4580766 
   0.009252301     0.9007711   -0.3049917     0.0005421   -0.0002460     0.0001913   -0.0001293     0.6833790   -0.4634461 
   0.009352326     0.9191468   -0.3078320    -0.0016087    0.0000162     0.0003021    0.0001424     0.6786456   -0.4634791 
   0.009452351     0.8841206   -0.2954786     0.0001810   -0.0001521    -0.0000676    0.0003057     0.6713286   -0.4641812 
   0.009552376     0.9041051   -0.3180724     0.0009870   -0.0009153     0.0002952    0.0001374     0.6698231   -0.4641223 
   0.009652401     0.8777310   -0.3119680    -0.0005811    0.0001777    -0.0001602   -0.0001286     0.6636027   -0.4681692 
   0.009752426     0.8926534   -0.3183888    -0.0001311    0.0006034     0.0003053   -0.0002946     0.6607705   -0.4670394 
   0.009852451     0.8798074   -0.3356167    -0.0009022   -0.0013595     0.0001215    0.0000298     0.6552733   -0.4706064 
   0.009952476     0.8864720   -0.3227351     0.0007215   -0.0006806    -0.0000270   -0.0001463     0.6506351   -0.4696079 
   0.010052501     0.8744926   -0.3172688     0.0000403   -0.0001907     0.0001547    0.0001118     0.6453556   -0.4700049 
   0.010152526     0.8890712   -0.3159246    -0.0001133    0.0000132    -0.0001791   -0.0000797     0.6401990   -0.4730438 
   0.010252551     0.8751079   -0.3235282    -0.0006099    0.0000535     0.0002144   -0.0000086     0.6377416   -0.4786200 
   0.010352576     0.8945497   -0.3350641    -0.0002960    0.0008551     0.0002385   -0.0001099     0.6361126   -0.4750857 
   0.010452601     0.8759723   -0.3252535     0.0001324   -0.0012835    -0.0001527    0.0002869     0.6270138   -0.4779623 
   0.010552626     0.8701491   -0.3403479    -0.0006727   -0.0006604     0.0003542    0.0000835     0.6232983   -0.4791458 
   0.010652651     0.8773286   -0.3522880    -0.0000917    0.0016870    -0.0000129    0.0003969     0.6192437   -0.4810946 
   0.010752676     0.8810459   -0.3431543    -0.0000266    0.0000554    -0.0002289    0.0003266     0.6160460   -0.4808945 
   0.010852701     0.8870735   -0.3370762    -0.0008205   -0.0004356     0.0001008   -0.0001095     0.6144178   -0.4797873 
   0.010952726     0.8578188   -0.3514917     0.0002698   -0.0001025    -0.0002203   -0.0001255     0.6048405   -0.4850975 
   0.011052751     0.8543522   -0.3602051     0.0001090   -0.0002792     0.0000558    0.0001341     0.6032337   -0.4847248 
   0.011152776     0.8552237   -0.3634020    -0.0003353   -0.0011032     0.0001051   -0.0000866     0.5961829   -0.4860747 
   0.011252801     0.8647123   -0.3523213     0.0006700   -0.0003206     0.0001334   -0.0002408     0.5936894   -0.4846800 
   0.011352826     0.8513460   -0.3738006    -0.0004360    0.0004597     0.0002118    0.0001643     0.5912493   -0.4844091 
   0.011452851     0.8507196   -0.3627702     0.0012020    0.0005316     0.0002120   -0.0000601     0.5872732   -0.4889739 
   0.011552876     0.8359020   -0.3509625    -0.0002296   -0.0004223     0.0000064   -0.0000957     0.5828401   -0.4891628 
   0.011652901     0.8393268   -0.3854026    -0.0001888   -0.0004078     0.0001318    0.0003599     0.5757397   -0.4874780 
   0.011752926     0.8357277   -0.3664801    -0.0002700   -0.0003825     0.0003475   -0.0000344     0.5755951   -0.4877551 
   0.011852951     0.8360541   -0.3819920    -0.0001761    0.0000731     0.0002950   -0.0003778     0.5706709   -0.4885712 
   0.011952976     0.8402932   -0.3640890    -0.0003323    0.0007653    -0.0001618    0.0002398     0.5669789   -0.4903827 
   0.012053002     0.8400825   -0.3795684     0.0001330    0.0002554    -0.0000810    0.0001018     0.5614556   -0.4906525 
   0.012153027     0.8354078   -0.3910759    -0.0002332    0.0007272     0.0000904   -0.0001687     0.5567813   -0.4900957 
   0.012253052     0.8306062   -0.3829851     0.0008563    0.0007028    -0.0000261    0.0001945     0.5531272   -0.4896041 
   0.012353077     0.8448999   -0.3787982    -0.0005863    0.0011649    -0.0004142   -0.0000267     0.5510180   -0.4908797 
   0.012453102     0.8305176   -0.3849889     0.0002331   -0.0007743     0.0000528   -0.0001619     0.5450889   -0.4919789 
   0.012553127     0.8197542   -0.4008338    -0.0007986   -0.0001781    -0.0000271   -0.0001975     0.5406460   -0.4913282 
   0.012653152     0.8315148   -0.3768331    -0.0007704    0.0006261    -0.0000059    0.0000636     0.5371009   -0.4924892 
   0.012753177     0.8153440   -0.3863716    -0.0001274    0.0010218    -0.0001902    0.0001277     0.5368139   -0.4915932 
   0.012853202     0.8198524   -0.3746789     0.0004071    0.0000206    -0.0005114   -0.0000980     0.5283718   -0.4929201 
   0.012953227     0.8268334   -0.3900697     0.0004441    0.0007111     0.0000187    0.0000473     0.5297343   -0.4930339 
   0.013053252     0.8141710   -0.3959564    -0.0007745    0.0013710     0.0000760   -0.0000024     0.5238038   -0.4935066 
   0.013153277     0.8144935   -0.3959911     0.0001193    0.0004069    -0.0002229   -0.0001486     0.5196091   -0.4940119 
   0.013253302     0.8036569   -0.4055775    -0.0006676    0.0002080    -0.0000267   -0.0004671     0.5161431   -0.4908930 
   0.013353327     0.8042027   -0.4039228    -0.0003828   -0.0012400     0.0002060   -0.0000260     0.5104406   -0.4941972 
   0.013453352     0.8150088   -0.3951413    -0.0007552   -0.0002848    -0.0002517   -0.0000045     0.5077682   -0.4936161 
   0.013553377     0.7948205   -0.3921551    -0.0011450    0.0009049    -0.0001675    0.0001590     0.5058771   -0.4950068 
   0.013653402     0.7994173   -0.4029451     0.0004607    0.0005075    -0.0001348   -0.0002714     0.4997952   -0.4934914 
   0.013753427     0.8090907   -0.4084031    -0.0008817   -0.0001597     0.0000258   -0.0000071     0.4946992   -0.4938852 
   0.013853452     0.8022722   -0.4141155     0.0006633   -0.0000281    -0.0001167   -0.0000604     0.4962662   -0.4919170 
   0.013953477     0.7892947   -0.4035132     0.0003848   -0.0005731    -0.0001198    0.0001099     0.4908520   -0.4933718 
   0.014053502     0.8070059   -0.4209524    -0.0000867   -0.0003413    -0.0001312    0.0001222     0.4877745   -0.4927802 
   0.014153527     0.7855896   -0.4174213     0.0010037   -0.0001444    -0.0001398    0.0000947     0.4842843   -0.4917563 
   0.014253552     0.7907358   -0.4104248    -0.0014691   -0.0001248     0.0001969    0.0000506     0.4830407   -0.4926016 
   0.014353577     0.7746412   -0.4209643    -0.0007172    0.0001614     0.0001508    0.0000443     0.4750906   -0.4898417 
   0.014453602     0.7789729   -0.4175201    -0.0003965    0.0005317    -0.0002581   -0.0000600     0.4748725   -0.4898412 
   0.014553627     0.7828075   -0.4177049     0.0000178    0.0010115     0.0002180   -0.0000202     0.4708169   -0.4909028 
   0.014653652     0.7895526   -0.4261463    -0.0002186    0.0012148     0.0000140   -0.0000288     0.4666173   -0.4905508 
   0.014753677     0.7685498   -0.4300609    -0.0008416    0.0001091    -0.0000394    0.0003134     0.4635048   -0.4901446 
   0.014853702     0.7792816   -0.4208177    -0.0001378    0.0008036     0.0001009    0.0001222     0.4581546   -0.4897229 
   0.014953727     0.7733585   -0.4369918     0.0002691   -0.0015680     0.0000044    0.0000935     0.4570971   -0.4890958 
   0.015053752     0.7697241   -0.4288703    -0.0001738    0.0003885     0.0002060    0.0000374     0.4564368   -0.4877309 
   0.015153777     0.7752299   -0.4391248     0.0001668   -0.0003622    -0.0001779   -0.0000603     0.4520627   -0.4899295 
   0.015253802     0.7730192   -0.4373096    -0.0008159   -0.0005031     0.0000502   -0.0000915     0.4483717   -0.4882034 
   0.015353827     0.7599934   -0.4389858    -0.0007873    0.0005054     0.0001444   -0.0000249     0.4456217   -0.4880087 
   0.015453852     0.7697923   -0.4354492    -0.0000627    0.0011969     0.0000051   -0.0002184     0.4419031   -0.4854359 
   0.015553877     0.7604732   -0.4454876    -0.0000306   -0.0002024     0.0001135    0.0001928     0.4404278   -0.4866091 
   0.015653902     0.7568133   -0.4347721    -0.0008880   -0.0002195     0.0001726    0.0000445     0.4349949   -0.4882092 
   0.015753927     0.7521839   -0.4373412     0.0002646   -0.0003896    -0.0000583    0.0000401     0.4325523   -0.4871406 
   0.015853952     0.7650320   -0.4533246    -0.0008384    0.0007196    -0.0003013   -0.0001541     0.4298584   -0.4870504 
   0.015953977     0.7633048   -0.4404651    -0.0006833    0.0005511    -0.0001537   -0.0000243     0.4268179   -0.4839401 
   0.016054002     0.7516255   -0.4379740    -0.0004522   -0.0003639    -0.0000401    0.0000909     0.4230483   -0.4861635 
   0.016154027     0.7559293   -0.4461828     0.0009322   -0.0003660    -0.0000907    0.0004060     0.4196505   -0.4839655 
   0.016254052     0.7475780   -0.4476853     0.0007970   -0.0001944     0.0000333   -0.0001116     0.4186089   -0.4842275 
   0.016354077     0.7334036   -0.4440155    -0.0003490   -0.0002275    -0.0002330   -0.0002049     0.4149441   -0.4821280 
   0.016454102     0.7509143   -0.4467595     0.0002947   -0.0005681    -0.0000996    0.0000323     0.4129959   -0.4833784 
   0.016554127     0.7364616   -0.4472016     0.0002480   -0.0003526    -0.0001411   -0.0002798     0.4087921   -0.4813946 
   0.016654152     0.7392923   -0.4424818     0.0003951   -0.0002624     0.0000051   -0.0000212     0.4074109   -0.4815205 
   0.016754177     0.7316458   -0.4644541    -0.0001086   -0.0000019    -0.0000438    0.0000499     0.4057834   -0.4807702 
   0.016854202     0.7313115   -0.4499467    -0.0002880   -0.0003325    -0.0002028    0.0001432     0.4014594   -0.4806192 
   0.016954227     0.7437788   -0.4736233    -0.0002026    0.0002380     0.0000120   -0.0000962     0.3992364   -0.4800436 
   0.017054252     0.7281817   -0.4626481     0.0002573   -0.0004021    -0.0001545    0.0000144     0.3937118   -0.4788167 
   0.017154277     0.7320498   -0.4585674    -0.0002096   -0.0001207    -0.0002400    0.0000305     0.3928746   -0.4779446 
   0.017254302     0.7206208   -0.4673320     0.0000110    0.0004342    -0.0001352   -0.0000176     0.3905923   -0.4781708 
   0.017354327     0.7253653   -0.4651322    -0.0001782    0.0004035     0.0000751    0.0000496     0.3868804   -0.4786645 
   0.017454352     0.7146586   -0.4648973     0.0000697    0.0000944     0.0000792   -0.0000408     0.3834127   -0.4766286 
   0.017554377     0.7115763   -0.4656402    -0.0001583   -0.0001275    -0.0001359    0.0000161     0.3829931   -0.4762430 
   0.017654402     0.7216567   -0.4663402     0.0000280    0.0005978     0.0001226    0.0001072     0.3792450   -0.4746214 
   0.017754427     0.7009651   -0.4698597     0.0002613    0.0000547     0.0000721   -0.0000199     0.3793683   -0.4728268 
   0.017854452     0.7037798   -0.4753403     0.0005805   -0.0007661     0.0000772    0.0001288     0.3742762   -0.4729834 
   0.017954477     0.7057788   -0.4639556     0.0009612   -0.0002167    -0.0000426   -0.0000200     0.3728845   -0.4735232 
   0.018054502     0.7052683   -0.4788082     0.0000453    0.0001515    -0.0002653   -0.0000186     0.3691113   -0.4724061 
   0.018154527     0.6947770   -0.4716397    -0.0003312    0.0001467    -0.0000804   -0.0001023     0.3667470   -0.4734238 
   0.018254552     0.6920078   -0.4780005    -0.0004663    0.0001766    -0.0000051   -0.0002150     0.3640870   -0.4732012 
   0.018354577     0.6943491   -0.4813403    -0.0006173    0.0005465     0.0000477    0.0000654     0.3639346   -0.4704034 
   0.018454602     0.6917552   -0.4791884     0.0000275    0.0001364    -0.0001657    0.0000052     0.3600438   -0.4702256 
   0.018554627     0.6818643   -0.4897065    -0.0003235   -0.0001407    -0.0000425    0.0000813     0.3571637   -0.4699123 
   0.018654652     0.6870044   -0.4889087    -0.0003310    0.0002113     0.0000120   -0.0000562     0.3546560   -0.4668445 
   0.018754677     0.6825580   -0.4740444    -0.0003978   -0.0004852    -0.0000925    0.0000415     0.3540387   -0.4674350 
   0.018854702     0.6837747   -0.4832199    -0.0005963    0.0000842    -0.0000217    0.0000697     0.3529769   -0.4667954 
   0.018954727     0.6775374   -0.4862105    -0.0001128   -0.0001026     0.0000923   -0.0000255     0.3482923   -0.4659766 
   0.019054752     0.6815707   -0.4796842    -0.0002787    0.0003453    -0.0000396   -0.0001227     0.3456223   -0.4658387 
   0.019154777     0.6726612   -0.4814314    -0.0004638    0.0000637     0.0000217   -0.0000371     0.3433127   -0.4651896 
   0.019254802     0.6716114   -0.4925648     0.0001045    0.0000288     0.0000539   -0.0000311     0.3402638   -0.4646991 
   0.019354827     0.6638877   -0.4896485    -0.0000904    0.0002254     0.0000312    0.0001182     0.3400067   -0.4641773 
   0.019454852     0.6640876   -0.4894793    -0.0003020   -0.0007342    -0.0000759   -0.0000259     0.3374061   -0.4638793 
   0.019554877     0.6547894   -0.4865565    -0.0001470   -0.0004825    -0.0000845   -0.0001458     0.3351888   -0.4623865 
   0.019654902     0.6708321   -0.4937423    -0.0002544   -0.0000784     0.0000005    0.0001837     0.3343582   -0.4613341 
   0.019754927     0.6568050   -0.4918355    -0.0001300    0.0001152    -0.0002357    0.0001545     0.3287628   -0.4601160 
   0.019854952     0.6500796   -0.4970477    -0.0002258   -0.0001405    -0.0000605    0.0000006     0.3302132   -0.4576130 
   0.019954977     0.6500814   -0.4912383     0.0001017   -0.0003371     0.0000720    0.0000069     0.3290063   -0.4572783 
   0.020055003     0.6565614   -0.5038085    -0.0001302    0.0008262    -0.0000338    0.0000798     0.3254265   -0.4589943 
   0.020155028     0.6540570   -0.4934489     0.0006025    0.0002231     0.0000166    0.0002277     0.3238496   -0.4566599 
   0.020255053     0.6499966   -0.5029955    -0.0005719    0.0002641    -0.0000867    0.0000263     0.3218947   -0.4555350 
   0.020355078     0.6524315   -0.4958822     0.0002571    0.0005982    -0.0000620    0.0000778     0.3184067   -0.4557655 
   0.020455103     0.6562606   -0.4967701     0.0001152    0.0001882    -0.0000692   -0.0000667     0.3184787   -0.4553619 
   0.020555128     0.6416628   -0.5000014    -0.0004636   -0.0004664    -0.0001167    0.0000502     0.3160797   -0.4553913 
   0.020655153     0.6428052   -0.4995140     0.0001379    0.0006676    -0.0000373    0.0000145     0.3131637   -0.4523307 
   0.020755178     0.6293535   -0.4972323     0.0001652    0.0002334     0.0000562    0.0001393     0.3100786   -0.4496460 
   0.020855203     0.6353797   -0.5007907    -0.0008906   -0.0002129     0.0000067    0.0001475     0.3086540   -0.4505515 
   0.020955228     0.6346364   -0.4945615    -0.0000390    0.0003796     0.0000810    0.0000117     0.3058681   -0.4487161 
   0.021055253     0.6207910   -0.5076256     0.0002287    0.0004238    -0.0001633    0.0000760     0.3055368   -0.4483487 
   0.021155278     0.6314653   -0.5111076     0.0000533    0.0000481    -0.0000236    0.0000607     0.3052778   -0.4487341 
   0.021255303     0.6194223   -0.5034819    -0.0001908   -0.0000495     0.0001177   -0.0000284     0.3018924   -0.4473573 
   0.021355328     0.6324773   -0.4989252    -0.0001476   -0.0004626    -0.0000609    0.0000887     0.3008870   -0.4456127 
   0.021455353     0.6143936   -0.5059130     0.0001506   -0.0004634     0.0000600    0.0001332     0.2977983   -0.4468010 
   0.021555378     0.6180413   -0.5118452    -0.0002842    0.0005467    -0.0000896    0.0000889     0.2962534   -0.4450725 
   0.021655403     0.6159359   -0.5085331     0.0001762   -0.0004593     0.0002044    0.0000346     0.2953103   -0.4436690 
   0.021755428     0.6156930   -0.5064654     0.0002149   -0.0001920     0.0000666    0.0000438     0.2929682   -0.4439204 
   0.021855453     0.6191490   -0.5080681    -0.0003551   -0.0003908    -0.0000557    0.0001060     0.2907858   -0.4408353 
   0.021955478     0.6071506   -0.5073990     0.0004947    0.0001940    -0.0000362    0.0002383     0.2899039   -0.4404432 
   0.022055503     0.6139029   -0.5149652    -0.0002836   -0.0004711    -0.0000844   -0.0000156     0.2876496   -0.4401913 
   0.022155528     0.6021401   -0.5141607    -0.0003115    0.0002139    -0.0001264    0.0001229     0.2862932   -0.4398193 
   0.022255553     0.5988347   -0.5080886    -0.0003861    0.0006005    -0.0000060    0.0001544     0.2837517   -0.4394889 
   0.022355578     0.6010303   -0.5114734     0.0003323    0.0000750     0.0000695    0.0001757     0.2816781   -0.4377827 
   0.022455603     0.5926880   -0.5201466    -0.0000213    0.0000390     0.0000740    0.0001224     0.2799274   -0.4370969 
   0.022555628     0.5976689   -0.5127349    -0.0002151   -0.0001711    -0.0001124   -0.0001070     0.2801794   -0.4374280 
   0.022655653     0.6010968   -0.5147830    -0.0004224   -0.0004528     0.0000697    0.0001228     0.2772987   -0.4360828 
   0.022755678     0.5866402   -0.5165433    -0.0000935    0.0001488    -0.0001882    0.0002196     0.2769977   -0.4348169 
   0.022855703     0.5903623   -0.5137572     0.0006438    0.0000556    -0.0000948   -0.0000043     0.2732534   -0.4325984 
   0.022955728     0.5885636   -0.5106441     0.0004428    0.0000286    -0.0000936    0.0001301     0.2721276   -0.4315015 
   0.023055753     0.5855091   -0.5169549    -0.0002307    0.0004801    -0.0000696   -0.0001029     0.2718197   -0.4322151 
   0.023155778     0.5877373   -0.5224332    -0.0002394   -0.0004318    -0.0000896   -0.0000329     0.2700419   -0.4315776 
   0.023255803     0.5788521   -0.5196548    -0.0001855    0.0001578     0.0001441    0.0000443     0.2685954   -0.4297388 
   0.023355828     0.5805877   -0.5175350     0.0001254    0.0001193    -0.0000673    0.0000445     0.2655512   -0.4303730 
   0.023455853     0.5761843   -0.5204930     0.0004069    0.0004548     0.0001683    0.0001048     0.2642089   -0.4282640 
   0.023555878     0.5744479   -0.5239142    -0.0000061    0.0001633    -0.0000178   -0.0000929     0.2640519   -0.4284158 
   0.023655903     0.5737512   -0.5140169    -0.0000358    0.0006722    -0.0000361   -0.0000353     0.2626381   -0.4278612 
   0.023755928     0.5702084   -0.5191827    -0.0004679   -0.0001293     0.0000592   -0.0000318     0.2594751   -0.4256903 
   0.023855953     0.5729219   -0.5168899     0.0002055   -0.0002088    -0.0001151   -0.0000858     0.2572544   -0.4255490 
   0.023955978     0.5599599   -0.5190153    -0.0007771   -0.0005775    -0.0001292    0.0000457     0.2575562   -0.4254391 
   0.024056003     0.5676796   -0.5204337    -0.0001812    0.0002648     0.0000506    0.0000284     0.2544692   -0.4235923 
   0.024156028     0.5597713   -0.5212094     0.0002942   -0.0001732    -0.0000625   -0.0000513     0.2555645   -0.4223900 
   0.024256053     0.5590137   -0.5231527     0.0000627    0.0002765    -0.0000106    0.0000641     0.2529178   -0.4227651 
   0.024356078     0.5534596   -0.5212843    -0.0002304    0.0001298     0.0000468    0.0000599     0.2529010   -0.4213048 
   0.024456103     0.5506806   -0.5153219    -0.0001992   -0.0004968    -0.0000014   -0.0000164     0.2501592   -0.4202861 
   0.024556128     0.5548692   -0.5202298    -0.0002654    0.0003214    -0.0001214   -0.0000303     0.2489061   -0.4195879 
   0.024656153     0.5515088   -0.5187976     0.0001968   -0.0000988    -0.0000890    0.0001436     0.2481235   -0.4174453 
   0.024756178     0.5457451   -0.5229779    -0.0006963    0.0003379    -0.0000138    0.0001219     0.2461057   -0.4169832 
   0.024856203     0.5525953   -0.5332278    -0.0005356   -0.0000361    -0.0000854    0.0000002     0.2450150   -0.4160102 
   0.024956228     0.5500313   -0.5220144     0.0001123   -0.0000790    -0.0000177    0.0001143     0.2433506   -0.4155782 
   0.025056253     0.5407201   -0.5241766     0.0004512    0.0000697    -0.0000785    0.0000877     0.2432141   -0.4166291 
   0.025156278     0.5421941   -0.5286947     0.0002455    0.0002014    -0.0000361    0.0001434     0.2393210   -0.4139799 
   0.025256303     0.5399162   -0.5225059    -0.0004652   -0.0005118    -0.0001381   -0.0000833     0.2404768   -0.4140768 
   0.025356328     0.5431713   -0.5269917     0.0002612    0.0002910    -0.0001007    0.0001784     0.2394498   -0.4133247 
   0.025456353     0.5348358   -0.5268050    -0.0001894    0.0003390    -0.0000036    0.0001087     0.2365491   -0.4121854 
   0.025556378     0.5356950   -0.5307109     0.0002966    0.0001903    -0.0000754   -0.0000968     0.2361230   -0.4108645 
   0.025656403     0.5336491   -0.5303729     0.0001247   -0.0000248    -0.0001092   -0.0000318     0.2343517   -0.4099215 
   0.025756428     0.5345305   -0.5314267     0.0005967    0.0003210    -0.0001376    0.0001323     0.2329344   -0.4087420 
   0.025856453     0.5276406   -0.5276808     0.0006013    0.0000597    -0.0000393    0.0000385     0.2323822   -0.4069164 
   0.025956478     0.5276561   -0.5289713    -0.0000039   -0.0000480    -0.0000323    0.0001482     0.2310672   -0.4086530 
   0.026056503     0.5194193   -0.5298558    -0.0002160    0.0003662    -0.0001521   -0.0000859     0.2302837   -0.4071501 
   0.026156528     0.5198046   -0.5291142    -0.0002767   -0.0001355    -0.0000955    0.0001021     0.2279609   -0.4056126 
   0.026256553     0.5228018   -0.5255511    -0.0002154   -0.0002234    -0.0001425    0.0000461     0.2274386   -0.4041616 
   0.026356578     0.5208938   -0.5332471     0.0003102   -0.0002794    -0.0000456    0.0000300     0.2258801   -0.4058503 
   0.026456603     0.5117305   -0.5297276     0.0002959    0.0001370    -0.0000341    0.0000297     0.2250224   -0.4028953 
   0.026556628     0.5104948   -0.5302889    -0.0001466   -0.0000059    -0.0001698    0.0000944     0.2238375   -0.4027282 
   0.026656653     0.5109640   -0.5265955     0.0000100   -0.0002446    -0.0000812    0.0000511     0.2225658   -0.4019173 
   0.026756678     0.5100808   -0.5327537    -0.0000349    0.0000668    -0.0001015    0.0000542     0.2226431   -0.4029417 
   0.026856703     0.5073101   -0.5374804    -0.0000890    0.0002846     0.0000159    0.0000129     0.2213075   -0.4005116 
   0.026956728     0.5097220   -0.5298635     0.0000771   -0.0003410    -0.0000793    0.0000371     0.2199802   -0.3981237 
   0.027056753     0.5043634   -0.5323561     0.0000223   -0.0000341    -0.0001042   -0.0000260     0.2171216   -0.3982230 
   0.027156778     0.5038062   -0.5301923     0.0001815    0.0000815    -0.0000897    0.0000842     0.2166719   -0.3973167 
   0.027256803     0.5021882   -0.5243328     0.0000682   -0.0000116    -0.0001012    0.0000362     0.2142060   -0.3978669 
   0.027356828     0.5024383   -0.5334119    -0.0003431    0.0000809    -0.0001477    0.0000454     0.2146081   -0.3966810 
   0.027456853     0.4920138   -0.5343239     0.0000592    0.0004178    -0.0000747   -0.0000189     0.2131621   -0.3967755 
   0.027556878     0.4916316   -0.5284049    -0.0000004    0.0006105    -0.0000821   -0.0000145     0.2114008   -0.3937459 
   0.027656903     0.4963470   -0.5342508    -0.0001442    0.0002033    -0.0001166    0.0001582     0.2121764   -0.3937681 
   0.027756928     0.4871803   -0.5299155    -0.0001299    0.0000481    -0.0001351   -0.0000348     0.2107425   -0.3940591 
   0.027856953     0.4891672   -0.5340952     0.0004338   -0.0000581    -0.0000238    0.0001598     0.2100686   -0.3922271 
   0.027956978     0.4822082   -0.5268648    -0.0004145   -0.0003930    -0.0001485    0.0001116     0.2069399   -0.3917704 
   0.028057004     0.4847108   -0.5298015     0.0000659   -0.0000083    -0.0001087    0.0000728     0.2070830   -0.3890243 
   0.028157029     0.4810455   -0.5359689    -0.0001826    0.0002961    -0.0001145    0.0000919     0.2060986   -0.3890284 
   0.028257054     0.4776665   -0.5331179    -0.0000610   -0.0004696    -0.0000560    0.0000927     0.2057821   -0.3896366 
   0.028357079     0.4732237   -0.5316489     0.0001565    0.0000802    -0.0001430   -0.0000549     0.2024450   -0.3879685 
   0.028457104     0.4738834   -0.5306353     0.0004266    0.0001277    -0.0001161   -0.0000194     0.2028216   -0.3861748 
   0.028557129     0.4743789   -0.5358250     0.0000517   -0.0001656     0.0000245    0.0000063     0.2029038   -0.3877994 
   0.028657154     0.4757524   -0.5302340    -0.0000014   -0.0000610    -0.0000031   -0.0000698     0.2005965   -0.3851024 
   0.028757179     0.4741835   -0.5317748    -0.0003654    0.0000692    -0.0000068    0.0001179     0.2010064   -0.3845518 
   0.028857204     0.4682782   -0.5303864     0.0000590    0.0001267    -0.0000813   -0.0000049     0.1991416   -0.3851653 
   0.028957229     0.4638302   -0.5352917    -0.0002248    0.0001015    -0.0001516   -0.0000537     0.1980119   -0.3837940 
   0.029057254     0.4675667   -0.5390152     0.0000150   -0.0000970    -0.0000919    0.0000805     0.1980621   -0.3828318 
   0.029157279     0.4649004   -0.5328621    -0.0000966    0.0002202     0.0000053    0.0000508     0.1959016   -0.3816554 
   0.029257304     0.4601946   -0.5350093    -0.0004030    0.0000136    -0.0000494    0.0000222     0.1945579   -0.3807120 
   0.029357329     0.4541203   -0.5293764     0.0001972   -0.0000746    -0.0000187    0.0000721     0.1943944   -0.3798689 
   0.029457354     0.4582920   -0.5355493    -0.0001218    0.0002147    -0.0001501    0.0000622     0.1929353   -0.3800501 
   0.029557379     0.4528395   -0.5396575    -0.0003790    0.0000451    -0.0000738    0.0001273     0.1917864   -0.3789994 
   0.029657404     0.4539801   -0.5335625    -0.0003164    0.0001571    -0.0001080    0.0001374     0.1924716   -0.3782867 
   0.029757429     0.4497455   -0.5337628    -0.0002667   -0.0000907    -0.0001215   -0.0000541     0.1914896   -0.3777470 
   0.029857454     0.4462861   -0.5295905     0.0001910    0.0000427    -0.0000542    0.0001184     0.1901349   -0.3770862 
   0.029957479     0.4469192   -0.5304996    -0.0001035    0.0001101    -0.0001605    0.0001950     0.1894105   -0.3758308 
   0.030057504     0.4446892   -0.5342329    -0.0000360    0.0004525    -0.0000600    0.0000973     0.1887295   -0.3749883 
   0.030157529     0.4467395   -0.5283329     0.0002569    0.0001646     0.0000005    0.0001303     0.1860858   -0.3736987 
   0.030257554     0.4445435   -0.5301604     0.0000214   -0.0002272    -0.0000363    0.0000170     0.1861831   -0.3727669 
   0.030357579     0.4430474   -0.5247656    -0.0000696    0.0002123    -0.0000346    0.0000894     0.1849377   -0.3723585 
   0.030457604     0.4423909   -0.5333228     0.0001513    0.0000790     0.0000525    0.0002013     0.1847998   -0.3722762 
   0.030557629     0.4403849   -0.5297424     0.0004804   -0.0000393    -0.0000311    0.0001495     0.1840379   -0.3711074 
   0.030657654     0.4332580   -0.5338171    -0.0003488    0.0000965    -0.0000943    0.0000911     0.1829703   -0.3708712 
   0.030757679     0.4324339   -0.5301355    -0.0000351   -0.0003342    -0.0001075    0.0000319     0.1825937   -0.3707651 
   0.030857704     0.4324978   -0.5285131     0.0000432    0.0000469    -0.0000880    0.0000413     0.1812413   -0.3690483 
   0.030957729     0.4328735   -0.5360132    -0.0001321   -0.0001923    -0.0000665    0.0001326     0.1796423   -0.3698812 
   0.031057754     0.4282831   -0.5289490    -0.0003703   -0.0003134    -0.0000937    0.0001165     0.1794479   -0.3683458 
   0.031157779     0.4282972   -0.5326333    -0.0002074    0.0004158     0.0000282   -0.0000153     0.1782714   -0.3670447 
   0.031257804     0.4235740   -0.5319042     0.0002258    0.0002592    -0.0000870    0.0001257     0.1777022   -0.3668365 
   0.031357829     0.4219751   -0.5346522    -0.0001843    0.0000190    -0.0002054    0.0001327     0.1776107   -0.3654456 
   0.031457854     0.4190374   -0.5257107    -0.0004099   -0.0001131    -0.0000146    0.0001467     0.1756445   -0.3666453 
   0.031557879     0.4190358   -0.5306807     0.0001132    0.0003495    -0.0001349    0.0000205     0.1754109   -0.3638584 
   0.031657904     0.4149933   -0.5310138     0.0000139    0.0001041    -0.0001564    0.0001298     0.1750830   -0.3630516 
   0.031757929     0.4195428   -0.5333039    -0.0003078    0.0003899     0.0000130    0.0000051     0.1726572   -0.3619044 
   0.031857954     0.4136863   -0.5335102     0.0000232    0.0002868     0.0000672    0.0000806     0.1743862   -0.3618370 
   0.031957979     0.4162074   -0.5288341    -0.0000449    0.0004606    -0.0000539    0.0001097     0.1731256   -0.3609315 
   0.032058004     0.4148219   -0.5299785     0.0001089   -0.0000289    -0.0000293    0.0001269     0.1707518   -0.3611457 
   0.032158029     0.4121070   -0.5351738     0.0001859    0.0002649    -0.0000318    0.0000785     0.1709593   -0.3604005 
   0.032258054     0.4085557   -0.5325628    -0.0003162   -0.0002172    -0.0001265    0.0001415     0.1694887   -0.3594414 
   0.032358079     0.4088444   -0.5287717     0.0001313   -0.0001116    -0.0000593    0.0000877     0.1691881   -0.3583750 
   0.032458104     0.4041711   -0.5335724    -0.0000336    0.0000662    -0.0001752    0.0001773     0.1687485   -0.3587135 
   0.032558129     0.4016429   -0.5253680     0.0000290   -0.0000336     0.0000029    0.0000401     0.1678750   -0.3573176 
   0.032658154     0.4007618   -0.5290490    -0.0004246    0.0000881    -0.0000988    0.0001335     0.1662042   -0.3559475 
   0.032758179     0.4001333   -0.5301799    -0.0003214    0.0000163     0.0000475    0.0000840     0.1666385   -0.3560956 
   0.032858204     0.3998652   -0.5284892    -0.0001419    0.0001440    -0.0000627    0.0001940     0.1645328   -0.3556051 
   0.032958229     0.3984512   -0.5274082    -0.0002219    0.0001378    -0.0001196    0.0001492     0.1646494   -0.3537988 
   0.033058254     0.3934105   -0.5267150    -0.0001896    0.0001630    -0.0001097    0.0001362     0.1641673   -0.3544296 
   0.033158279     0.3904739   -0.5277631    -0.0000911    0.0000806    -0.0002104   -0.0000396     0.1640645   -0.3527097 
   0.033258304     0.3885719   -0.5301264    -0.0001322   -0.0002020     0.0000746    0.0000194     0.1622158   -0.3528430 
   0.033358329     0.3862838   -0.5252134    -0.0001700    0.0001694    -0.0000432   -0.0000259     0.1619424   -0.3516733 
   0.033458354     0.3873451   -0.5232290     0.0002985    0.0002556     0.0000166    0.0000115     0.1618965   -0.3507922 
   0.033558379     0.3850514   -0.5298359    -0.0001429    0.0002952    -0.0002065   -0.0000459     0.1613018   -0.3496472 
   0.033658404     0.3806976   -0.5248558     0.0000369    0.0001116    -0.0001122    0.0002658     0.1600090   -0.3500986 
   0.033758429     0.3811296   -0.5266514     0.0001674    0.0002113    -0.0000623    0.0001140     0.1593291   -0.3493442 
   0.033858454     0.3779027   -0.5267214    -0.0002230   -0.0003329    -0.0000122    0.0001413     0.1581988   -0.3489272 
   0.033958479     0.3796014   -0.5308888     0.0000264   -0.0001099    -0.0000935    0.0001295     0.1575584   -0.3482915 
   0.034058504     0.3794136   -0.5244473    -0.0001750   -0.0000265    -0.0001412    0.0001124     0.1567508   -0.3480347 
   0.034158529     0.3707414   -0.5259348     0.0001109    0.0004347    -0.0001134    0.0001142     0.1573825   -0.3464455 
   0.034258554     0.3743012   -0.5278249    -0.0004772    0.0003118    -0.0000704   -0.0000272     0.1562632   -0.3466417 
   0.034358579     0.3672358   -0.5244431    -0.0006562    0.0000998    -0.0002190    0.0001547     0.1556135   -0.3458399 
   0.034458604     0.3742612   -0.5291013    -0.0007270   -0.0000513    -0.0000796    0.0001117     0.1550251   -0.3446950 
   0.034558629     0.3730630   -0.5230582    -0.0004831   -0.0000268    -0.0001291    0.0000795     0.1542339   -0.3442906 
   0.034658654     0.3671264   -0.5250840    -0.0005045    0.0004474    -0.0000971    0.0001423     0.1540274   -0.3422106 
   0.034758679     0.3661529   -0.5243343    -0.0001353    0.0000728     0.0000479    0.0001698     0.1534308   -0.3423241 
   0.034858704     0.3677000   -0.5235684    -0.0000492    0.0007095     0.0000050    0.0001173     0.1520227   -0.3413415 
   0.034958729     0.3661252   -0.5178274    -0.0001840   -0.0001474    -0.0000405    0.0002094     0.1510404   -0.3412866 
   0.035058754     0.3630504   -0.5230218    -0.0002543    0.0002028    -0.0000762    0.0001303     0.1501192   -0.3416097 
   0.035158779     0.3655132   -0.5236779     0.0000767   -0.0002603     0.0000298   -0.0000051     0.1490883   -0.3406711 
   0.035258804     0.3588154   -0.5238746    -0.0002537    0.0004126    -0.0000722    0.0000425     0.1497008   -0.3401662 
   0.035358829     0.3578846   -0.5199339    -0.0000728    0.0001383     0.0000648    0.0001597     0.1493089   -0.3386331 
   0.035458854     0.3572861   -0.5217109    -0.0000794    0.0001128    -0.0000528    0.0002029     0.1487071   -0.3386733 
   0.035558879     0.3586983   -0.5201738    -0.0000505    0.0005253    -0.0001380    0.0002593     0.1485649   -0.3371456 
   0.035658904     0.3497745   -0.5233424    -0.0000726    0.0002990     0.0000137    0.0003075     0.1471619   -0.3368047 
   0.035758929     0.3503842   -0.5180443    -0.0001897    0.0003124    -0.0001402    0.0001632     0.1474369   -0.3364571 
   0.035858954     0.3551348   -0.5162788    -0.0000173    0.0004473    -0.0000730   -0.0000139     0.1467900   -0.3355887 
   0.035958979     0.3519314   -0.5199850     0.0000992    0.0005745    -0.0002221    0.0000947     0.1457419   -0.3351681 
   0.036059005     0.3515843   -0.5206791     0.0002120    0.0004830    -0.0000576    0.0002929     0.1452870   -0.3344592 
   0.036159030     0.3464824   -0.5189385    -0.0004246    0.0004647    -0.0002057    0.0001339     0.1447328   -0.3345197 
   0.036259055     0.3453387   -0.5183271     0.0002425   -0.0000935    -0.0001594    0.0000861     0.1437387   -0.3344215 
   0.036359080     0.3396398   -0.5146948    -0.0001323    0.0000409     0.0000071    0.0001718     0.1432543   -0.3335431 
   0.036459105     0.3410883   -0.5241912    -0.0000848    0.0000971    -0.0000145    0.0002037     0.1426530   -0.3328304 
   0.036559130     0.3396310   -0.5135923     0.0002106    0.0004771    -0.0000055    0.0004170     0.1418893   -0.3312043 
   0.036659155     0.3360795   -0.5164055    -0.0003035    0.0003504     0.0000178    0.0002817     0.1416643   -0.3304459 
   0.036759180     0.3368996   -0.5164035    -0.0000889    0.0003536    -0.0001977    0.0001024     0.1413897   -0.3310205 
   0.036859205     0.3351744   -0.5155271    -0.0000399    0.0000258    -0.0000119    0.0002849     0.1401286   -0.3300357 
   0.036959230     0.3338536   -0.5174251     0.0001210    0.0000445    -0.0001136    0.0001489     0.1393615   -0.3299959 
   0.037059255     0.3356836   -0.5182751    -0.0000947    0.0002833    -0.0000058    0.0000112     0.1389265   -0.3288704 
   0.037159280     0.3320014   -0.5193771     0.0003204    0.0006137    -0.0001927    0.0001037     0.1397172   -0.3292187 
   0.037259305     0.3281433   -0.5195373    -0.0001170    0.0003189    -0.0001519    0.0002123     0.1381938   -0.3280173 
   0.037359330     0.3308732   -0.5180863    -0.0000682    0.0000762    -0.0000716    0.0000985     0.1381138   -0.3278200 
   0.037459355     0.3279259   -0.5144876     0.0000263   -0.0001911    -0.0000489   -0.0000172     0.1374947   -0.3263085 
   0.037559380     0.3243852   -0.5173427     0.0007124   -0.0004233    -0.0000873    0.0002899     0.1369040   -0.3258278 
   0.037659405     0.3241506   -0.5147933    -0.0001459    0.0000218     0.0000146   -0.0000366     0.1362790   -0.3251648 
   0.037759430     0.3209864   -0.5149370    -0.0001847    0.0003708     0.0000335    0.0000453     0.1358778   -0.3243885 
   0.037859455     0.3210760   -0.5118874     0.0001006    0.0002529    -0.0001226    0.0000278     0.1350997   -0.3241919 
   0.037959480     0.3153017   -0.5114895    -0.0003034    0.0004130    -0.0002129    0.0001727     0.1347650   -0.3243901 
   0.038059505     0.3205124   -0.5108652     0.0000178   -0.0002790    -0.0001752    0.0001942     0.1349300   -0.3242063 
   0.038159530     0.3154909   -0.5134309    -0.0003501    0.0004612    -0.0002908    0.0000661     0.1337846   -0.3222688 
   0.038259555     0.3141597   -0.5123675     0.0000845   -0.0000835    -0.0000090    0.0002409     0.1332845   -0.3227323 
   0.038359580     0.3162163   -0.5104681     0.0005166    0.0002434    -0.0001385    0.0002144     0.1326886   -0.3210800 
   0.038459605     0.3143014   -0.5103599     0.0002070   -0.0000481    -0.0000097    0.0001279     0.1311821   -0.3208061 
   0.038559630     0.3146295   -0.5151070    -0.0004704    0.0001045    -0.0001721    0.0001854     0.1312715   -0.3206080 
   0.038659655     0.3176762   -0.5116931    -0.0002649    0.0002357     0.0000285    0.0001801     0.1318970   -0.3204347 
   0.038759680     0.3098275   -0.5045474    -0.0002183    0.0003093     0.0000588    0.0000476     0.1297510   -0.3199733 
   0.038859705     0.3019271   -0.5104549     0.0000943    0.0001157    -0.0000364    0.0000721     0.1305950   -0.3191525 
   0.038959730     0.3084879   -0.5101794     0.0000408    0.0001273    -0.0001450   -0.0000533     0.1297348   -0.3181022 
   0.039059755     0.3043173   -0.5065032    -0.0000312    0.0002972     0.0000163    0.0000138     0.1292864   -0.3167979 
   0.039159780     0.3027290   -0.5092189    -0.0002058    0.0000687    -0.0001555    0.0004004     0.1284487   -0.3177411 
   0.039259805     0.3073875   -0.5111576     0.0000259    0.0002496    -0.0001653    0.0002822     0.1281517   -0.3172250 
   0.039359830     0.2991739   -0.5069041     0.0002149   -0.0004816    -0.0003720    0.0001311     0.1282489   -0.3158750 
   0.039459855     0.2976786   -0.5081223     0.0002864   -0.0000738     0.0000057    0.0001470     0.1268907   -0.3152999 
   0.039559880     0.2977354   -0.5051619    -0.0003414   -0.0003906     0.0000204    0.0000059     0.1274836   -0.3150408 
   0.039659905     0.2951534   -0.5029678     0.0002371    0.0000195    -0.0001039    0.0000318     0.1259755   -0.3140748 
   0.039759930     0.2967004   -0.5020206     0.0000792   -0.0001572     0.0001238    0.0001510     0.1259590   -0.3136548 
   0.039859955     0.2970595   -0.5025119    -0.0001827    0.0002154    -0.0001126    0.0001509     0.1258956   -0.3140747 
   0.039959980     0.2951099   -0.5067300    -0.0001992    0.0002666    -0.0001460    0.0001634     0.1245993   -0.3130483 
   0.040060005     0.2918014   -0.5054377    -0.0002874    0.0004195    -0.0001822    0.0003196     0.1244660   -0.3116844 
   0.040160030     0.2894214   -0.5054829     0.0005246    0.0003340    -0.0000424    0.0001600     0.1249841   -0.3117750 
   0.040260055     0.2933681   -0.4993391    -0.0001991    0.0003428    -0.0000499    0.0000718     0.1238619   -0.3111928 
   0.040360080     0.2877755   -0.5026790    -0.0005594    0.0005355     0.0000192    0.0001892     0.1233239   -0.3101132 
   0.040460105     0.2906449   -0.5060405    -0.0007667    0.0001375     0.0000061   -0.0001216     0.1223166   -0.3100468 
   0.040560130     0.2904370   -0.5020213    -0.0001457    0.0006026     0.0000224    0.0001482     0.1222702   -0.3097484 
   0.040660155     0.2890759   -0.5077061    -0.0003728   -0.0002777    -0.0002886    0.0001063     0.1218927   -0.3090353 
   0.040760180     0.2860404   -0.5002112    -0.0001250    0.0002332    -0.0001621    0.0003482     0.1209187   -0.3087904 
   0.040860205     0.2814339   -0.4975542    -0.0001606    0.0002448     0.0000406    0.0001240     0.1211931   -0.3075236 
   0.040960230     0.2858905   -0.5030195     0.0003766    0.0005592     0.0000104    0.0000052     0.1203192   -0.3075155 
   0.041060255     0.2847818   -0.5012941    -0.0002351    0.0001020    -0.0000651    0.0000879     0.1197651   -0.3075399 
   0.041160280     0.2796667   -0.5017880    -0.0003522    0.0004351    -0.0002338    0.0003722     0.1201291   -0.3068718 
   0.041260305     0.2802592   -0.4961065     0.0001474    0.0001447    -0.0002203    0.0002749     0.1189826   -0.3058384 
   0.041360330     0.2770201   -0.4981180    -0.0003305   -0.0001958    -0.0002941    0.0001111     0.1196639   -0.3057611 
   0.041460355     0.2731812   -0.4931035     0.0001740    0.0003865    -0.0001081    0.0001030     0.1186151   -0.3049698 
   0.041560380     0.2756852   -0.4977370     0.0000796    0.0006577     0.0000758    0.0002241     0.1183251   -0.3046755 
   0.041660405     0.2729438   -0.5011543     0.0004040    0.0004695    -0.0001928    0.0001744     0.1178507   -0.3045353 
   0.041760430     0.2726896   -0.4985794    -0.0003616    0.0004265    -0.0000997    0.0002220     0.1183562   -0.3033560 
   0.041860455     0.2727142   -0.4989624    -0.0002590   -0.0000766    -0.0001049    0.0001408     0.1178998   -0.3030548 
   0.041960480     0.2629871   -0.4987886     0.0002697    0.0007054     0.0000538    0.0002516     0.1168154   -0.3025661 
   0.042060505     0.2741139   -0.4946707    -0.0000045    0.0005632    -0.0002867    0.0002201     0.1164140   -0.3014302 
   0.042160530     0.2689986   -0.4915512     0.0001362   -0.0000421    -0.0002584    0.0002532     0.1156726   -0.3021330 
   0.042260555     0.2625567   -0.4939988    -0.0000461   -0.0003463     0.0001272    0.0003778     0.1161933   -0.3010629 
   0.042360580     0.2649981   -0.4931620    -0.0001199    0.0005254    -0.0001875    0.0003059     0.1149723   -0.3013322 
   0.042460605     0.2617675   -0.4973536    -0.0004909   -0.0002522    -0.0000095    0.0003429     0.1149491   -0.3006612 
   0.042560630     0.2644420   -0.4959893    -0.0004994    0.0002363    -0.0000345    0.0001627     0.1145491   -0.3002951 
   0.042660655     0.2649358   -0.4880187    -0.0002109    0.0004096     0.0000756    0.0000704     0.1139635   -0.2991561 
   0.042760680     0.2611997   -0.4924075     0.0001723    0.0001393    -0.0000118    0.0002245     0.1133925   -0.2984406 
   0.042860705     0.2631526   -0.4945139     0.0001651   -0.0001075    -0.0000591    0.0002721     0.1131358   -0.2989615 
   0.042960730     0.2540116   -0.4906643     0.0003447    0.0004913     0.0000259   -0.0000745     0.1125525   -0.2975963 
   0.043060755     0.2574451   -0.4906540     0.0001822    0.0000003    -0.0002391    0.0003024     0.1123563   -0.2971432 
   0.043160780     0.2552494   -0.4888510     0.0002912   -0.0000004    -0.0002601    0.0001187     0.1123059   -0.2974227 
   0.043260805     0.2554334   -0.4930373    -0.0003086   -0.0001611    -0.0000509    0.0002982     0.1121812   -0.2969941 
   0.043360830     0.2552069   -0.4903288     0.0003034    0.0009949    -0.0001551    0.0002012     0.1109463   -0.2957703 
   0.043460855     0.2543046   -0.4856361    -0.0008092    0.0003815     0.0000488    0.0000805     0.1114686   -0.2958667 
   0.043560880     0.2540815   -0.4863007    -0.0001794    0.0008778    -0.0000311    0.0001741     0.1106960   -0.2954313 
   0.043660905     0.2498159   -0.4858430    -0.0004574    0.0001913    -0.0001670    0.0000945     0.1099573   -0.2954760 
   0.043760930     0.2485696   -0.4929083    -0.0001581   -0.0005019    -0.0001166    0.0001670     0.1095665   -0.2944553 
   0.043860955     0.2514114   -0.4863847    -0.0000653    0.0005333    -0.0000413    0.0003083     0.1088808   -0.2938767 
   0.043960980     0.2451629   -0.4841307     0.0000402   -0.0002218    -0.0002519    0.0002168     0.1091653   -0.2929054 
   0.044061006     0.2503628   -0.4838222    -0.0004528    0.0004373    -0.0000081    0.0002891     0.1099494   -0.2929534 
   0.044161031     0.2446951   -0.4888230     0.0003046    0.0004041    -0.0001010    0.0003309     0.1089306   -0.2920286 
   0.044261056     0.2454813   -0.4855037    -0.0000528   -0.0000060    -0.0000202    0.0001500     0.1080342   -0.2920315 
   0.044361081     0.2462725   -0.4845868    -0.0001360   -0.0004719     0.0000513   -0.0000439     0.1072163   -0.2916124 
   0.044461106     0.2435686   -0.4842768    -0.0000546    0.0004876    -0.0001543    0.0002809     0.1077488   -0.2907144 
   0.044561131     0.2446124   -0.4899502    -0.0002623   -0.0001502     0.0001927    0.0003616     0.1078331   -0.2910390 
   0.044661156     0.2402512   -0.4873342    -0.0003897   -0.0000459    -0.0000124    0.0001423     0.1065144   -0.2914554 
   0.044761181     0.2379436   -0.4857450    -0.0006157    0.0004534    -0.0001180    0.0003126     0.1069318   -0.2904033 
   0.044861206     0.2404888   -0.4834057    -0.0006810    0.0004434    -0.0003397    0.0002150     0.1067831   -0.2889887 
   0.044961231     0.2337295   -0.4810898     0.0000493    0.0007888    -0.0001990    0.0000592     0.1049158   -0.2886581 
   0.045061256     0.2344486   -0.4835184    -0.0001539    0.0001151     0.0000694    0.0001082     0.1045898   -0.2880567 
   0.045161281     0.2352071   -0.4800824     0.0000069    0.0000742    -0.0001370    0.0003412     0.1052470   -0.2881783 
   0.045261306     0.2377582   -0.4802218    -0.0003110   -0.0000570    -0.0000028    0.0001118     0.1044500   -0.2886055 
   0.045361331     0.2361378   -0.4804863    -0.0007424    0.0005000    -0.0001291    0.0001903     0.1039715   -0.2869550 
   0.045461356     0.2341214   -0.4822878     0.0002314    0.0000520    -0.0000552    0.0004264     0.1034166   -0.2870940 
   0.045561381     0.2326041   -0.4845890    -0.0011185    0.0004968     0.0001480    0.0001923     0.1029592   -0.2857112 
   0.045661406     0.2296066   -0.4756416     0.0006945   -0.0002545    -0.0000673    0.0001052     0.1031365   -0.2861934 
   0.045761431     0.2340583   -0.4815474    -0.0006176    0.0003541    -0.0000250    0.0003138     0.1026993   -0.2860165 
   0.045861456     0.2321221   -0.4802433     0.0003344   -0.0000594    -0.0002119    0.0000391     0.1027854   -0.2844484 
   0.045961481     0.2292879   -0.4732182    -0.0000730    0.0006680     0.0000991    0.0002120     0.1023985   -0.2847488 
   0.046061506     0.2281291   -0.4773265    -0.0007468    0.0000874    -0.0001691    0.0003104     0.1022260   -0.2845863 
   0.046161531     0.2268999   -0.4732608    -0.0003101    0.0005796    -0.0003026    0.0000745     0.1014823   -0.2839125 
   0.046261556     0.2242018   -0.4731012    -0.0002038    0.0001948     0.0000788    0.0000824     0.1019206   -0.2826625 
   0.046361581     0.2227951   -0.4718440    -0.0001529   -0.0003184     0.0000256    0.0002424     0.1007481   -0.2832328 
   0.046461606     0.2222182   -0.4751655     0.0003776   -0.0000953     0.0000815    0.0002372     0.1015424   -0.2821558 
   0.046561631     0.2190375   -0.4745691    -0.0004227   -0.0000927    -0.0000177    0.0000290     0.1004753   -0.2820774 
   0.046661656     0.2183127   -0.4749089    -0.0000033   -0.0001924     0.0000372    0.0003020     0.0991514   -0.2823399 
   0.046761681     0.2184920   -0.4702243     0.0006587    0.0001957    -0.0000677    0.0001416     0.0989377   -0.2813288 
   0.046861706     0.2182711   -0.4741189    -0.0001755    0.0001944    -0.0000214    0.0000722     0.0985678   -0.2811316 
   0.046961731     0.2221237   -0.4700516    -0.0004439    0.0003789     0.0001209    0.0001529     0.0996544   -0.2802050 
   0.047061756     0.2195232   -0.4720707     0.0006597   -0.0000801     0.0000744    0.0002735     0.0986049   -0.2807718 
   0.047161781     0.2189097   -0.4758210     0.0001716   -0.0002454    -0.0001908    0.0003628     0.0987116   -0.2799794 
   0.047261806     0.2154474   -0.4739513    -0.0004455    0.0002663     0.0001497    0.0003737     0.0984600   -0.2789589 
   0.047361831     0.2148495   -0.4675982     0.0005994    0.0002896    -0.0001191    0.0000947     0.0969922   -0.2798634 
   0.047461856     0.2151551   -0.4651483     0.0004761    0.0005653     0.0000743    0.0000825     0.0975209   -0.2791421 
   0.047561881     0.2144223   -0.4705933    -0.0003533    0.0001252    -0.0001839    0.0002700     0.0976970   -0.2777839 
   0.047661906     0.2132695   -0.4662331    -0.0004588    0.0001518    -0.0001787    0.0001483     0.0974876   -0.2778855 
   0.047761931     0.2110858   -0.4681976    -0.0008089   -0.0002059    -0.0001411    0.0003501     0.0971906   -0.2766361 
   0.047861956     0.2106176   -0.4659672     0.0001043   -0.0001998     0.0000811    0.0001941     0.0971290   -0.2769432 
   0.047961981     0.2050053   -0.4656478     0.0003679    0.0003523     0.0001609    0.0001170     0.0966799   -0.2761751 
   0.048062006     0.2094184   -0.4708102     0.0000025    0.0005882     0.0000671    0.0003380     0.0946667   -0.2755394 
   0.048162031     0.2107562   -0.4669869    -0.0002770   -0.0001126    -0.0002559    0.0003202     0.0956203   -0.2751897 
   0.048262056     0.2061644   -0.4650602     0.0001973   -0.0000927    -0.0001589    0.0002735     0.0955911   -0.2762827 
   0.048362081     0.2071604   -0.4604447    -0.0006652    0.0003710    -0.0000897    0.0004703     0.0952244   -0.2742779 
   0.048462106     0.2073296   -0.4672449    -0.0001485    0.0007652     0.0000430    0.0004338     0.0940642   -0.2740410 
   0.048562131     0.2023534   -0.4666632    -0.0000967   -0.0005409     0.0000464    0.0003034     0.0953775   -0.2736976 
   0.048662156     0.2002275   -0.4623577    -0.0007737   -0.0001664    -0.0001312    0.0004083     0.0952456   -0.2741315 
   0.048762181     0.2026875   -0.4609628    -0.0010123    0.0006287    -0.0000176    0.0001486     0.0940090   -0.2722603 
   0.048862206     0.1987198   -0.4697781     0.0004312   -0.0000199    -0.0000072    0.0003174     0.0932537   -0.2741111 
   0.048962231     0.2058179   -0.4631504    -0.0003870    0.0004909    -0.0000867    0.0001419     0.0932586   -0.2728586 
   0.049062256     0.1990141   -0.4606138     0.0000962    0.0002027    -0.0000720    0.0002706     0.0929481   -0.2724603 
   0.049162281     0.1968434   -0.4613124    -0.0000064    0.0006508    -0.0003140    0.0003793     0.0920687   -0.2726595 
   0.049262306     0.1992876   -0.4635075    -0.0002487    0.0002708    -0.0000579   -0.0001104     0.0929608   -0.2721674 
   0.049362331     0.1969200   -0.4604349     0.0001518    0.0001805    -0.0001652    0.0002511     0.0931198   -0.2715058 
   0.049462356     0.1950205   -0.4573691     0.0003020    0.0005842    -0.0000486    0.0000655     0.0915574   -0.2709957 
   0.049562381     0.1958499   -0.4602709    -0.0001118    0.0007605    -0.0002088    0.0002815     0.0918509   -0.2706892 
   0.049662406     0.1946301   -0.4586721     0.0001975   -0.0000451    -0.0001250    0.0003569     0.0916400   -0.2698362 
   0.049762431     0.1936702   -0.4657296    -0.0001425    0.0005538     0.0000026    0.0000994     0.0906324   -0.2689799 
   0.049862456     0.1939621   -0.4609525     0.0003159    0.0004790    -0.0002714    0.0005077     0.0906108   -0.2689008 
   0.049962481     0.1916943   -0.4593633     0.0000437   -0.0002467     0.0000664    0.0002267     0.0911624   -0.2691105 
   0.050062506     0.1896529   -0.4563503    -0.0003125    0.0000479    -0.0000449    0.0003312     0.0897651   -0.2691644 
   0.050162531     0.1889939   -0.4544914     0.0001646    0.0001314    -0.0001179   -0.0000052     0.0903626   -0.2678429 
   0.050262556     0.1890984   -0.4560888    -0.0001264    0.0002400    -0.0001124    0.0000009     0.0897936   -0.2675831 
   0.050362581     0.1866640   -0.4586483     0.0001309   -0.0003598    -0.0000606   -0.0001119     0.0893060   -0.2676735 
   0.050462606     0.1819331   -0.4559881     0.0001030    0.0006183     0.0000401    0.0005500     0.0898633   -0.2667496 
   0.050562631     0.1849098   -0.4521055    -0.0000946    0.0004326     0.0001245   -0.0000049     0.0890547   -0.2661864 
   0.050662656     0.1898111   -0.4582668    -0.0002218   -0.0003455    -0.0000711    0.0003556     0.0892072   -0.2661458 
   0.050762681     0.1819215   -0.4541961    -0.0001488    0.0000915    -0.0000452    0.0001701     0.0892313   -0.2660026 
   0.050862706     0.1858985   -0.4541050    -0.0002830    0.0008231     0.0001045    0.0002388     0.0880258   -0.2654191 
   0.050962731     0.1806005   -0.4494691     0.0000488    0.0004816    -0.0000374    0.0003131     0.0877825   -0.2652470 
   0.051062756     0.1855749   -0.4555292    -0.0003208    0.0004740     0.0001690    0.0003080     0.0880474   -0.2651192 
   0.051162781     0.1808701   -0.4529589    -0.0003423   -0.0002285    -0.0001621    0.0001362     0.0880060   -0.2649499 
   0.051262806     0.1819256   -0.4536937     0.0002175   -0.0003863    -0.0002081    0.0002448     0.0867468   -0.2643623 
   0.051362831     0.1759409   -0.4506994    -0.0001807    0.0002657    -0.0000279    0.0002680     0.0869402   -0.2641206 
   0.051462856     0.1820618   -0.4516831    -0.0001469    0.0009299     0.0000585    0.0003691     0.0877206   -0.2636093 
   0.051562881     0.1769886   -0.4531765     0.0001526   -0.0001244    -0.0001118    0.0001936     0.0868126   -0.2636561 
   0.051662906     0.1774407   -0.4461023    -0.0000540   -0.0001794    -0.0000665    0.0002886     0.0861812   -0.2629742 
   0.051762931     0.1750693   -0.4491389    -0.0005399   -0.0003532    -0.0001826    0.0000504     0.0859749   -0.2628227 
   0.051862956     0.1774508   -0.4482765     0.0004635    0.0001176     0.0000522    0.0002055     0.0865961   -0.2625021 
   0.051962981     0.1788767   -0.4451999     0.0000052   -0.0003495    -0.0000337    0.0004575     0.0855572   -0.2628231 
   0.052063007     0.1738238   -0.4469979    -0.0010905    0.0001191     0.0001308    0.0000926     0.0857802   -0.2609623 
   0.052163032     0.1807465   -0.4495524    -0.0007145   -0.0003357     0.0000439    0.0002017     0.0854925   -0.2608435 
   0.052263057     0.1719145   -0.4511063    -0.0003300    0.0000199    -0.0001616    0.0002133     0.0846070   -0.2605506 
   0.052363082     0.1702884   -0.4451650     0.0001136    0.0005671    -0.0000209    0.0000438     0.0847566   -0.2604000 
   0.052463107     0.1721048   -0.4464113     0.0002169    0.0007842    -0.0000173    0.0003818     0.0847181   -0.2606784 
   0.052563132     0.1713904   -0.4401213    -0.0001179    0.0006142    -0.0001645    0.0003644     0.0844930   -0.2591903 
   0.052663157     0.1713902   -0.4446678     0.0002243   -0.0004419     0.0000776    0.0001092     0.0834771   -0.2599558 
   0.052763182     0.1651627   -0.4428260    -0.0005340    0.0003822    -0.0004620    0.0000559     0.0833771   -0.2584545 
   0.052863207     0.1699299   -0.4468279     0.0007285    0.0003506    -0.0002548    0.0000890     0.0839871   -0.2592456 
   0.052963232     0.1703434   -0.4427038    -0.0003809   -0.0006392    -0.0000388    0.0001071     0.0836601   -0.2584960 
   0.053063257     0.1670880   -0.4418193     0.0006659    0.0001125    -0.0000799    0.0001946     0.0834125   -0.2579855 
   0.053163282     0.1654306   -0.4415845    -0.0001610    0.0010730    -0.0000931    0.0004535     0.0821577   -0.2584234 
   0.053263307     0.1666910   -0.4404156    -0.0000579    0.0002861    -0.0001049    0.0003418     0.0831822   -0.2581671 
   0.053363332     0.1628023   -0.4403606     0.0000562    0.0005081    -0.0002187    0.0001270     0.0812368   -0.2570525 
   0.053463357     0.1677482   -0.4424415     0.0000686    0.0001193     0.0000123    0.0001569     0.0822165   -0.2561918 
   0.053563382     0.1667366   -0.4466245    -0.0002591    0.0004557     0.0000420    0.0002625     0.0818261   -0.2574808 
   0.053663407     0.1622244   -0.4415399    -0.0007465    0.0004249    -0.0000546    0.0001638     0.0815266   -0.2565674 
   0.053763432     0.1624876   -0.4357232     0.0001367    0.0005823    -0.0000982    0.0002777     0.0820490   -0.2553442 
   0.053863457     0.1608365   -0.4393477    -0.0001173   -0.0007370    -0.0003814    0.0002611     0.0801985   -0.2560750 
   0.053963482     0.1588350   -0.4375261    -0.0003001    0.0003927    -0.0001661    0.0003760     0.0812469   -0.2566253 
   0.054063507     0.1562135   -0.4366529     0.0001668   -0.0001839    -0.0002549    0.0004864     0.0813862   -0.2547261 
   0.054163532     0.1578847   -0.4334212     0.0000172    0.0004517    -0.0000257    0.0001713     0.0804684   -0.2545840 
   0.054263557     0.1585032   -0.4381660    -0.0003348    0.0002025     0.0000426    0.0002596     0.0793286   -0.2543908 
   0.054363582     0.1530748   -0.4370858     0.0005664    0.0002095    -0.0005681    0.0001821     0.0796997   -0.2542523 
   0.054463607     0.1580304   -0.4337734    -0.0000144   -0.0001711    -0.0000360    0.0004598     0.0803156   -0.2539971 
   0.054563632     0.1561391   -0.4339708    -0.0003002    0.0012700     0.0000028    0.0000133     0.0802757   -0.2538752 
   0.054663657     0.1545392   -0.4301309    -0.0001846    0.0005172    -0.0001653    0.0001331     0.0796391   -0.2528660 
   0.054763682     0.1587293   -0.4318381    -0.0000536   -0.0003694    -0.0001788    0.0002393     0.0784996   -0.2526937 
   0.054863707     0.1566967   -0.4336044     0.0000297    0.0006090    -0.0000412    0.0001262     0.0805817   -0.2517266 
   0.054963732     0.1544547   -0.4338950     0.0001835    0.0006597    -0.0002122    0.0001825     0.0793709   -0.2516617 
   0.055063757     0.1525030   -0.4339480    -0.0003993    0.0000236    -0.0002334    0.0002589     0.0780461   -0.2521657 
   0.055163782     0.1517572   -0.4319934     0.0002614    0.0003638    -0.0002537    0.0001096     0.0780423   -0.2519584 
   0.055263807     0.1507351   -0.4315616     0.0007612   -0.0002730    -0.0000864    0.0005204     0.0790408   -0.2517340 
   0.055363832     0.1540028   -0.4291394    -0.0002416   -0.0002402     0.0001468    0.0000782     0.0786075   -0.2510507 
   0.055463857     0.1461050   -0.4310111    -0.0005586   -0.0000388    -0.0002108    0.0003039     0.0787763   -0.2504583 
   0.055563882     0.1480652   -0.4267537    -0.0003407   -0.0003514     0.0001596    0.0003377     0.0774559   -0.2499615 
   0.055663907     0.1471580   -0.4285782    -0.0003514    0.0009331    -0.0000600    0.0004475     0.0778405   -0.2502119 
   0.055763932     0.1487175   -0.4268373     0.0001280   -0.0002499     0.0002432    0.0002557     0.0769286   -0.2503962 
   0.055863957     0.1445977   -0.4312811    -0.0001948    0.0009126     0.0002592    0.0004795     0.0766714   -0.2499575 
   0.055963982     0.1453428   -0.4297505    -0.0000737    0.0001914    -0.0001003   -0.0000307     0.0772633   -0.2486304 
   0.056064007     0.1460482   -0.4257327     0.0003474    0.0005866     0.0000991    0.0000307     0.0766126   -0.2493493 
   0.056164032     0.1436417   -0.4256056    -0.0000087   -0.0001422     0.0000690    0.0003077     0.0762015   -0.2490570 
   0.056264057     0.1475109   -0.4250291     0.0002668    0.0010480     0.0002140    0.0002837     0.0759574   -0.2490007 
   0.056364082     0.1426172   -0.4287384    -0.0000973    0.0008919    -0.0002088    0.0002586     0.0760002   -0.2488870 
   0.056464107     0.1412843   -0.4225841     0.0001013   -0.0000793     0.0001942    0.0000970     0.0754464   -0.2475464 
   0.056564132     0.1425673   -0.4185784    -0.0000410    0.0002078    -0.0000015    0.0001532     0.0751803   -0.2469680 
   0.056664157     0.1364982   -0.4261736    -0.0003737   -0.0000675    -0.0000820    0.0002866     0.0748766   -0.2473673 
   0.056764182     0.1421186   -0.4251501    -0.0005876    0.0005699     0.0002610    0.0005328     0.0758117   -0.2473608 
   0.056864207     0.1452417   -0.4202100    -0.0002449    0.0006822     0.0000185    0.0001088     0.0755454   -0.2466901 
   0.056964232     0.1402101   -0.4259366    -0.0002312   -0.0001177    -0.0002490    0.0003451     0.0747821   -0.2464740 
   0.057064257     0.1379373   -0.4225502    -0.0002374   -0.0001391    -0.0000770    0.0001126     0.0742887   -0.2457080 
   0.057164282     0.1376724   -0.4222980    -0.0002959    0.0008406    -0.0002878    0.0003064     0.0745272   -0.2459365 
   0.057264307     0.1354427   -0.4203815    -0.0004085   -0.0002924     0.0000004    0.0003075     0.0740689   -0.2461116 
   0.057364332     0.1344297   -0.4212218     0.0000901    0.0005055    -0.0000555    0.0003108     0.0739711   -0.2455717 
   0.057464357     0.1384713   -0.4180538    -0.0008435    0.0002192    -0.0001319   -0.0000900     0.0745693   -0.2451579 
   0.057564382     0.1384564   -0.4216406    -0.0004984    0.0004459    -0.0001927    0.0000291     0.0730029   -0.2447232 
   0.057664407     0.1373599   -0.4175445     0.0000800   -0.0000731     0.0000721    0.0002880     0.0736842   -0.2442517 
   0.057764432     0.1384518   -0.4150201    -0.0004935    0.0017069    -0.0001111    0.0003513     0.0734483   -0.2442868 
   0.057864457     0.1350938   -0.4168188     0.0008493    0.0005268    -0.0000601    0.0003574     0.0735168   -0.2443071 
   0.057964482     0.1304485   -0.4206561     0.0004751   -0.0000488    -0.0002464    0.0003727     0.0723388   -0.2439819 
   0.058064507     0.1322598   -0.4173603     0.0002498    0.0001322     0.0003792    0.0005340     0.0728172   -0.2438505 
   0.058164532     0.1350083   -0.4125262     0.0003501   -0.0001858     0.0001219    0.0000696     0.0721598   -0.2428907 
   0.058264557     0.1312006   -0.4162518    -0.0001726    0.0009386     0.0000257    0.0002139     0.0722101   -0.2426342 
   0.058364582     0.1316019   -0.4133454    -0.0008657    0.0004275    -0.0000624    0.0002612     0.0724798   -0.2424719 
   0.058464607     0.1258358   -0.4121440     0.0000815    0.0000445     0.0001619    0.0003456     0.0722498   -0.2423057 
   0.058564632     0.1276478   -0.4156446     0.0001824   -0.0003815     0.0001831    0.0003472     0.0722796   -0.2419783 
   0.058664657     0.1305274   -0.4160111     0.0005256    0.0000528    -0.0000945    0.0003890     0.0714664   -0.2410913 
   0.058764682     0.1305078   -0.4168718     0.0002690   -0.0001221    -0.0001349    0.0006421     0.0708854   -0.2415403 
   0.058864707     0.1279729   -0.4140039     0.0007813    0.0007443    -0.0002540    0.0002174     0.0713969   -0.2413654 
   0.058964732     0.1263381   -0.4111322    -0.0000941   -0.0006560     0.0000825    0.0004216     0.0701906   -0.2412015 
   0.059064757     0.1261096   -0.4077365    -0.0000516    0.0001247    -0.0002566    0.0004868     0.0720196   -0.2405496 
   0.059164782     0.1272477   -0.4107216     0.0003756    0.0006718    -0.0001518    0.0000576     0.0702809   -0.2397845 
   0.059264807     0.1261889   -0.4071762     0.0002473    0.0004175    -0.0000677    0.0001735     0.0709236   -0.2401495 
   0.059364832     0.1228669   -0.4098070     0.0000777    0.0006744    -0.0001524    0.0004490     0.0706395   -0.2406070 
   0.059464857     0.1266422   -0.4070573     0.0001623    0.0001301    -0.0001017    0.0004259     0.0694564   -0.2393804 
   0.059564882     0.1286035   -0.4093777    -0.0003095   -0.0001032    -0.0002511    0.0005484     0.0704053   -0.2389163 
   0.059664907     0.1261115   -0.4129684    -0.0001602    0.0001304     0.0000978    0.0004104     0.0687804   -0.2397445 
   0.059764932     0.1236137   -0.4079118    -0.0008949    0.0003767    -0.0001545    0.0003373     0.0698835   -0.2397638 
   0.059864957     0.1282281   -0.4051048    -0.0005724   -0.0000308    -0.0001174    0.0002711     0.0695643   -0.2383508 
   0.059964982     0.1231412   -0.4115765     0.0008141    0.0008995     0.0000236    0.0003562     0.0696559   -0.2384187 
   0.060065008     0.1195900   -0.4079472     0.0003658    0.0004193     0.0000556    0.0002177     0.0690173   -0.2385150 
   0.060165033     0.1219788   -0.4072575     0.0002689   -0.0001214    -0.0000288    0.0000995     0.0693870   -0.2377941 
   0.060265058     0.1200455   -0.4056326     0.0007898    0.0007449    -0.0003872    0.0004546     0.0685239   -0.2365710 
   0.060365083     0.1169589   -0.4030768     0.0004584   -0.0000614    -0.0001547    0.0001247     0.0688300   -0.2371049 
   0.060465108     0.1191703   -0.4064042     0.0001575    0.0009928     0.0003234    0.0006310     0.0685098   -0.2364023 
   0.060565133     0.1158243   -0.3953331    -0.0003883    0.0003730     0.0002638    0.0003805     0.0681756   -0.2376149 
   0.060665158     0.1145095   -0.4082345     0.0000901    0.0000970     0.0000476    0.0001942     0.0677766   -0.2365276 
   0.060765183     0.1196359   -0.4036543    -0.0003147   -0.0000680    -0.0002951    0.0000619     0.0675627   -0.2359018 
   0.060865208     0.1182062   -0.4042829     0.0002611    0.0004694    -0.0000438    0.0002568     0.0683765   -0.2353294 
   0.060965233     0.1154116   -0.4013764    -0.0000709    0.0007609     0.0001270    0.0003353     0.0685065   -0.2362351 
   0.061065258     0.1155308   -0.4022938     0.0006204    0.0000798    -0.0003147    0.0000925     0.0678016   -0.2358821 
   0.061165283     0.1162117   -0.4043759     0.0004225    0.0005607    -0.0000537    0.0000193     0.0675509   -0.2354266 
   0.061265308     0.1110210   -0.4020837    -0.0003765    0.0011982     0.0001312    0.0002675     0.0674160   -0.2355491 
   0.061365333     0.1147293   -0.3988127     0.0002727   -0.0001262     0.0001540    0.0002607     0.0667777   -0.2340810 
   0.061465358     0.1123002   -0.3979252    -0.0004126   -0.0003349    -0.0000915    0.0001258     0.0669504   -0.2339041 
   0.061565383     0.1100246   -0.3959050     0.0004472    0.0005191    -0.0001333    0.0002488     0.0666904   -0.2337214 
   0.061665408     0.1144701   -0.3994688     0.0001555    0.0008759     0.0002214    0.0004127     0.0664194   -0.2344141 
   0.061765433     0.1169700   -0.4002604     0.0000407   -0.0001503    -0.0001161    0.0002748     0.0662798   -0.2342580 
   0.061865458     0.1150562   -0.3971753    -0.0005044    0.0000501    -0.0001904    0.0001970     0.0654251   -0.2332813 
   0.061965483     0.1108580   -0.3972276    -0.0000256   -0.0000356    -0.0000644    0.0003450     0.0672123   -0.2330709 
   0.062065508     0.1076202   -0.3953004    -0.0001591    0.0004213     0.0002246    0.0003829     0.0657493   -0.2328856 
   0.062165533     0.1126080   -0.3939920    -0.0001993    0.0007105    -0.0001285    0.0001943     0.0650791   -0.2328959 
   0.062265558     0.1095752   -0.3942590     0.0002167    0.0009249    -0.0000279    0.0004603     0.0654644   -0.2331731 
   0.062365583     0.1101132   -0.3964565    -0.0004179    0.0014661    -0.0000788    0.0006017     0.0640265   -0.2326271 
   0.062465608     0.1097414   -0.3947521     0.0001656    0.0003436     0.0001341    0.0002840     0.0650609   -0.2321745 
   0.062565633     0.1067824   -0.3951895    -0.0006266    0.0004635    -0.0000418    0.0002195     0.0646897   -0.2321457 
   0.062665658     0.1082839   -0.3908218    -0.0000786    0.0002233     0.0000806    0.0000815     0.0643425   -0.2319725 
   0.062765683     0.1070603   -0.3935891    -0.0000198    0.0011194     0.0002266    0.0003277     0.0647407   -0.2314322 
   0.062865708     0.1069520   -0.3937483    -0.0003306   -0.0003039     0.0001702    0.0001612     0.0644905   -0.2321180 
   0.062965733     0.1077644   -0.3923009     0.0001391    0.0005253     0.0000029    0.0002756     0.0647479   -0.2308468 
   0.063065758     0.1046614   -0.3980645    -0.0003223    0.0007637    -0.0002839    0.0003128     0.0645566   -0.2306338 
   0.063165783     0.1061958   -0.3886643    -0.0000558    0.0002554    -0.0000774    0.0004465     0.0634323   -0.2299593 
   0.063265808     0.1066086   -0.3880712    -0.0001339   -0.0000687     0.0000904    0.0001030     0.0633566   -0.2297721 
   0.063365833     0.1030143   -0.3939092     0.0009505    0.0007120    -0.0000279    0.0004211     0.0627520   -0.2294600 
   0.063465858     0.1026310   -0.3877225    -0.0004300    0.0001310     0.0000952    0.0005054     0.0636805   -0.2300272 
   0.063565883     0.1051438   -0.3908062     0.0002307    0.0004103     0.0000348    0.0004838     0.0627571   -0.2298806 
   0.063665908     0.0998494   -0.3939252    -0.0004151    0.0001614     0.0000372    0.0003470     0.0630767   -0.2289771 
   0.063765933     0.1011470   -0.3905848     0.0001431    0.0006957    -0.0000042    0.0005488     0.0633434   -0.2298421 
   0.063865958     0.0995382   -0.3925644    -0.0010019    0.0001505     0.0001303    0.0003700     0.0629337   -0.2281460 
   0.063965983     0.1015894   -0.3870738     0.0005587   -0.0000512    -0.0000672    0.0002765     0.0627210   -0.2291894 
   0.064066008     0.1034357   -0.3861602     0.0000566    0.0000801    -0.0000596    0.0002259     0.0625176   -0.2280909 
   0.064166033     0.0987564   -0.3880039    -0.0004974    0.0011516     0.0000767    0.0002226     0.0624529   -0.2280769 
   0.064266058     0.1007819   -0.3864728     0.0000545    0.0002126     0.0001695    0.0002902     0.0617535   -0.2280263 
   0.064366083     0.1018710   -0.3839375    -0.0004372    0.0004270    -0.0001707    0.0000235     0.0625957   -0.2278275 
   0.064466108     0.0971798   -0.3863396     0.0007076    0.0000200     0.0000525    0.0003309     0.0615461   -0.2272589 
   0.064566133     0.0979368   -0.3851756    -0.0002980   -0.0000463    -0.0004262    0.0004840     0.0619396   -0.2266767 
   0.064666158     0.0978769   -0.3835060     0.0002059   -0.0000006    -0.0001926    0.0002929     0.0613517   -0.2270796 
   0.064766183     0.1001219   -0.3826900     0.0004414    0.0004925     0.0000741    0.0001737     0.0613107   -0.2265275 
   0.064866208     0.0998936   -0.3833078    -0.0005977    0.0007459     0.0002516    0.0004167     0.0607852   -0.2270395 
   0.064966233     0.0992241   -0.3856747    -0.0001671    0.0002018     0.0002683    0.0003695     0.0611685   -0.2259410 
   0.065066258     0.0970143   -0.3824669    -0.0009040    0.0002632    -0.0001489    0.0001385     0.0610640   -0.2271864 
   0.065166283     0.0982580   -0.3816952     0.0003891    0.0008206     0.0001564    0.0005526     0.0605964   -0.2268514 
   0.065266308     0.0970947   -0.3817564    -0.0005382    0.0007375     0.0000753    0.0003016     0.0610348   -0.2266888 
   0.065366333     0.0971954   -0.3806629     0.0005785    0.0004353     0.0002216    0.0003001     0.0613841   -0.2251418 
   0.065466358     0.0926071   -0.3830141    -0.0008899    0.0004108     0.0000878    0.0003742     0.0603591   -0.2261719 
   0.065566383     0.0902495   -0.3802810     0.0008086   -0.0001872     0.0001200    0.0005455     0.0594659   -0.2252158 
   0.065666408     0.0915723   -0.3759215    -0.0007025    0.0006930     0.0002079    0.0002498     0.0597274   -0.2247396 
   0.065766433     0.0946801   -0.3790121    -0.0005872    0.0005216    -0.0000914    0.0002750     0.0596992   -0.2247005 
   0.065866458     0.0897186   -0.3758801     0.0002879    0.0004230    -0.0000299    0.0001456     0.0600341   -0.2247403 
   0.065966483     0.0912553   -0.3820554    -0.0005617    0.0002511    -0.0000094    0.0003997     0.0604808   -0.2236710 
   0.066066508     0.0873914   -0.3769166    -0.0000616    0.0003323     0.0000122    0.0004698     0.0595588   -0.2243129 
   0.066166533     0.0939864   -0.3785790    -0.0000811    0.0012217    -0.0002716    0.0005576     0.0590588   -0.2240885 
   0.066266558     0.0855380   -0.3798630    -0.0000805   -0.0000113    -0.0000676    0.0005711     0.0592236   -0.2231484 
   0.066366583     0.0914643   -0.3763302    -0.0004379    0.0004409     0.0001533    0.0002301     0.0590818   -0.2228557 
   0.066466608     0.0929471   -0.3755647    -0.0000460   -0.0001556    -0.0002859    0.0002323     0.0587777   -0.2231048 
   0.066566633     0.0894210   -0.3738151     0.0004118    0.0010010     0.0000871    0.0005613     0.0586740   -0.2223216 
   0.066666658     0.0901037   -0.3719963    -0.0000073   -0.0000779     0.0000905    0.0003773     0.0592855   -0.2230310 
   0.066766683     0.0892202   -0.3760807     0.0000963    0.0008791    -0.0003039    0.0002511     0.0581875   -0.2228678 
   0.066866708     0.0929249   -0.3773316    -0.0000144   -0.0000309     0.0000972    0.0004971     0.0585012   -0.2229111 
   0.066966733     0.0878195   -0.3765532    -0.0003279   -0.0000740     0.0001082    0.0003779     0.0586247   -0.2222216 
   0.067066758     0.0879651   -0.3765886     0.0008394    0.0006037    -0.0002823    0.0005061     0.0583720   -0.2215797 
   0.067166783     0.0863728   -0.3722602    -0.0004515    0.0001088    -0.0000490    0.0005081     0.0569984   -0.2221536 
   0.067266808     0.0832570   -0.3755459    -0.0005124    0.0005152     0.0002836    0.0003570     0.0582759   -0.2212619 
   0.067366833     0.0860848   -0.3738806    -0.0006498    0.0005966    -0.0000427    0.0002270     0.0584071   -0.2212968 
   0.067466858     0.0844892   -0.3745666    -0.0004323    0.0006584     0.0002352    0.0005488     0.0572921   -0.2204617 
   0.067566883     0.0845469   -0.3703904    -0.0001267    0.0003702    -0.0001165    0.0001660     0.0575562   -0.2207821 
   0.067666908     0.0825694   -0.3676713     0.0000574   -0.0001224    -0.0001356    0.0003340     0.0574965   -0.2212803 
   0.067766933     0.0810469   -0.3710458     0.0001239   -0.0000692    -0.0000868    0.0004633     0.0573026   -0.2209885 
   0.067866958     0.0838747   -0.3688377     0.0002228    0.0001264    -0.0000746    0.0004380     0.0577872   -0.2196489 
   0.067966983     0.0846029   -0.3678945     0.0001159    0.0006239    -0.0000853    0.0006314     0.0561310   -0.2202954 
   0.068067009     0.0823846   -0.3698222     0.0004780    0.0005446     0.0000562    0.0007012     0.0564366   -0.2194885 
   0.068167034     0.0816586   -0.3690737    -0.0000571    0.0003555     0.0001866    0.0006108     0.0573973   -0.2203572 
   0.068267059     0.0866128   -0.3655054    -0.0006524    0.0008735     0.0000277    0.0003237     0.0569743   -0.2199284 
   0.068367084     0.0823995   -0.3691616    -0.0006371    0.0003142    -0.0000427    0.0001916     0.0567478   -0.2194052 
   0.068467109     0.0792974   -0.3661093     0.0006320    0.0001482     0.0001007    0.0003031     0.0564204   -0.2187022 
   0.068567134     0.0839590   -0.3674164    -0.0005266    0.0006010    -0.0002240    0.0003493     0.0561898   -0.2189506 
   0.068667159     0.0826787   -0.3653115    -0.0000742    0.0010700     0.0000800    0.0001411     0.0556350   -0.2190682 
   0.068767184     0.0805515   -0.3677068    -0.0003882    0.0005554     0.0000472    0.0001509     0.0563316   -0.2197602 
   0.068867209     0.0816914   -0.3661160    -0.0004453    0.0006942     0.0000266    0.0004092     0.0552103   -0.2177664 
   0.068967234     0.0791423   -0.3625622    -0.0001179    0.0009749    -0.0000588    0.0002489     0.0555697   -0.2173313 
   0.069067259     0.0768660   -0.3640480     0.0001258    0.0005999    -0.0002345    0.0001140     0.0558143   -0.2179582 
   0.069167284     0.0783163   -0.3679356    -0.0001621    0.0000853    -0.0000176    0.0004000     0.0551418   -0.2177486 
   0.069267309     0.0779265   -0.3621012     0.0004386    0.0003918    -0.0000874    0.0003823     0.0557645   -0.2183569 
   0.069367334     0.0782246   -0.3645693    -0.0000861    0.0007991     0.0001083    0.0006717     0.0549913   -0.2169880 
   0.069467359     0.0764811   -0.3587876    -0.0000173   -0.0000161    -0.0000709    0.0003800     0.0551641   -0.2165970 
   0.069567384     0.0777492   -0.3637131    -0.0003178    0.0012268    -0.0002299    0.0002606     0.0547184   -0.2163072 
   0.069667409     0.0739815   -0.3606356     0.0000317    0.0005037    -0.0001650    0.0004512     0.0546515   -0.2161267 
   0.069767434     0.0748309   -0.3592085    -0.0000401    0.0002258    -0.0001001    0.0005559     0.0543399   -0.2163076 
   0.069867459     0.0731495   -0.3624278    -0.0003048    0.0007434    -0.0000661    0.0004607     0.0541240   -0.2165058 
   0.069967484     0.0776914   -0.3635875    -0.0004169    0.0005325     0.0000182    0.0002261     0.0546724   -0.2171013 
   0.070067509     0.0755196   -0.3558868     0.0003862    0.0000581     0.0002708    0.0003553     0.0537253   -0.2157423 
   0.070167534     0.0749938   -0.3580880     0.0000107    0.0005608    -0.0000014    0.0004346     0.0542615   -0.2152674 
   0.070267559     0.0714146   -0.3586575     0.0001864    0.0001270    -0.0001295    0.0002473     0.0540038   -0.2162568 
   0.070367584     0.0734983   -0.3588874    -0.0003446    0.0007756     0.0000893    0.0004949     0.0540282   -0.2163568 
   0.070467609     0.0695363   -0.3570319     0.0005587   -0.0001939    -0.0001063    0.0007224     0.0535309   -0.2157949 
   0.070567634     0.0721980   -0.3529521     0.0004008   -0.0001621     0.0000282    0.0004982     0.0530410   -0.2148480 
   0.070667659     0.0698250   -0.3542176    -0.0010138    0.0004053    -0.0002391    0.0005331     0.0531852   -0.2144217 
   0.070767684     0.0735625   -0.3536189    -0.0002231    0.0002503     0.0000335    0.0000720     0.0523748   -0.2144431 
   0.070867709     0.0701982   -0.3586538     0.0000360    0.0004754    -0.0000733    0.0003712     0.0529362   -0.2145335 
   0.070967734     0.0745235   -0.3578526    -0.0002250    0.0000398     0.0002700    0.0005854     0.0527291   -0.2133350 
   0.071067759     0.0722870   -0.3576051    -0.0005722    0.0013173     0.0000502    0.0005214     0.0527390   -0.2141091 
   0.071167784     0.0674736   -0.3554306     0.0000122    0.0008876     0.0001111    0.0003480     0.0529207   -0.2141642 
   0.071267809     0.0730790   -0.3536808    -0.0000499   -0.0001247    -0.0000332    0.0006024     0.0515333   -0.2134581 
   0.071367834     0.0674420   -0.3532193     0.0001412    0.0004974    -0.0001606    0.0001687     0.0533770   -0.2137567 
   0.071467859     0.0707913   -0.3532448    -0.0002523    0.0007886     0.0001744    0.0003663     0.0522472   -0.2133978 
   0.071567884     0.0676533   -0.3465239     0.0003535    0.0004105    -0.0001371    0.0001514     0.0524419   -0.2133138 
   0.071667909     0.0694898   -0.3525531    -0.0005847    0.0006289     0.0002883    0.0002660     0.0522714   -0.2133739 
   0.071767934     0.0659486   -0.3521872     0.0001605    0.0005497     0.0001149    0.0002598     0.0517399   -0.2124240 
   0.071867959     0.0650566   -0.3499084    -0.0002200    0.0005983    -0.0000647    0.0003221     0.0520549   -0.2131387 
   0.071967984     0.0657848   -0.3491010    -0.0003556    0.0002042     0.0000825    0.0003329     0.0521421   -0.2124356 
   0.072068009     0.0652368   -0.3510848     0.0001821    0.0005906     0.0001652    0.0003205     0.0512598   -0.2120791 
   0.072168034     0.0631788   -0.3506469     0.0002069    0.0006120    -0.0002182    0.0002409     0.0514112   -0.2126526 
   0.072268059     0.0678116   -0.3484217     0.0005254    0.0007015    -0.0001246    0.0001777     0.0511604   -0.2113383 
   0.072368084     0.0663161   -0.3478947     0.0003417   -0.0002015     0.0002901    0.0003282     0.0509517   -0.2118332 
   0.072468109     0.0670890   -0.3489988    -0.0004733    0.0006250     0.0002476    0.0004196     0.0520708   -0.2123327 
   0.072568134     0.0660905   -0.3490170     0.0005359    0.0004496     0.0002002    0.0004514     0.0508492   -0.2113564 
   0.072668159     0.0640210   -0.3482681     0.0002362    0.0011953    -0.0000051    0.0002659     0.0509759   -0.2112652 
   0.072768184     0.0664139   -0.3505771     0.0003208    0.0000475     0.0002229    0.0005868     0.0505239   -0.2113006 
   0.072868209     0.0647543   -0.3469661    -0.0002603    0.0007671    -0.0002013    0.0004962     0.0502294   -0.2109099 
   0.072968234     0.0646598   -0.3509485     0.0004158    0.0005563     0.0002577    0.0003272     0.0506626   -0.2117112 
   0.073068259     0.0639734   -0.3467671     0.0001467    0.0002209    -0.0003030    0.0004254     0.0503219   -0.2103442 
   0.073168284     0.0611793   -0.3475798     0.0001237    0.0000361     0.0001961    0.0002802     0.0506740   -0.2105653 
   0.073268309     0.0637221   -0.3463143    -0.0000145    0.0003096    -0.0001758    0.0004548     0.0502416   -0.2101905 
   0.073368334     0.0645598   -0.3466383    -0.0001332    0.0010369     0.0002112    0.0001676     0.0501267   -0.2103885 
   0.073468359     0.0648062   -0.3426334    -0.0000872    0.0007421     0.0002281    0.0005745     0.0505370   -0.2092753 
   0.073568384     0.0594830   -0.3411995     0.0004961    0.0010237    -0.0000739    0.0004910     0.0490989   -0.2096332 
   0.073668409     0.0608494   -0.3390209     0.0000212    0.0003765    -0.0000212    0.0006025     0.0500966   -0.2099866 
   0.073768434     0.0568085   -0.3456509    -0.0003257    0.0001608     0.0002631    0.0004824     0.0495289   -0.2091394 
   0.073868459     0.0650174   -0.3422761     0.0003066    0.0002122    -0.0001329    0.0004150     0.0497983   -0.2082334 
   0.073968484     0.0580348   -0.3429101    -0.0001747   -0.0001383    -0.0002194    0.0004437     0.0489875   -0.2093346 
   0.074068509     0.0597972   -0.3410396    -0.0007484    0.0003417     0.0005408    0.0004794     0.0490379   -0.2084076 
   0.074168534     0.0622965   -0.3425934     0.0005494    0.0000009    -0.0000661    0.0004784     0.0493127   -0.2092686 
   0.074268559     0.0601590   -0.3427443     0.0006803   -0.0000143     0.0000983    0.0005376     0.0484245   -0.2086149 
   0.074368584     0.0635883   -0.3412412     0.0001087    0.0002399    -0.0000279    0.0002078     0.0496457   -0.2083508 
   0.074468609     0.0603784   -0.3381920     0.0004745    0.0001748     0.0001498    0.0003138     0.0492343   -0.2068514 
   0.074568634     0.0616772   -0.3427249    -0.0004308    0.0001966     0.0003755    0.0003984     0.0482862   -0.2078131 
   0.074668659     0.0593515   -0.3388436    -0.0003733    0.0001092    -0.0002187    0.0001327     0.0482623   -0.2085148 
   0.074768684     0.0576665   -0.3370213    -0.0000536    0.0005577     0.0003092    0.0005384     0.0485457   -0.2075016 
   0.074868709     0.0549444   -0.3377381    -0.0000911    0.0003610     0.0002295    0.0000637     0.0477594   -0.2076225 
   0.074968734     0.0635379   -0.3370876    -0.0005698   -0.0000071    -0.0001207    0.0004299     0.0485971   -0.2076830 
   0.075068759     0.0557070   -0.3380524     0.0002294    0.0000721    -0.0001878    0.0005528     0.0477679   -0.2067865 
   0.075168784     0.0599500   -0.3386549    -0.0001426    0.0006499     0.0000147    0.0005280     0.0482146   -0.2077511 
   0.075268809     0.0568575   -0.3368011    -0.0000175    0.0004632    -0.0000470    0.0004993     0.0478787   -0.2077689 
   0.075368834     0.0591855   -0.3364599     0.0002555    0.0006532     0.0001395    0.0004105     0.0482876   -0.2075669 
   0.075468859     0.0569464   -0.3362849     0.0000487    0.0005412    -0.0000409    0.0006038     0.0472666   -0.2060898 
   0.075568884     0.0563029   -0.3339201     0.0002434    0.0011259     0.0000532    0.0006287     0.0473472   -0.2067114 
   0.075668909     0.0535426   -0.3351505     0.0004266    0.0004597     0.0000881    0.0002138     0.0465308   -0.2056717 
   0.075768934     0.0525938   -0.3354235     0.0002265    0.0002299     0.0000213    0.0003918     0.0478534   -0.2063275 
   0.075868959     0.0515286   -0.3336994     0.0000927    0.0007749    -0.0001406    0.0005700     0.0469946   -0.2066226 
   0.075968984     0.0563743   -0.3340274     0.0001363    0.0000160     0.0001019    0.0004885     0.0467566   -0.2064892 
   0.076069010     0.0560669   -0.3351009    -0.0001480    0.0006624     0.0000523    0.0006494     0.0473491   -0.2061342 
   0.076169035     0.0525788   -0.3340203     0.0003302    0.0005800    -0.0000464    0.0003755     0.0464412   -0.2056506 
   0.076269060     0.0501891   -0.3340459    -0.0002249    0.0003623    -0.0001829    0.0002054     0.0459563   -0.2051289 
   0.076369085     0.0526364   -0.3338742     0.0002934    0.0003093    -0.0000002    0.0004446     0.0468052   -0.2057533 
   0.076469110     0.0512282   -0.3331188     0.0000277    0.0003742     0.0002940    0.0003235     0.0455603   -0.2046524 
   0.076569135     0.0507603   -0.3308097     0.0006026    0.0002109     0.0001053    0.0003452     0.0452394   -0.2053111 
   0.076669160     0.0502934   -0.3289339    -0.0001422    0.0003863     0.0000742    0.0006767     0.0450661   -0.2052663 
   0.076769185     0.0494046   -0.3317782     0.0002877    0.0007150     0.0000490    0.0005786     0.0458468   -0.2038648 
   0.076869210     0.0512062   -0.3338357     0.0004010    0.0009988     0.0002087    0.0003262     0.0456799   -0.2049017 
   0.076969235     0.0509860   -0.3289118    -0.0000199    0.0008432     0.0002964    0.0004803     0.0464629   -0.2044702 
   0.077069260     0.0509162   -0.3312902     0.0000491    0.0006623     0.0000889    0.0005321     0.0456940   -0.2052815 
   0.077169285     0.0515743   -0.3288172     0.0004874    0.0004967    -0.0000545    0.0004953     0.0453794   -0.2038513 
   0.077269310     0.0550733   -0.3271009     0.0000559    0.0003010     0.0002606    0.0005395     0.0451818   -0.2041253 
   0.077369335     0.0521807   -0.3279304    -0.0003098    0.0009912     0.0002253    0.0002952     0.0446942   -0.2041801 
   0.077469360     0.0497060   -0.3275890    -0.0001977    0.0004710     0.0001096    0.0003488     0.0447684   -0.2037199 
   0.077569385     0.0501518   -0.3301712     0.0002882    0.0003887    -0.0000099    0.0004971     0.0451117   -0.2037098 
   0.077669410     0.0443545   -0.3285680     0.0001035    0.0006755    -0.0000128    0.0006195     0.0451773   -0.2047768 
   0.077769435     0.0476263   -0.3272722     0.0005429    0.0007040     0.0001097    0.0005399     0.0448588   -0.2035496 
   0.077869460     0.0481254   -0.3250731     0.0000194    0.0006140    -0.0000101    0.0004142     0.0453420   -0.2032948 
   0.077969485     0.0473952   -0.3273920     0.0003558   -0.0000179     0.0001980    0.0003093     0.0446981   -0.2037953 
   0.078069510     0.0461000   -0.3278739     0.0002520    0.0009733    -0.0000437    0.0004115     0.0440917   -0.2028624 
   0.078169535     0.0489454   -0.3247511     0.0007950   -0.0002794    -0.0000506    0.0004760     0.0441441   -0.2028919 
   0.078269560     0.0486803   -0.3245997    -0.0004842    0.0004146    -0.0002587    0.0003057     0.0440402   -0.2020157 
   0.078369585     0.0479153   -0.3233469    -0.0002231    0.0001308     0.0000119    0.0003753     0.0437422   -0.2028236 
   0.078469610     0.0478280   -0.3243617    -0.0003420    0.0003506    -0.0000853    0.0004650     0.0441829   -0.2023700 
   0.078569635     0.0444986   -0.3255726     0.0005249    0.0007602     0.0000054    0.0005652     0.0433786   -0.2020141 
   0.078669660     0.0472937   -0.3214544     0.0003647    0.0007270     0.0000062    0.0003876     0.0436398   -0.2022641 
   0.078769685     0.0453500   -0.3230532    -0.0004986    0.0008331     0.0000756    0.0002272     0.0432301   -0.2020172 
   0.078869710     0.0458932   -0.3231953     0.0008044    0.0005827    -0.0001129    0.0003354     0.0431640   -0.2013937 
   0.078969735     0.0447753   -0.3211535     0.0003432    0.0002917    -0.0000892    0.0003830     0.0430360   -0.2014897 
   0.079069760     0.0448158   -0.3203237    -0.0000924    0.0004080     0.0000155    0.0005355     0.0437414   -0.2019026 
   0.079169785     0.0443547   -0.3208157     0.0000710    0.0005792     0.0001796    0.0006353     0.0427874   -0.2020501 
   0.079269810     0.0458724   -0.3181871    -0.0000365    0.0004311    -0.0000728    0.0002022     0.0434951   -0.2019596 
   0.079369835     0.0444579   -0.3198492    -0.0000864    0.0006833     0.0000387    0.0004524     0.0423791   -0.2002727 
   0.079469860     0.0438761   -0.3228824     0.0001651    0.0008786     0.0000686    0.0006225     0.0425841   -0.2009488 
   0.079569885     0.0455460   -0.3176392    -0.0004455    0.0008911     0.0003025    0.0004432     0.0423358   -0.2009813 
   0.079669910     0.0437597   -0.3201367    -0.0000526    0.0002325    -0.0001987    0.0003791     0.0421483   -0.2009653 
   0.079769935     0.0452880   -0.3194236     0.0002818    0.0003599    -0.0000757    0.0004908     0.0433987   -0.2008380 
   0.079869960     0.0427512   -0.3176856    -0.0007618    0.0006986     0.0002483    0.0003805     0.0423708   -0.2000318 
   0.079969985     0.0453974   -0.3189232    -0.0001615    0.0000361     0.0000934    0.0004261     0.0432791   -0.2007938 
   0.080070010     0.0420317   -0.3180380    -0.0001384    0.0003403     0.0000698    0.0004804     0.0419167   -0.1999580 
   0.080170035     0.0429743   -0.3168955     0.0000969    0.0006508     0.0000124    0.0005367     0.0427363   -0.2006083 
   0.080270060     0.0443264   -0.3176501     0.0001691   -0.0002610     0.0000832    0.0003562     0.0422380   -0.1992068 
   0.080370085     0.0450131   -0.3158403     0.0001142    0.0010718     0.0000627    0.0006375     0.0416055   -0.1993915 
   0.080470110     0.0442931   -0.3164172     0.0001460    0.0003179     0.0002689    0.0003455     0.0418575   -0.1997428 
   0.080570135     0.0414191   -0.3197033     0.0006091    0.0004581     0.0002787    0.0004707     0.0424389   -0.1995095 
   0.080670160     0.0432131   -0.3161496    -0.0000059    0.0002552     0.0001590    0.0007611     0.0420981   -0.1993271 
   0.080770185     0.0421190   -0.3143409     0.0004816    0.0004471    -0.0000600    0.0005665     0.0415045   -0.1994080 
   0.080870210     0.0387312   -0.3129674     0.0005807    0.0006394     0.0002606    0.0004321     0.0415189   -0.1995386 
   0.080970235     0.0383884   -0.3131153     0.0002493    0.0006587     0.0001012    0.0004727     0.0412608   -0.1993383 
   0.081070260     0.0400719   -0.3129051    -0.0003825    0.0006547     0.0001890    0.0003991     0.0422735   -0.1989102 
   0.081170285     0.0383168   -0.3121575     0.0003367    0.0005384    -0.0001151    0.0003308     0.0403811   -0.1984368 
   0.081270310     0.0382041   -0.3125704     0.0000313    0.0006075    -0.0000454    0.0005023     0.0407829   -0.1980353 
   0.081370335     0.0410974   -0.3110597    -0.0005880    0.0007603    -0.0000895    0.0004508     0.0401199   -0.1985070 
   0.081470360     0.0378780   -0.3142782     0.0004797    0.0005656     0.0000449    0.0005774     0.0410904   -0.1978065 
   0.081570385     0.0384545   -0.3113331     0.0001952    0.0002772     0.0001586    0.0004846     0.0416618   -0.1979432 
   0.081670410     0.0395100   -0.3103179     0.0005858    0.0007961     0.0000937    0.0005651     0.0405189   -0.1976005 
   0.081770435     0.0389570   -0.3122528     0.0002982    0.0003514     0.0001734    0.0006591     0.0404826   -0.1974396 
   0.081870460     0.0362142   -0.3105178    -0.0001328    0.0009543    -0.0002144    0.0006713     0.0406595   -0.1981854 
   0.081970485     0.0384711   -0.3089548    -0.0001129    0.0001105    -0.0001004    0.0006317     0.0406750   -0.1976804 
   0.082070510     0.0350998   -0.3094473     0.0004177    0.0005171     0.0001134    0.0004789     0.0396431   -0.1975183 
   0.082170535     0.0371776   -0.3100768    -0.0001567    0.0001919     0.0000919    0.0003939     0.0394932   -0.1979453 
   0.082270560     0.0371870   -0.3084667    -0.0006780    0.0005475    -0.0000695    0.0003881     0.0403033   -0.1973452 
   0.082370585     0.0353863   -0.3097661    -0.0001929    0.0004522     0.0000609    0.0005094     0.0399724   -0.1975255 
   0.082470610     0.0341392   -0.3066460     0.0002830    0.0003537     0.0002360    0.0002664     0.0403351   -0.1966275 
   0.082570635     0.0337176   -0.3074952     0.0003518    0.0003360     0.0001424    0.0004856     0.0394473   -0.1974049 
   0.082670660     0.0321583   -0.3027657     0.0000799   -0.0002032     0.0000141    0.0004831     0.0391537   -0.1965984 
   0.082770685     0.0343074   -0.3082109     0.0004628    0.0003307     0.0001035    0.0004442     0.0393150   -0.1961330 
   0.082870710     0.0329729   -0.3044502     0.0002539    0.0004469     0.0000495    0.0004016     0.0387783   -0.1967952 
   0.082970735     0.0360183   -0.3076286    -0.0001883    0.0008315     0.0002855    0.0004613     0.0396620   -0.1964319 
   0.083070760     0.0354355   -0.3063309     0.0001214    0.0008116     0.0002504    0.0004318     0.0382756   -0.1960135 
   0.083170785     0.0338956   -0.3047440     0.0003202    0.0004668     0.0000903    0.0004478     0.0388664   -0.1960292 
   0.083270810     0.0333429   -0.3033307    -0.0004852    0.0006086     0.0001724    0.0003371     0.0384939   -0.1951680 
   0.083370835     0.0351703   -0.3044745    -0.0001512    0.0000707    -0.0000051    0.0003508     0.0400628   -0.1948451 
   0.083470860     0.0325665   -0.3052908    -0.0002056    0.0004704     0.0001885    0.0004392     0.0383551   -0.1951414 
   0.083570885     0.0342440   -0.3031913     0.0003040    0.0006820     0.0002148    0.0005985     0.0390866   -0.1948979 
   0.083670910     0.0346719   -0.3030179     0.0003446    0.0007659     0.0002119    0.0002967     0.0380123   -0.1956889 
   0.083770935     0.0338004   -0.2996747    -0.0003144    0.0002596     0.0001423    0.0005380     0.0386388   -0.1953079 
   0.083870960     0.0334631   -0.3018872     0.0003250    0.0007268     0.0000633    0.0003569     0.0378442   -0.1949380 
   0.083970985     0.0309146   -0.3019669    -0.0002533    0.0008279     0.0000731    0.0003048     0.0374463   -0.1948698 
   0.084071011     0.0317693   -0.3031327     0.0000707    0.0003012    -0.0000370    0.0003220     0.0372863   -0.1948904 
   0.084171036     0.0328719   -0.3007083    -0.0004801    0.0003180     0.0001325    0.0003582     0.0378360   -0.1942611 
   0.084271061     0.0321791   -0.3016551    -0.0001976    0.0004710     0.0000986    0.0004279     0.0376986   -0.1947176 
   0.084371086     0.0303448   -0.3020128     0.0001327    0.0004779     0.0001350    0.0002136     0.0377454   -0.1948772 
   0.084471111     0.0311356   -0.3015724     0.0002709    0.0005254     0.0000099    0.0005555     0.0376620   -0.1941224 
   0.084571136     0.0324268   -0.3009659     0.0003555    0.0000379     0.0000235    0.0004403     0.0373745   -0.1947595 
   0.084671161     0.0298019   -0.2976697     0.0004674    0.0000652     0.0000204    0.0004194     0.0372877   -0.1944942 
   0.084771186     0.0297526   -0.2975896     0.0000625    0.0005193    -0.0000118    0.0004394     0.0370369   -0.1937627 
   0.084871211     0.0318271   -0.2982308     0.0004182    0.0001283     0.0001271    0.0003915     0.0370738   -0.1937741 
   0.084971236     0.0296645   -0.2983680    -0.0000791    0.0002065     0.0001870    0.0005005     0.0379100   -0.1942618 
   0.085071261     0.0287589   -0.2996596     0.0003510    0.0007537     0.0000334    0.0003002     0.0366992   -0.1939357 
   0.085171286     0.0320962   -0.2988726     0.0003975    0.0002717     0.0000424    0.0003642     0.0366703   -0.1941108 
   0.085271311     0.0296310   -0.2973939     0.0001416   -0.0000411    -0.0000501    0.0002066     0.0363252   -0.1939232 
   0.085371336     0.0298368   -0.2990025     0.0001251    0.0000437    -0.0000216    0.0006449     0.0373541   -0.1928938 
   0.085471361     0.0283386   -0.2965531     0.0001462    0.0010102     0.0002192    0.0003335     0.0359267   -0.1943205 
   0.085571386     0.0281189   -0.2970467     0.0001982    0.0002530     0.0002053    0.0005609     0.0364321   -0.1933404 
   0.085671411     0.0267586   -0.2980464     0.0003857    0.0002868    -0.0002077    0.0004821     0.0364466   -0.1929410 
   0.085771436     0.0286526   -0.2963874     0.0002753    0.0003586     0.0002145    0.0005740     0.0362064   -0.1933670 
   0.085871461     0.0289169   -0.2969186    -0.0002339    0.0006523     0.0002622    0.0005224     0.0359511   -0.1926213 
   0.085971486     0.0266976   -0.2939131    -0.0001898   -0.0000963     0.0002184    0.0004232     0.0358780   -0.1926786 
   0.086071511     0.0266267   -0.2953843    -0.0001082    0.0007041     0.0000950    0.0003279     0.0367037   -0.1923060 
   0.086171536     0.0286390   -0.2925742    -0.0003264    0.0002787     0.0001592    0.0006781     0.0364675   -0.1927837 
   0.086271561     0.0271434   -0.2946354     0.0004696    0.0003440     0.0000127    0.0005007     0.0365020   -0.1927168 
   0.086371586     0.0251108   -0.2939054    -0.0001615    0.0002761    -0.0000498    0.0002630     0.0354679   -0.1923845 
   0.086471611     0.0288472   -0.2921397    -0.0005053    0.0004666    -0.0000562    0.0005203     0.0365809   -0.1927962 
   0.086571636     0.0249564   -0.2930909     0.0006243    0.0004273     0.0002280    0.0003562     0.0350800   -0.1915634 
   0.086671661     0.0250191   -0.2928500     0.0002240    0.0004907     0.0001268    0.0004763     0.0354324   -0.1918596 
   0.086771686     0.0257424   -0.2930891    -0.0000443    0.0009104     0.0000977    0.0003113     0.0348968   -0.1921234 
   0.086871711     0.0267291   -0.2944375     0.0000917    0.0006119    -0.0000627    0.0003364     0.0347558   -0.1911312 
   0.086971736     0.0238309   -0.2912760     0.0001131    0.0005783     0.0000490    0.0005912     0.0356368   -0.1916718 
   0.087071761     0.0249753   -0.2915223    -0.0000400    0.0004542     0.0001938    0.0004184     0.0353574   -0.1916856 
   0.087171786     0.0266433   -0.2923389    -0.0002856    0.0000613     0.0001465    0.0006049     0.0348581   -0.1917230 
   0.087271811     0.0272307   -0.2904930     0.0002087    0.0001440    -0.0000089    0.0004431     0.0350345   -0.1914626 
   0.087371836     0.0241128   -0.2881763    -0.0000438    0.0004401     0.0003063    0.0003889     0.0350568   -0.1908470 
   0.087471861     0.0258839   -0.2906561     0.0001758   -0.0000370     0.0004926    0.0005411     0.0343451   -0.1918275 
   0.087571886     0.0253770   -0.2902080     0.0000643    0.0004633     0.0001023    0.0004604     0.0339103   -0.1918388 
   0.087671911     0.0270296   -0.2888498     0.0000913    0.0002233     0.0002470    0.0004423     0.0342779   -0.1900505 
   0.087771936     0.0227551   -0.2888419     0.0000352    0.0001707     0.0002728    0.0001800     0.0332286   -0.1898278 
   0.087871961     0.0243426   -0.2893558    -0.0003899    0.0008271    -0.0000972    0.0005290     0.0349324   -0.1911320 
   0.087971986     0.0239709   -0.2866677     0.0003844    0.0006326    -0.0000523    0.0003116     0.0343306   -0.1899750 
   0.088072011     0.0245016   -0.2875181     0.0001186    0.0008639     0.0001989    0.0005303     0.0337902   -0.1903387 
   0.088172036     0.0227238   -0.2865572     0.0004089   -0.0002077     0.0002089    0.0002883     0.0334251   -0.1902781 
   0.088272061     0.0228894   -0.2873567    -0.0001982    0.0002363     0.0003223    0.0005802     0.0338546   -0.1895771 
   0.088372086     0.0232516   -0.2873437     0.0005947    0.0006159     0.0000173    0.0004838     0.0333650   -0.1900996 
   0.088472111     0.0228008   -0.2862760    -0.0000932    0.0005604     0.0000044    0.0006170     0.0337888   -0.1899546 
   0.088572136     0.0229450   -0.2869423     0.0002236    0.0004528     0.0001163    0.0004018     0.0334847   -0.1902513 
   0.088672161     0.0233621   -0.2853082    -0.0000540    0.0005272     0.0000107    0.0004817     0.0333777   -0.1899647 
   0.088772186     0.0220174   -0.2873122     0.0005356    0.0006203     0.0001759    0.0003307     0.0336382   -0.1904653 
   0.088872211     0.0210301   -0.2852852     0.0000898    0.0004986     0.0000104    0.0006193     0.0331465   -0.1890494 
   0.088972236     0.0231703   -0.2840970     0.0000507    0.0006752     0.0001370    0.0003281     0.0338228   -0.1888612 
   0.089072261     0.0231905   -0.2857244     0.0000007    0.0005959     0.0000475    0.0005198     0.0324632   -0.1886156 
   0.089172286     0.0223558   -0.2858936    -0.0002887    0.0004643     0.0002380    0.0004179     0.0336921   -0.1895620 
   0.089272311     0.0207088   -0.2807536    -0.0002182    0.0002329     0.0000846    0.0003130     0.0329833   -0.1888215 
   0.089372336     0.0229087   -0.2833739     0.0003930    0.0005332     0.0001599    0.0004104     0.0330524   -0.1892882 
   0.089472361     0.0209748   -0.2810186     0.0003419    0.0004925    -0.0000920    0.0004149     0.0324323   -0.1897391 
   0.089572386     0.0198719   -0.2853139     0.0002769    0.0007846     0.0002158    0.0005152     0.0328417   -0.1883508 
   0.089672411     0.0206262   -0.2836449    -0.0001396    0.0001024     0.0001785    0.0004867     0.0331240   -0.1883968 
   0.089772436     0.0185113   -0.2825482    -0.0000326    0.0002757     0.0000969    0.0005807     0.0321985   -0.1879376 
   0.089872461     0.0199304   -0.2825178    -0.0001860    0.0004583     0.0000554    0.0006130     0.0322176   -0.1881144 
   0.089972486     0.0192898   -0.2830670     0.0000197    0.0001374    -0.0000011    0.0005050     0.0317491   -0.1888375 
   0.090072511     0.0185039   -0.2832085     0.0002969    0.0000311     0.0002010    0.0004227     0.0323394   -0.1880842 
   0.090172536     0.0196311   -0.2821216     0.0004631    0.0002417     0.0002881    0.0006064     0.0316419   -0.1881679 
   0.090272561     0.0207492   -0.2816344     0.0000564    0.0005396     0.0001019    0.0005320     0.0316318   -0.1883576 
   0.090372586     0.0195378   -0.2816340    -0.0003258    0.0008363     0.0002215    0.0003096     0.0318569   -0.1877655 
   0.090472611     0.0191932   -0.2787693     0.0001718    0.0004795     0.0001744    0.0004923     0.0329403   -0.1875279 
   0.090572636     0.0208002   -0.2808139     0.0002699    0.0004325    -0.0000555    0.0005084     0.0312630   -0.1887216 
   0.090672661     0.0170537   -0.2782887    -0.0001103    0.0005800     0.0000719    0.0003956     0.0321806   -0.1877754 
   0.090772686     0.0171360   -0.2799683     0.0000579    0.0006278     0.0002425    0.0005046     0.0320054   -0.1870649 
   0.090872711     0.0175564   -0.2780467     0.0001717    0.0006322     0.0001184    0.0002873     0.0320120   -0.1872911 
   0.090972736     0.0166929   -0.2794533     0.0002569    0.0004993     0.0001557    0.0004374     0.0313527   -0.1872107 
   0.091072761     0.0177188   -0.2776130    -0.0004494    0.0002111     0.0001018    0.0005457     0.0308458   -0.1871206 
   0.091172786     0.0169370   -0.2770845     0.0000789    0.0009392     0.0002167    0.0005633     0.0305992   -0.1877134 
   0.091272811     0.0196785   -0.2785696     0.0002856    0.0002996     0.0001799    0.0003223     0.0312554   -0.1871483 
   0.091372836     0.0185852   -0.2757134     0.0002698    0.0007619     0.0003103    0.0004668     0.0304061   -0.1863848 
   0.091472861     0.0177261   -0.2751492     0.0000594    0.0006015     0.0000943    0.0003409     0.0305222   -0.1871935 
   0.091572886     0.0180653   -0.2775199     0.0000719    0.0005914     0.0002871    0.0005120     0.0316268   -0.1867158 
   0.091672911     0.0160531   -0.2763700     0.0001299    0.0006159     0.0000576    0.0003929     0.0301396   -0.1876471 
   0.091772936     0.0169554   -0.2783576     0.0002678    0.0008235     0.0002103    0.0001841     0.0302542   -0.1878043 
   0.091872961     0.0158836   -0.2773652     0.0001347    0.0006585     0.0002105    0.0005317     0.0306881   -0.1864245 
   0.091972986     0.0169584   -0.2747665     0.0004863    0.0005322     0.0003463    0.0003772     0.0299365   -0.1861360 
   0.092073012     0.0165489   -0.2739060    -0.0001161    0.0006476     0.0001244    0.0003750     0.0301143   -0.1863632 
   0.092173037     0.0160215   -0.2735086     0.0000040    0.0003458     0.0002020    0.0002476     0.0299020   -0.1865685 
   0.092273062     0.0171353   -0.2738598    -0.0003893    0.0005829     0.0002777    0.0004098     0.0301807   -0.1863082 
   0.092373087     0.0156321   -0.2748455    -0.0002323    0.0006593     0.0000083    0.0002836     0.0295627   -0.1863157 
   0.092473112     0.0161210   -0.2731072     0.0004358    0.0006247     0.0001887    0.0004502     0.0306061   -0.1865301 
   0.092573137     0.0164650   -0.2715947     0.0004246   -0.0000016     0.0003241    0.0003235     0.0292673   -0.1863447 
   0.092673162     0.0141686   -0.2745534     0.0002818    0.0005178     0.0001481    0.0003738     0.0285154   -0.1859139 
   0.092773187     0.0149187   -0.2726390     0.0000472    0.0008106     0.0001553    0.0003284     0.0296057   -0.1854791 
   0.092873212     0.0163495   -0.2727925     0.0002945    0.0003725    -0.0000196    0.0004703     0.0302433   -0.1852001 
   0.092973237     0.0155314   -0.2716554     0.0000469    0.0009395     0.0001448    0.0004784     0.0291371   -0.1852162 
   0.093073262     0.0150500   -0.2717390     0.0002620    0.0004354     0.0001842    0.0003791     0.0297599   -0.1857624 
   0.093173287     0.0133364   -0.2701693     0.0000731    0.0004141     0.0002025    0.0003156     0.0286293   -0.1840475 
   0.093273312     0.0148204   -0.2718443     0.0001651    0.0006749     0.0000980    0.0008040     0.0294311   -0.1856774 
   0.093373337     0.0133707   -0.2702411     0.0002626    0.0002899     0.0001654    0.0005712     0.0289068   -0.1854274 
   0.093473362     0.0139385   -0.2705970     0.0004024    0.0007012     0.0004117    0.0005363     0.0287583   -0.1845463 
   0.093573387     0.0135901   -0.2698624     0.0000459    0.0004920     0.0002705    0.0004928     0.0292198   -0.1852389 
   0.093673412     0.0145593   -0.2694450    -0.0000880    0.0002790     0.0002091    0.0005007     0.0282329   -0.1847934 
   0.093773437     0.0139240   -0.2707427    -0.0002356    0.0003426     0.0001302    0.0003535     0.0292603   -0.1850891 
   0.093873462     0.0137666   -0.2689885     0.0002503    0.0003278     0.0001786    0.0004757     0.0281664   -0.1848940 
   0.093973487     0.0129588   -0.2686920     0.0002333    0.0004644     0.0002947    0.0004864     0.0276539   -0.1842513 
   0.094073512     0.0125489   -0.2692666     0.0006046    0.0008618     0.0002152    0.0004657     0.0277700   -0.1852028 
   0.094173537     0.0125638   -0.2673272     0.0002385    0.0006788     0.0000345    0.0006559     0.0282424   -0.1845894 
   0.094273562     0.0133386   -0.2666321     0.0006423    0.0005323     0.0001068    0.0007842     0.0276315   -0.1839009 
   0.094373587     0.0126597   -0.2677667     0.0005789    0.0004337     0.0000963    0.0006858     0.0279163   -0.1839315 
   0.094473612     0.0137492   -0.2686215     0.0002324    0.0005275     0.0001148    0.0005006     0.0282386   -0.1837765 
   0.094573637     0.0109975   -0.2667166    -0.0000063    0.0002536     0.0002477    0.0004965     0.0273222   -0.1842982 
   0.094673662     0.0125809   -0.2677668    -0.0001081    0.0005620     0.0002310    0.0005921     0.0279469   -0.1842332 
   0.094773687     0.0126325   -0.2669111     0.0002995    0.0005604     0.0000988    0.0002501     0.0276243   -0.1840688 
   0.094873712     0.0107263   -0.2653696    -0.0001173    0.0004969     0.0001054    0.0004907     0.0277787   -0.1842694 
   0.094973737     0.0120593   -0.2664883    -0.0002999    0.0001743     0.0001629    0.0008098     0.0282119   -0.1844609 
   0.095073762     0.0112377   -0.2652744     0.0000409    0.0004275     0.0001196    0.0004335     0.0269599   -0.1838324 
   0.095173787     0.0114578   -0.2650051    -0.0001947    0.0004320     0.0000794    0.0007437     0.0277510   -0.1836185 
   0.095273812     0.0108384   -0.2640318    -0.0001623    0.0008200     0.0002844    0.0004977     0.0277811   -0.1841645 
   0.095373837     0.0096801   -0.2643984    -0.0001078    0.0002477     0.0002675    0.0004647     0.0268180   -0.1837259 
   0.095473862     0.0102536   -0.2652066    -0.0000649    0.0001852     0.0000979    0.0003024     0.0272206   -0.1839242 
   0.095573887     0.0080131   -0.2628765    -0.0000067    0.0008179     0.0002371    0.0006612     0.0267914   -0.1835845 
   0.095673912     0.0101360   -0.2628115     0.0003627    0.0003376     0.0003897    0.0004005     0.0262549   -0.1831982 
   0.095773937     0.0104978   -0.2620595     0.0003649    0.0002434     0.0002724    0.0004287     0.0265663   -0.1826031 
   0.095873962     0.0096344   -0.2638257     0.0001023    0.0004053     0.0002592    0.0004563     0.0271330   -0.1818928 
   0.095973987     0.0112138   -0.2635024     0.0000907    0.0003459     0.0003369    0.0003747     0.0264078   -0.1832857 
   0.096074012     0.0109952   -0.2631959     0.0001788    0.0005811    -0.0000499    0.0005936     0.0270087   -0.1836275 
   0.096174037     0.0106856   -0.2600046     0.0001252    0.0004699     0.0001174    0.0003342     0.0263785   -0.1822113 
   0.096274062     0.0092347   -0.2616516    -0.0002697    0.0005372     0.0001691    0.0005145     0.0265295   -0.1822581 
   0.096374087     0.0095462   -0.2629274    -0.0001592    0.0005511     0.0003905    0.0006056     0.0259162   -0.1822959 
   0.096474112     0.0108593   -0.2617590     0.0002335    0.0007591     0.0002657    0.0005132     0.0257512   -0.1820588 
   0.096574137     0.0094936   -0.2609361     0.0005127   -0.0000323     0.0002875    0.0004964     0.0262282   -0.1826798 
   0.096674162     0.0097627   -0.2600133     0.0003439    0.0002451     0.0002088    0.0003342     0.0260531   -0.1819214 
   0.096774187     0.0083440   -0.2596479     0.0002211    0.0006782     0.0002340    0.0004513     0.0263592   -0.1831093 
   0.096874212     0.0091377   -0.2590322    -0.0000670    0.0004396     0.0000245    0.0005212     0.0253808   -0.1821539 
   0.096974237     0.0072378   -0.2582586     0.0001632    0.0003754     0.0001350    0.0003051     0.0258044   -0.1818335 
   0.097074262     0.0079158   -0.2578284     0.0002592    0.0005591     0.0001597    0.0005278     0.0262987   -0.1821013 
   0.097174287     0.0110161   -0.2595969    -0.0001826    0.0002450     0.0001469    0.0003344     0.0251549   -0.1811672 
   0.097274312     0.0083604   -0.2585382     0.0000244    0.0004231     0.0000971    0.0006263     0.0254246   -0.1811076 
   0.097374337     0.0075335   -0.2580550     0.0003778    0.0005640     0.0001622    0.0005900     0.0252728   -0.1815863 
   0.097474362     0.0087227   -0.2571819     0.0003023    0.0002379     0.0001062    0.0003896     0.0253438   -0.1824699 
   0.097574387     0.0079669   -0.2579004     0.0005058    0.0005997     0.0001400    0.0004479     0.0251985   -0.1816833 
   0.097674412     0.0077758   -0.2565035     0.0000818    0.0005641     0.0003157    0.0004801     0.0253381   -0.1815705 
   0.097774437     0.0099272   -0.2569347     0.0001090    0.0008214     0.0002866    0.0007444     0.0250681   -0.1815126 
   0.097874462     0.0089878   -0.2559857     0.0000843    0.0005728     0.0002636    0.0004155     0.0247223   -0.1814533 
   0.097974487     0.0075028   -0.2562311     0.0001794    0.0007121     0.0001724    0.0006395     0.0243687   -0.1815093 
   0.098074512     0.0064778   -0.2561840     0.0002138    0.0001610     0.0000917    0.0003048     0.0241662   -0.1805182 
   0.098174537     0.0058259   -0.2555188     0.0003112    0.0005623     0.0002187    0.0006035     0.0238067   -0.1809552 
   0.098274562     0.0065807   -0.2531758    -0.0000791    0.0005061     0.0001642    0.0004696     0.0244849   -0.1806929 
   0.098374587     0.0069596   -0.2548688     0.0002871    0.0002965    -0.0000265    0.0005050     0.0251389   -0.1808408 
   0.098474612     0.0051252   -0.2557374     0.0004467    0.0003769     0.0000731    0.0007641     0.0253458   -0.1805499 
   0.098574637     0.0070403   -0.2543942     0.0002339    0.0002360     0.0002333    0.0005605     0.0251419   -0.1804706 
   0.098674662     0.0056946   -0.2550347     0.0001828    0.0007573     0.0002522    0.0005147     0.0241769   -0.1817106 
   0.098774687     0.0058329   -0.2535612     0.0004147    0.0006887     0.0002990    0.0005027     0.0240777   -0.1801293 
   0.098874712     0.0064986   -0.2536485     0.0003859    0.0005469     0.0001929    0.0005222     0.0243054   -0.1801396 
   0.098974737     0.0060957   -0.2519537     0.0003090    0.0005451     0.0002129    0.0004756     0.0242085   -0.1807181 
   0.099074762     0.0058756   -0.2523831     0.0000401    0.0008623     0.0002469    0.0003589     0.0238350   -0.1799037 
   0.099174787     0.0060895   -0.2518419     0.0004987    0.0004347     0.0000825    0.0007659     0.0238335   -0.1797760 
   0.099274812     0.0057534   -0.2512812    -0.0001531    0.0007296     0.0004181    0.0005877     0.0233759   -0.1799224 
   0.099374837     0.0061269   -0.2516904     0.0001885    0.0004621     0.0002619    0.0002453     0.0239593   -0.1806738 
   0.099474862     0.0052886   -0.2517511     0.0002918    0.0006731     0.0000263    0.0005581     0.0236356   -0.1796703 
   0.099574887     0.0055378   -0.2516655     0.0001403    0.0008720     0.0002289    0.0005025     0.0232035   -0.1795087 
   0.099674912     0.0046390   -0.2514148     0.0004091    0.0006393     0.0002131    0.0002963     0.0227093   -0.1799783 
   0.099774937     0.0051329   -0.2512873     0.0003296    0.0009837     0.0002370    0.0005930     0.0234825   -0.1802781 
   0.099874962     0.0065740   -0.2515047     0.0003513    0.0002798     0.0001761    0.0004973     0.0235712   -0.1797047 
   0.099974987     0.0049962   -0.2507087     0.0004805    0.0004580     0.0001287    0.0005957     0.0235193   -0.1797075 
   0.100075013     0.0043554   -0.2516420     0.0000735    0.0005338     0.0001712    0.0004424     0.0227211   -0.1797683 
   0.100175038     0.0057236   -0.2500248     0.0003099    0.0007425     0.0002578    0.0003654     0.0232692   -0.1791157 
   0.100275063     0.0045746   -0.2486768    -0.0001372    0.0004860     0.0001605    0.0004684     0.0223109   -0.1792690 
   0.100375088     0.0035478   -0.2479134     0.0000301    0.0002741     0.0002734    0.0003742     0.0222716   -0.1793594 
   0.100475113     0.0044411   -0.2485308    -0.0000142    0.0002339     0.0002637    0.0008348     0.0221472   -0.1792652 
   0.100575138     0.0027457   -0.2482247     0.0004968    0.0006941     0.0002905    0.0005533     0.0231735   -0.1794630 
   0.100675163     0.0044787   -0.2477380     0.0003029    0.0005038     0.0001991    0.0005083     0.0230613   -0.1790253 
   0.100775188     0.0037688   -0.2493671     0.0000662    0.0004684     0.0002448    0.0006154     0.0222427   -0.1791727 
   0.100875213     0.0033588   -0.2472040     0.0002590    0.0003757     0.0000510    0.0004414     0.0219290   -0.1788990 
   0.100975238     0.0025978   -0.2475324     0.0002927    0.0005339     0.0001883    0.0005800     0.0217845   -0.1787869 
   0.101075263     0.0045062   -0.2460193     0.0001450    0.0004428     0.0000909    0.0006991     0.0221097   -0.1786479 
   0.101175288     0.0037760   -0.2468769     0.0003385    0.0006459     0.0002699    0.0005988     0.0220763   -0.1789901 
   0.101275313     0.0028895   -0.2472625     0.0002920    0.0002668     0.0001665    0.0006490     0.0217418   -0.1783550 
   0.101375338     0.0040741   -0.2464775     0.0001423    0.0006396     0.0002936    0.0004872     0.0216887   -0.1782863 
   0.101475363     0.0030182   -0.2471736     0.0001322    0.0007214     0.0001504    0.0005830     0.0217360   -0.1781695 
   0.101575388     0.0009900   -0.2458979     0.0003878    0.0009506     0.0001260    0.0006019     0.0215061   -0.1793812 
   0.101675413     0.0018964   -0.2462706     0.0003306    0.0003282     0.0002658    0.0004469     0.0223207   -0.1786043 
   0.101775438     0.0010602   -0.2457307     0.0004629    0.0004286     0.0000687    0.0005770     0.0215970   -0.1786718 
   0.101875463     0.0023303   -0.2455570     0.0002591    0.0007071     0.0004242    0.0005975     0.0222120   -0.1782980 
   0.101975488     0.0023708   -0.2441516     0.0004049    0.0005727     0.0002271    0.0004844     0.0214035   -0.1781904 
   0.102075513     0.0012865   -0.2441416     0.0002345    0.0002224     0.0002122    0.0004853     0.0207307   -0.1777567 
   0.102175538     0.0019105   -0.2441153     0.0002952    0.0006480     0.0002815    0.0003430     0.0217335   -0.1788565 
   0.102275563     0.0017009   -0.2435159     0.0002254    0.0006908     0.0002407    0.0005091     0.0212216   -0.1772308 
   0.102375588     0.0012185   -0.2430536    -0.0000386    0.0003673     0.0001981    0.0006159     0.0207293   -0.1781332 
   0.102475613     0.0013685   -0.2433799     0.0001034    0.0002093     0.0002765    0.0005298     0.0212314   -0.1779449 
   0.102575638     0.0025000   -0.2421722     0.0004376    0.0000453     0.0002234    0.0005856     0.0209914   -0.1780150 
   0.102675663     0.0017167   -0.2435944     0.0003669    0.0004877     0.0001668    0.0004277     0.0205887   -0.1781090 
   0.102775688     0.0012575   -0.2438250     0.0002328    0.0002633     0.0003911    0.0003805     0.0203891   -0.1775030 
   0.102875713     0.0017867   -0.2441071     0.0000690    0.0005652     0.0002570    0.0005115     0.0209999   -0.1774827 
   0.102975738     0.0027407   -0.2416647     0.0002815    0.0005284     0.0003513    0.0005399     0.0204006   -0.1779554 
   0.103075763     0.0001692   -0.2424644    -0.0003751    0.0005658     0.0002728    0.0004851     0.0199890   -0.1777116 
   0.103175788     0.0002072   -0.2416172     0.0005362    0.0006864     0.0004601    0.0006078     0.0206673   -0.1769367 
   0.103275813     0.0007337   -0.2413010     0.0004130    0.0002191     0.0001591    0.0004938     0.0204698   -0.1775879 
   0.103375838     0.0009407   -0.2420209     0.0000313    0.0003567     0.0004119    0.0005687     0.0198601   -0.1771782 
   0.103475863     0.0005069   -0.2390904     0.0000147    0.0004779     0.0001595    0.0005825     0.0195247   -0.1768390 
   0.103575888     0.0009862   -0.2392558     0.0001198    0.0005436     0.0003050    0.0005941     0.0199431   -0.1770129 
   0.103675913     0.0020087   -0.2398265     0.0003054    0.0004696     0.0003145    0.0005075     0.0202460   -0.1766175 
   0.103775938     0.0006280   -0.2401276     0.0002911    0.0002803     0.0004201    0.0007416     0.0198654   -0.1773749 
   0.103875963     0.0024538   -0.2388987     0.0002273    0.0006649     0.0001703    0.0006604     0.0195811   -0.1767043 
   0.103975988     0.0014506   -0.2401088     0.0002688    0.0008334     0.0001837    0.0005193     0.0189098   -0.1767609 
   0.104076013     0.0006630   -0.2392212     0.0004021    0.0004653     0.0003127    0.0006585     0.0192352   -0.1771469 
   0.104176038    -0.0000562   -0.2390010     0.0004579    0.0005824     0.0002000    0.0005605     0.0190101   -0.1763648 
   0.104276063     0.0005156   -0.2392088     0.0002754    0.0006594     0.0002698    0.0005509     0.0192299   -0.1764588 
   0.104376088    -0.0000379   -0.2371421     0.0005851    0.0004403     0.0002906    0.0004916     0.0193941   -0.1764176 
   0.104476113    -0.0013887   -0.2378924     0.0003032    0.0003251     0.0004897    0.0003422     0.0186019   -0.1768098 
   0.104576138     0.0003166   -0.2360124     0.0001114    0.0004667     0.0001484    0.0003662     0.0184921   -0.1761184 
   0.104676163    -0.0004735   -0.2374193     0.0002926    0.0007002     0.0003241    0.0006065     0.0192111   -0.1758379 
   0.104776188    -0.0004176   -0.2374873     0.0002009    0.0003862     0.0002844    0.0005176     0.0191785   -0.1760601 
   0.104876213    -0.0024509   -0.2358646     0.0001401    0.0004353     0.0000967    0.0005265     0.0193175   -0.1762016 
   0.104976238    -0.0004279   -0.2358786     0.0004027    0.0005945     0.0004197    0.0005835     0.0189277   -0.1765665 
   0.105076263     0.0000162   -0.2362760     0.0000817    0.0008133     0.0002057    0.0006209     0.0183480   -0.1755832 
   0.105176288    -0.0006334   -0.2369986     0.0000851    0.0004724     0.0002957    0.0006348     0.0190315   -0.1763604 
   0.105276313    -0.0015825   -0.2348734     0.0006057    0.0005706     0.0003570    0.0004848     0.0188468   -0.1762411 
   0.105376338    -0.0017898   -0.2352248     0.0006026    0.0004229     0.0001024    0.0005011     0.0187002   -0.1749929 
   0.105476363    -0.0023833   -0.2354037     0.0003409    0.0007065     0.0000582    0.0005344     0.0186004   -0.1760601 
   0.105576388    -0.0015880   -0.2346320     0.0003110    0.0005610     0.0002152    0.0005129     0.0190159   -0.1754755 
   0.105676413    -0.0006341   -0.2349543     0.0003491    0.0002953     0.0002870    0.0006008     0.0179339   -0.1754495 
   0.105776438    -0.0014638   -0.2341489     0.0001128    0.0003672     0.0004117    0.0005490     0.0179143   -0.1755665 
   0.105876463    -0.0032639   -0.2335045     0.0004623    0.0005526     0.0002406    0.0005196     0.0184909   -0.1752670 
   0.105976488    -0.0041696   -0.2319745    -0.0000013    0.0007091     0.0001657    0.0005084     0.0183162   -0.1753045 
   0.106076513    -0.0031821   -0.2339241     0.0005899    0.0004405     0.0003252    0.0006187     0.0182204   -0.1753935 
   0.106176538    -0.0028919   -0.2335799     0.0004850    0.0004414     0.0001847    0.0004148     0.0177798   -0.1753257 
   0.106276563    -0.0018095   -0.2330000     0.0003642    0.0006224     0.0001729    0.0005009     0.0176448   -0.1764873 
   0.106376588    -0.0014662   -0.2333717     0.0003129    0.0002468     0.0002818    0.0007250     0.0184587   -0.1743797 
   0.106476613    -0.0034079   -0.2327070     0.0005441    0.0006269     0.0002796    0.0006976     0.0178738   -0.1750104 
   0.106576638    -0.0009774   -0.2324795     0.0002831    0.0006266     0.0002745    0.0004525     0.0176806   -0.1755925 
   0.106676663    -0.0022500   -0.2325575     0.0002544    0.0004535     0.0003286    0.0004869     0.0179474   -0.1747016 
   0.106776688    -0.0033282   -0.2319359     0.0001482    0.0004781     0.0003598    0.0006009     0.0173764   -0.1744294 
   0.106876713    -0.0037730   -0.2311458    -0.0000309    0.0001943     0.0004099    0.0005634     0.0175270   -0.1750715 
   0.106976738    -0.0019922   -0.2313621     0.0001966    0.0005167     0.0001879    0.0003705     0.0174088   -0.1751705 
   0.107076763    -0.0029789   -0.2316061     0.0004267    0.0008153     0.0003425    0.0004665     0.0168850   -0.1750556 
   0.107176788    -0.0049891   -0.2309109     0.0000298    0.0005119     0.0002358    0.0006384     0.0172148   -0.1738258 
   0.107276813    -0.0032347   -0.2306478     0.0003653    0.0007069     0.0002680    0.0006662     0.0166169   -0.1747874 
   0.107376838    -0.0035270   -0.2306800     0.0005642    0.0005705     0.0005111    0.0005473     0.0170078   -0.1748300 
   0.107476863    -0.0038548   -0.2302549     0.0002079    0.0003569     0.0001898    0.0005773     0.0171210   -0.1753105 
   0.107576888    -0.0026337   -0.2302404     0.0003592    0.0007966     0.0001802    0.0006591     0.0167501   -0.1744059 
   0.107676913    -0.0043290   -0.2296011     0.0002353    0.0005594     0.0005514    0.0007057     0.0167684   -0.1743499 
   0.107776938    -0.0044512   -0.2298736     0.0003247    0.0004825     0.0004252    0.0004560     0.0161336   -0.1744062 
   0.107876963    -0.0038278   -0.2298806     0.0001631    0.0002180     0.0003729    0.0006012     0.0167267   -0.1741794 
   0.107976988    -0.0029411   -0.2286013     0.0005543    0.0007837     0.0003149    0.0004379     0.0159468   -0.1745625 
   0.108077014    -0.0042723   -0.2282858     0.0004728    0.0004500     0.0002956    0.0006059     0.0168962   -0.1742457 
   0.108177039    -0.0051537   -0.2273412     0.0003253    0.0006385     0.0001753    0.0004865     0.0157424   -0.1741591 
   0.108277064    -0.0042496   -0.2287354     0.0001652    0.0003740     0.0002414    0.0005205     0.0164989   -0.1737287 
   0.108377089    -0.0039139   -0.2263446     0.0004318    0.0007818     0.0002569    0.0005213     0.0160922   -0.1739445 
   0.108477114    -0.0052645   -0.2270950     0.0000393    0.0005859     0.0002162    0.0005865     0.0150838   -0.1736914 
   0.108577139    -0.0062457   -0.2266253     0.0003579    0.0007430     0.0003122    0.0005703     0.0164917   -0.1742571 
   0.108677164    -0.0054245   -0.2259143     0.0000832    0.0005523     0.0002744    0.0005845     0.0158999   -0.1736233 
   0.108777189    -0.0049299   -0.2252110     0.0006020    0.0004375     0.0001848    0.0005194     0.0155497   -0.1740597 
   0.108877214    -0.0049407   -0.2258481     0.0004393    0.0005335     0.0002511    0.0004825     0.0155080   -0.1740625 
   0.108977239    -0.0041039   -0.2268655    -0.0000520    0.0002569     0.0002445    0.0006683     0.0152767   -0.1730083 
   0.109077264    -0.0030372   -0.2257128     0.0001610    0.0004301     0.0003554    0.0005907     0.0158630   -0.1733556 
   0.109177289    -0.0059470   -0.2257440     0.0002856    0.0004537     0.0003416    0.0003113     0.0157942   -0.1739285 
   0.109277314    -0.0047622   -0.2255618     0.0002549    0.0002827     0.0002395    0.0005631     0.0155243   -0.1729457 
   0.109377339    -0.0050476   -0.2246357    -0.0000845    0.0004584     0.0002867    0.0003934     0.0149545   -0.1734063 
   0.109477364    -0.0046941   -0.2247601     0.0003663    0.0004965     0.0002334    0.0006355     0.0155124   -0.1730226 
   0.109577389    -0.0054485   -0.2250505     0.0005622    0.0003793     0.0003450    0.0004517     0.0146948   -0.1730558 
   0.109677414    -0.0060973   -0.2234888     0.0001356    0.0002737     0.0003736    0.0005913     0.0158109   -0.1734235 
   0.109777439    -0.0045985   -0.2236241     0.0002308    0.0003731     0.0003435    0.0005715     0.0156295   -0.1726830 
   0.109877464    -0.0056252   -0.2245755     0.0001674    0.0009884     0.0004125    0.0006162     0.0148183   -0.1737960 
   0.109977489    -0.0073176   -0.2250129     0.0003567    0.0000145     0.0003553    0.0005498     0.0148370   -0.1728915 
   0.110077514    -0.0063292   -0.2232783     0.0002002    0.0007076     0.0003075    0.0004161     0.0147866   -0.1728510 
   0.110177539    -0.0065260   -0.2230615     0.0001935    0.0006526     0.0002636    0.0006016     0.0151192   -0.1734029 
   0.110277564    -0.0059762   -0.2220429     0.0003290    0.0005680     0.0003483    0.0006469     0.0145945   -0.1728005 
   0.110377589    -0.0069985   -0.2221827     0.0002028    0.0004447     0.0001305    0.0003837     0.0144572   -0.1720955 
   0.110477614    -0.0064683   -0.2217761     0.0002345    0.0007222     0.0001041    0.0004267     0.0146167   -0.1729374 
   0.110577639    -0.0064487   -0.2218714     0.0003167    0.0004599     0.0004375    0.0005005     0.0143565   -0.1722313 
   0.110677664    -0.0069339   -0.2217980     0.0004996    0.0005336     0.0003388    0.0003550     0.0139108   -0.1718166 
   0.110777689    -0.0064922   -0.2223987     0.0000317    0.0002911     0.0003123    0.0006590     0.0148361   -0.1721746 
   0.110877714    -0.0054593   -0.2207452     0.0003523    0.0009363     0.0003282    0.0006126     0.0131364   -0.1727299 
   0.110977739    -0.0070528   -0.2201173     0.0002533    0.0005340     0.0004762    0.0004981     0.0139824   -0.1723896 
   0.111077764    -0.0074359   -0.2208264    -0.0000091    0.0005742     0.0002033    0.0006034     0.0132534   -0.1726570 
   0.111177789    -0.0066965   -0.2207433     0.0003058    0.0006526     0.0002784    0.0003684     0.0130970   -0.1721499 
   0.111277814    -0.0066592   -0.2196433     0.0004398    0.0003362     0.0001834    0.0003602     0.0135678   -0.1721232 
   0.111377839    -0.0064239   -0.2206157     0.0004949    0.0004692     0.0002598    0.0005929     0.0134719   -0.1722514 
   0.111477864    -0.0073260   -0.2197069     0.0001208    0.0006076     0.0003832    0.0005115     0.0135004   -0.1720067 
   0.111577889    -0.0071352   -0.2189656     0.0002929    0.0007804     0.0002252    0.0005638     0.0134304   -0.1714873 
   0.111677914    -0.0066474   -0.2193938     0.0002319    0.0001874     0.0003877    0.0003862     0.0134412   -0.1714107 
   0.111777939    -0.0081822   -0.2178110     0.0003484    0.0003383     0.0005101    0.0005357     0.0129575   -0.1718300 
   0.111877964    -0.0087502   -0.2195356     0.0005902    0.0006544     0.0003145    0.0005505     0.0127692   -0.1719709 
   0.111977989    -0.0078801   -0.2180819     0.0003348    0.0004707     0.0002508    0.0005075     0.0130250   -0.1713876 
   0.112078014    -0.0072709   -0.2179071     0.0003520    0.0005492     0.0002981    0.0005582     0.0132676   -0.1716478 
   0.112178039    -0.0076205   -0.2174851    -0.0000066    0.0004616     0.0003247    0.0006439     0.0130946   -0.1711360 
   0.112278064    -0.0079734   -0.2172631     0.0002664    0.0007406     0.0002753    0.0003018     0.0133384   -0.1718412 
   0.112378089    -0.0070720   -0.2160546     0.0004104    0.0004781     0.0003927    0.0003583     0.0128403   -0.1715587 
   0.112478114    -0.0086264   -0.2176970     0.0001675    0.0006982     0.0002320    0.0005833     0.0126392   -0.1715042 
   0.112578139    -0.0085190   -0.2153198     0.0002191    0.0008223     0.0002142    0.0006652     0.0128953   -0.1711509 
   0.112678164    -0.0074117   -0.2177623     0.0007228    0.0005599    -0.0000188    0.0005409     0.0127137   -0.1717239 
   0.112778189    -0.0086313   -0.2166387     0.0002957    0.0007745     0.0002114    0.0007561     0.0125419   -0.1710134 
   0.112878214    -0.0080372   -0.2161156     0.0002619    0.0006086     0.0002393    0.0003763     0.0125857   -0.1714039 
   0.112978239    -0.0073345   -0.2152231     0.0001453    0.0007571     0.0001152    0.0006461     0.0125309   -0.1705427 
   0.113078264    -0.0083435   -0.2165749     0.0002946    0.0007408     0.0002420    0.0004687     0.0122140   -0.1707435 
   0.113178289    -0.0086084   -0.2157069     0.0003604    0.0007172     0.0001108    0.0006555     0.0120753   -0.1716417 
   0.113278314    -0.0080577   -0.2152385    -0.0001233    0.0007231     0.0003407    0.0005603     0.0120024   -0.1709053 
   0.113378339    -0.0085814   -0.2146626     0.0004881    0.0005875     0.0001819    0.0005685     0.0124164   -0.1706743 
   0.113478364    -0.0086710   -0.2143072     0.0004021    0.0004714     0.0003972    0.0006553     0.0118941   -0.1708183 
   0.113578389    -0.0078517   -0.2135357     0.0001665    0.0003702     0.0000106    0.0003492     0.0121144   -0.1702367 
   0.113678414    -0.0080350   -0.2136239     0.0004161    0.0001279     0.0003274    0.0004898     0.0114353   -0.1708762 
   0.113778439    -0.0084956   -0.2145634     0.0003730    0.0004216     0.0002964    0.0004755     0.0116588   -0.1702816 
   0.113878464    -0.0091518   -0.2133121     0.0000880    0.0005187     0.0004635    0.0005990     0.0112564   -0.1706727 
   0.113978489    -0.0087199   -0.2136117     0.0003364    0.0007882     0.0002102    0.0006081     0.0119964   -0.1708659 
   0.114078514    -0.0099779   -0.2133200     0.0002722    0.0004308     0.0001749    0.0004803     0.0114873   -0.1701131 
   0.114178539    -0.0089484   -0.2130311     0.0002424    0.0005308     0.0004332    0.0004432     0.0111328   -0.1700784 
   0.114278564    -0.0096776   -0.2125812     0.0004675    0.0007972     0.0004065    0.0004136     0.0108288   -0.1706433 
   0.114378589    -0.0092432   -0.2130367     0.0005435    0.0004781     0.0002167    0.0004054     0.0109800   -0.1706469 
   0.114478614    -0.0095515   -0.2126739     0.0004300    0.0003150     0.0002800    0.0006577     0.0104850   -0.1707112 
   0.114578639    -0.0091533   -0.2124398     0.0003213    0.0007017     0.0003198    0.0006230     0.0108183   -0.1702884 
   0.114678664    -0.0089690   -0.2113217     0.0005571    0.0006934     0.0004664    0.0004663     0.0112906   -0.1707387 
   0.114778689    -0.0098007   -0.2119911     0.0003676    0.0005766     0.0001888    0.0004281     0.0108813   -0.1704773 
   0.114878714    -0.0098433   -0.2123735     0.0000088    0.0007092     0.0003516    0.0006877     0.0103340   -0.1701654 
   0.114978739    -0.0091166   -0.2109896     0.0003412    0.0008367     0.0000868    0.0005073     0.0103224   -0.1696796 
   0.115078764    -0.0105994   -0.2111020     0.0003934    0.0003760     0.0002248    0.0005195     0.0108301   -0.1698911 
   0.115178789    -0.0106196   -0.2110233     0.0002190    0.0005199     0.0004270    0.0005268     0.0106457   -0.1697166 
   0.115278814    -0.0094988   -0.2096434     0.0003273    0.0002902     0.0004111    0.0005146     0.0103420   -0.1701532 
   0.115378839    -0.0094691   -0.2090731     0.0002499    0.0008001     0.0002918    0.0007911     0.0105686   -0.1693514 
   0.115478864    -0.0092346   -0.2097516     0.0002110    0.0008120     0.0004719    0.0005176     0.0103310   -0.1699193 
   0.115578889    -0.0104643   -0.2094428     0.0007878    0.0006083     0.0005190    0.0005815     0.0099567   -0.1693998 
   0.115678914    -0.0093726   -0.2087888     0.0002795    0.0005297     0.0004535    0.0006009     0.0103422   -0.1694352 
   0.115778939    -0.0097126   -0.2079863     0.0001699    0.0004506     0.0002140    0.0005634     0.0096578   -0.1695808 
   0.115878964    -0.0089653   -0.2080371     0.0002621    0.0005122     0.0002275    0.0005967     0.0096277   -0.1694457 
   0.115978989    -0.0103584   -0.2082618     0.0003770    0.0005743     0.0004446    0.0005495     0.0098419   -0.1693736 
   0.116079015    -0.0097712   -0.2077687     0.0004022    0.0005293     0.0002712    0.0004315     0.0098499   -0.1691555 
   0.116179040    -0.0111188   -0.2076218     0.0004276    0.0005983     0.0003119    0.0004878     0.0094190   -0.1698469 
   0.116279065    -0.0100989   -0.2078515     0.0004564    0.0008288     0.0002889    0.0004758     0.0098292   -0.1689572 
   0.116379090    -0.0102011   -0.2067822     0.0003813    0.0004780     0.0004133    0.0006743     0.0104485   -0.1692964 
   0.116479115    -0.0101573   -0.2079926     0.0002211    0.0006095     0.0002899    0.0005942     0.0100466   -0.1690408 
   0.116579140    -0.0111193   -0.2061528     0.0002783    0.0002814     0.0001486    0.0004644     0.0099465   -0.1684471 
   0.116679165    -0.0100082   -0.2067755     0.0003450    0.0006406     0.0003952    0.0004750     0.0088341   -0.1694850 
   0.116779190    -0.0110623   -0.2067365     0.0001883    0.0001050     0.0002273    0.0003208     0.0091023   -0.1691766 
   0.116879215    -0.0107510   -0.2069496     0.0004823    0.0005425     0.0002316    0.0004419     0.0091839   -0.1684809 
   0.116979240    -0.0115185   -0.2058949     0.0004967    0.0006245     0.0004951    0.0008231     0.0097407   -0.1688003 
   0.117079265    -0.0113596   -0.2066853     0.0006296    0.0001847     0.0005121    0.0006290     0.0096332   -0.1694254 
   0.117179290    -0.0111159   -0.2066226     0.0001880    0.0006607     0.0002598    0.0003879     0.0090609   -0.1694291 
   0.117279315    -0.0109412   -0.2063740     0.0003094    0.0003132     0.0004796    0.0006476     0.0090444   -0.1685493 
   0.117379340    -0.0106673   -0.2041291     0.0004534    0.0005733     0.0003729    0.0004594     0.0083570   -0.1687144 
   0.117479365    -0.0111920   -0.2049262     0.0006429    0.0007902     0.0004381    0.0004073     0.0088519   -0.1683621 
   0.117579390    -0.0113041   -0.2040452     0.0005407    0.0004684     0.0003632    0.0004583     0.0083503   -0.1684958 
   0.117679415    -0.0121045   -0.2052706     0.0001060    0.0007458     0.0002246    0.0006775     0.0079657   -0.1682359 
   0.117779440    -0.0111797   -0.2032780     0.0004053    0.0003003     0.0003560    0.0006581     0.0086594   -0.1686962 
   0.117879465    -0.0104139   -0.2034620     0.0005451    0.0004716     0.0003657    0.0006855     0.0081681   -0.1691369 
   0.117979490    -0.0118816   -0.2032666     0.0001492    0.0007702     0.0004750    0.0004930     0.0086391   -0.1688462 
   0.118079515    -0.0111971   -0.2043943     0.0001611    0.0006346     0.0003247    0.0004644     0.0079176   -0.1685909 
   0.118179540    -0.0124245   -0.2034807     0.0002831    0.0003758     0.0003248    0.0005510     0.0082469   -0.1684605 
   0.118279565    -0.0123237   -0.2031562     0.0002732    0.0002333     0.0002887    0.0005035     0.0081991   -0.1682210 
   0.118379590    -0.0116293   -0.2027734     0.0001005    0.0005738     0.0004104    0.0003609     0.0073762   -0.1680795 
   0.118479615    -0.0118696   -0.2031752     0.0007026    0.0004635     0.0003792    0.0006757     0.0078609   -0.1686682 
   0.118579640    -0.0109810   -0.2023503     0.0002974    0.0007401     0.0004222    0.0005732     0.0079282   -0.1675895 
   0.118679665    -0.0131981   -0.2016246     0.0003879    0.0007994     0.0002331    0.0005712     0.0080003   -0.1680432 
   0.118779690    -0.0115290   -0.2018062     0.0003890    0.0006389     0.0003344    0.0006543     0.0077029   -0.1687662 
   0.118879715    -0.0124674   -0.2009790     0.0003000    0.0004968     0.0003165    0.0004211     0.0075929   -0.1677242 
   0.118979740    -0.0124555   -0.2025460     0.0002327    0.0004066     0.0002912    0.0005901     0.0075832   -0.1676277 
   0.119079765    -0.0121614   -0.2012621     0.0005688    0.0007768     0.0005773    0.0005771     0.0070998   -0.1676392 
   0.119179790    -0.0132702   -0.2011545     0.0003466    0.0005156     0.0005494    0.0006407     0.0077053   -0.1676916 
   0.119279815    -0.0115741   -0.2018027     0.0003165    0.0003578     0.0003147    0.0004332     0.0075668   -0.1677945 
   0.119379840    -0.0126613   -0.1989589     0.0001206    0.0004144     0.0003082    0.0006383     0.0075423   -0.1682696 
   0.119479865    -0.0121629   -0.2002278     0.0005100    0.0005607     0.0003165    0.0006634     0.0075825   -0.1678230 
   0.119579890    -0.0133669   -0.1992011     0.0004247    0.0004694     0.0003650    0.0005036     0.0072180   -0.1676466 
   0.119679915    -0.0127474   -0.2008021     0.0004394    0.0003499     0.0007224    0.0005225     0.0068592   -0.1673981 
   0.119779940    -0.0126946   -0.1986495     0.0001561    0.0005008     0.0003396    0.0003635     0.0070567   -0.1678862 
   0.119879965    -0.0125268   -0.1995546     0.0004528    0.0008048     0.0004672    0.0006730     0.0065568   -0.1672502 
   0.119979990    -0.0131256   -0.1992446     0.0005502    0.0006777     0.0003198    0.0006355     0.0069453   -0.1676153 
   0.120080015    -0.0120113   -0.1993806     0.0004887    0.0003366     0.0002636    0.0006444     0.0063418   -0.1667982 
   0.120180040    -0.0129643   -0.1992140     0.0004621    0.0007309     0.0004455    0.0005048     0.0068136   -0.1673611 
   0.120280065    -0.0136196   -0.1983987     0.0003012    0.0004717     0.0002802    0.0007121     0.0066263   -0.1674986 
   0.120380090    -0.0126338   -0.1979454     0.0005006    0.0008550     0.0004117    0.0005148     0.0066417   -0.1677519 
   0.120480115    -0.0116347   -0.1980511     0.0002561    0.0005866     0.0004623    0.0008426     0.0063198   -0.1670860 
   0.120580140    -0.0124931   -0.1979983     0.0002868    0.0005450     0.0004217    0.0005717     0.0065263   -0.1671322 
   0.120680165    -0.0126771   -0.1974590     0.0000916    0.0007488     0.0005411    0.0007077     0.0063353   -0.1671972 
   0.120780190    -0.0133830   -0.1984662     0.0002241    0.0005078     0.0001426    0.0005971     0.0062760   -0.1674331 
   0.120880215    -0.0128288   -0.1966283     0.0004148    0.0003093     0.0002646    0.0006375     0.0059502   -0.1672301 
   0.120980240    -0.0138588   -0.1959323     0.0004127    0.0004561     0.0001825    0.0005209     0.0061902   -0.1672968 
   0.121080265    -0.0143643   -0.1975878     0.0004474    0.0007332     0.0003480    0.0005886     0.0052104   -0.1672483 
   0.121180290    -0.0133690   -0.1954036     0.0005419    0.0003388     0.0001727    0.0004349     0.0059698   -0.1666688 
   0.121280315    -0.0142444   -0.1962737     0.0004352    0.0007390     0.0001783    0.0004332     0.0057665   -0.1668939 
   0.121380340    -0.0134321   -0.1957467     0.0003300    0.0005043     0.0006226    0.0003936     0.0058090   -0.1665993 
   0.121480365    -0.0146814   -0.1959022     0.0001515    0.0005677     0.0005074    0.0006156     0.0055736   -0.1667583 
   0.121580390    -0.0147460   -0.1963855     0.0005648    0.0006478     0.0004538    0.0006853     0.0055679   -0.1661631 
   0.121680415    -0.0133459   -0.1947083     0.0006101    0.0007260     0.0004289    0.0005960     0.0056304   -0.1670569 
   0.121780440    -0.0139375   -0.1955172     0.0002659    0.0005735     0.0004720    0.0004740     0.0054889   -0.1664234 
   0.121880465    -0.0140663   -0.1948085     0.0003741    0.0007274     0.0003652    0.0005422     0.0054891   -0.1657062 
   0.121980490    -0.0143826   -0.1953024     0.0006259    0.0007749     0.0004723    0.0003896     0.0050947   -0.1668241 
   0.122080515    -0.0137618   -0.1933391     0.0005890    0.0007459     0.0003550    0.0005134     0.0052994   -0.1662153 
   0.122180540    -0.0134758   -0.1952865     0.0004406    0.0005915     0.0002834    0.0005741     0.0052295   -0.1661756 
   0.122280565    -0.0135970   -0.1942023     0.0008809    0.0006014     0.0004164    0.0005482     0.0048350   -0.1663606 
   0.122380590    -0.0139774   -0.1934071     0.0005265    0.0005301     0.0003868    0.0006189     0.0047232   -0.1660823 
   0.122480615    -0.0137907   -0.1948057     0.0007871    0.0004798     0.0004506    0.0004511     0.0045985   -0.1659789 
   0.122580640    -0.0139438   -0.1940639     0.0004460    0.0004506     0.0003380    0.0004524     0.0048652   -0.1667173 
   0.122680665    -0.0142264   -0.1931615     0.0002491    0.0008275     0.0004083    0.0005612     0.0045211   -0.1658723 
   0.122780690    -0.0141007   -0.1932378     0.0005565    0.0005923     0.0004289    0.0006984     0.0044452   -0.1659060 
   0.122880715    -0.0137554   -0.1936130     0.0003058    0.0008069     0.0003586    0.0005522     0.0048408   -0.1663574 
   0.122980740    -0.0145750   -0.1919512     0.0003146    0.0005282     0.0001298    0.0006655     0.0048880   -0.1661177 
   0.123080765    -0.0145013   -0.1918741     0.0003616    0.0010251     0.0004392    0.0006828     0.0044230   -0.1660079 
   0.123180790    -0.0141590   -0.1910633     0.0004575    0.0006159     0.0004001    0.0006431     0.0045669   -0.1657906 
   0.123280815    -0.0148686   -0.1915440     0.0001282    0.0008099     0.0007338    0.0006167     0.0045695   -0.1658270 
   0.123380840    -0.0137547   -0.1922296     0.0004750    0.0006083     0.0003837    0.0004922     0.0042919   -0.1656368 
   0.123480865    -0.0139039   -0.1909496     0.0006645    0.0008313     0.0004084    0.0004691     0.0032294   -0.1653858 
   0.123580890    -0.0148090   -0.1915284     0.0005155    0.0007130     0.0002761    0.0003289     0.0032898   -0.1658225 
   0.123680915    -0.0137509   -0.1917869     0.0002216    0.0009154     0.0004907    0.0005683     0.0037466   -0.1656039 
   0.123780940    -0.0154927   -0.1907332     0.0005721    0.0007198     0.0003874    0.0005806     0.0039542   -0.1657039 
   0.123880965    -0.0158656   -0.1908292     0.0003523    0.0005558     0.0003313    0.0004832     0.0035309   -0.1656744 
   0.123980990    -0.0151710   -0.1898781     0.0004150    0.0006561     0.0004258    0.0006669     0.0037847   -0.1655668 
   0.124081016    -0.0147025   -0.1898435     0.0003176    0.0001580     0.0005283    0.0006712     0.0036173   -0.1658231 
   0.124181041    -0.0144393   -0.1903453     0.0001591    0.0007156     0.0004154    0.0007308     0.0033950   -0.1656886 
   0.124281066    -0.0149199   -0.1911763     0.0003741    0.0003120     0.0005248    0.0003831     0.0033586   -0.1655926 
   0.124381091    -0.0142213   -0.1900919     0.0005936    0.0004715     0.0004437    0.0005410     0.0037097   -0.1652711 
   0.124481116    -0.0151835   -0.1884136     0.0004850    0.0008364     0.0005226    0.0004841     0.0031019   -0.1653620 
   0.124581141    -0.0148445   -0.1886189     0.0004537    0.0007152     0.0003339    0.0005826     0.0029348   -0.1655709 
   0.124681166    -0.0148878   -0.1883634     0.0004324    0.0006296     0.0005687    0.0007270     0.0029714   -0.1655778 
   0.124781191    -0.0151700   -0.1889012     0.0006653    0.0005825     0.0003002    0.0005280     0.0026546   -0.1651649 
   0.124881216    -0.0149246   -0.1880010     0.0004566    0.0006417     0.0003631    0.0006647     0.0028732   -0.1648764 
   0.124981241    -0.0149745   -0.1882448     0.0005680    0.0002916     0.0004594    0.0006181     0.0024561   -0.1646244 
   0.125081266    -0.0144347   -0.1878170     0.0003084    0.0003294     0.0005493    0.0004342     0.0031236   -0.1644299 
   0.125181291    -0.0147945   -0.1882025     0.0005141    0.0007921     0.0004285    0.0006015     0.0029160   -0.1650067 
   0.125281316    -0.0156482   -0.1882946     0.0001800    0.0005128     0.0004575    0.0004614     0.0033611   -0.1650888 
   0.125381341    -0.0156105   -0.1876884     0.0003493    0.0004078     0.0002830    0.0004718     0.0029649   -0.1651088 
   0.125481366    -0.0150022   -0.1866784     0.0007111    0.0007592     0.0005466    0.0005063     0.0026059   -0.1653024 
   0.125581391    -0.0150111   -0.1876788     0.0008439    0.0006843     0.0003567    0.0006407     0.0023233   -0.1650119 
   0.125681416    -0.0156771   -0.1865491     0.0003561    0.0007786     0.0005909    0.0006681     0.0025834   -0.1644644 
   0.125781441    -0.0158286   -0.1863962     0.0004856    0.0007778     0.0004368    0.0005335     0.0021865   -0.1648218 
   0.125881466    -0.0153523   -0.1867342     0.0005316    0.0007572     0.0004439    0.0004627     0.0022639   -0.1644100 
   0.125981491    -0.0158860   -0.1857706     0.0003008    0.0009751     0.0003460    0.0004152     0.0015860   -0.1641382 
   0.126081516    -0.0150448   -0.1858423     0.0005759    0.0005679     0.0004154    0.0004664     0.0014064   -0.1643501 
   0.126181541    -0.0152446   -0.1848426     0.0005813    0.0002932     0.0006149    0.0005810     0.0016869   -0.1646651 
   0.126281566    -0.0164866   -0.1855307     0.0002512    0.0005994     0.0004950    0.0006333     0.0016729   -0.1648957 
   0.126381591    -0.0155662   -0.1865176     0.0006606    0.0002670     0.0005070    0.0004020     0.0015637   -0.1646936 
   0.126481616    -0.0155850   -0.1854180     0.0005035    0.0010183     0.0004660    0.0006615     0.0017476   -0.1645825 
   0.126581641    -0.0158498   -0.1845442     0.0006472    0.0006273     0.0003201    0.0005539     0.0018003   -0.1641508 
   0.126681666    -0.0160209   -0.1848142     0.0003658    0.0007988     0.0006992    0.0005662     0.0012474   -0.1643022 
   0.126781691    -0.0163191   -0.1851080     0.0003010    0.0000277     0.0004433    0.0006906     0.0017992   -0.1643230 
   0.126881716    -0.0158325   -0.1845162     0.0007341    0.0006239     0.0004003    0.0003999     0.0011670   -0.1638161 
   0.126981741    -0.0152484   -0.1838365     0.0005649    0.0002533     0.0005154    0.0005130     0.0012630   -0.1644965 
   0.127081766    -0.0159023   -0.1838515     0.0003726    0.0004511     0.0002756    0.0004715     0.0009645   -0.1639259 
   0.127181791    -0.0166708   -0.1832087     0.0004884    0.0003027     0.0003437    0.0005548     0.0011000   -0.1639427 
   0.127281816    -0.0160440   -0.1834941     0.0004485    0.0005674     0.0005443    0.0005287     0.0015694   -0.1639950 
   0.127381841    -0.0170057   -0.1820739     0.0005804    0.0004363     0.0004273    0.0006287     0.0004225   -0.1640142 
   0.127481866    -0.0164545   -0.1831428     0.0005909    0.0004470     0.0006076    0.0006928     0.0010712   -0.1640212 
   0.127581891    -0.0161234   -0.1834415     0.0004155    0.0008456     0.0002995    0.0006587     0.0008271   -0.1635045 
   0.127681916    -0.0162836   -0.1828357     0.0003758    0.0006026     0.0002585    0.0004198     0.0004340   -0.1644886 
   0.127781941    -0.0164002   -0.1821383     0.0006427    0.0009525     0.0004464    0.0004959     0.0009814   -0.1637258 
   0.127881966    -0.0161149   -0.1819782     0.0003358    0.0004425     0.0007399    0.0006109     0.0005780   -0.1635971 
   0.127981991    -0.0165665   -0.1832956     0.0006911    0.0006336     0.0005966    0.0006699     0.0003696   -0.1633754 
   0.128082016    -0.0161147   -0.1830286     0.0003955    0.0008591     0.0004856    0.0005766     0.0009910   -0.1633943 
   0.128182041    -0.0166835   -0.1809761     0.0006367    0.0005854     0.0005320    0.0004967     0.0004641   -0.1639265 
   0.128282066    -0.0164358   -0.1814961     0.0007487    0.0013005     0.0004804    0.0007774     0.0007225   -0.1636324 
   0.128382091    -0.0164411   -0.1810868     0.0005315    0.0007542     0.0004884    0.0004630     0.0001571   -0.1633413 
   0.128482116    -0.0171908   -0.1807660     0.0005157    0.0004508     0.0004419    0.0005206    -0.0003901   -0.1635145 
   0.128582141    -0.0171263   -0.1818989     0.0003862    0.0006414     0.0004677    0.0004975     0.0004123   -0.1633603 
   0.128682166    -0.0169300   -0.1812162     0.0003720    0.0006000     0.0004427    0.0005985     0.0000164   -0.1635420 
   0.128782191    -0.0159652   -0.1806051     0.0003412    0.0006088     0.0003891    0.0004822     0.0000438   -0.1632392 
   0.128882216    -0.0165735   -0.1799965     0.0006149    0.0007007     0.0005553    0.0005353    -0.0003723   -0.1635616 
   0.128982241    -0.0167430   -0.1798396     0.0003253    0.0001198     0.0005985    0.0004691    -0.0007353   -0.1633022 
   0.129082266    -0.0169677   -0.1799641     0.0000667    0.0006521     0.0001802    0.0006912    -0.0001645   -0.1634635 
   0.129182291    -0.0166853   -0.1799847     0.0001924    0.0000913     0.0003737    0.0005044    -0.0003018   -0.1631150 
   0.129282316    -0.0166819   -0.1794604     0.0004977    0.0005615     0.0005651    0.0003494    -0.0004112   -0.1636722 
   0.129382341    -0.0170143   -0.1794933     0.0003282    0.0005297     0.0004543    0.0006155    -0.0011622   -0.1631834 
   0.129482366    -0.0167850   -0.1785392    -0.0000170    0.0003188     0.0005997    0.0008551    -0.0005062   -0.1633395 
   0.129582391    -0.0173821   -0.1791254     0.0005634    0.0005651     0.0005786    0.0007693    -0.0002506   -0.1634059 
   0.129682416    -0.0178990   -0.1794338     0.0001724    0.0005757     0.0003729    0.0006703    -0.0007550   -0.1626303 
   0.129782441    -0.0173198   -0.1789629     0.0001398    0.0002472     0.0004047    0.0005689    -0.0003441   -0.1630372 
   0.129882466    -0.0170809   -0.1783178     0.0006657    0.0005675     0.0003584    0.0006610    -0.0011296   -0.1627163 
   0.129982491    -0.0177871   -0.1790247     0.0003051    0.0006720     0.0003726    0.0003309    -0.0002680   -0.1623948 
   0.130082516    -0.0167338   -0.1781554     0.0005882    0.0002130     0.0004125    0.0006681    -0.0010811   -0.1627359 
   0.130182541    -0.0171536   -0.1773422     0.0004096    0.0007366     0.0004821    0.0007477    -0.0011472   -0.1629616 
   0.130282566    -0.0174600   -0.1777494     0.0006400    0.0005790     0.0003820    0.0005632    -0.0013232   -0.1635121 
   0.130382591    -0.0174188   -0.1772671     0.0003867    0.0007102     0.0004098    0.0003462    -0.0014308   -0.1624226 
   0.130482616    -0.0178611   -0.1782795     0.0001216    0.0004352     0.0006018    0.0006172    -0.0017575   -0.1623844 
   0.130582641    -0.0171319   -0.1763100     0.0005068    0.0001984     0.0003442    0.0005256    -0.0016209   -0.1625269 
   0.130682666    -0.0174545   -0.1772653     0.0005856    0.0001848     0.0004149    0.0002947    -0.0015240   -0.1623770 
   0.130782691    -0.0176323   -0.1774319     0.0001454    0.0004116     0.0006500    0.0003502    -0.0019795   -0.1618643 
   0.130882716    -0.0168219   -0.1759924     0.0003579    0.0007074     0.0003605    0.0005605    -0.0018603   -0.1622170 
   0.130982741    -0.0159944   -0.1762334     0.0009033    0.0004462     0.0004166    0.0005229    -0.0021784   -0.1625797 
   0.131082766    -0.0164841   -0.1759228     0.0007870    0.0011291     0.0005074    0.0007434    -0.0015193   -0.1624437 
   0.131182791    -0.0174751   -0.1762044     0.0003062    0.0004666     0.0004995    0.0005253    -0.0018039   -0.1621393 
   0.131282816    -0.0174920   -0.1755438     0.0000543    0.0006872     0.0004165    0.0005607    -0.0020448   -0.1619264 
   0.131382841    -0.0186822   -0.1750784     0.0002530    0.0001977     0.0002909    0.0006531    -0.0019324   -0.1625314 
   0.131482866    -0.0178730   -0.1757447     0.0005686    0.0009301     0.0003281    0.0004964    -0.0020159   -0.1622234 
   0.131582891    -0.0176129   -0.1752240     0.0005706    0.0009248     0.0005176    0.0005695    -0.0026870   -0.1622994 
   0.131682916    -0.0177170   -0.1752212     0.0003962    0.0003869     0.0005287    0.0005902    -0.0024418   -0.1615399 
   0.131782941    -0.0171934   -0.1744393     0.0001999    0.0005097     0.0005596    0.0005305    -0.0026469   -0.1620974 
   0.131882966    -0.0178048   -0.1751112     0.0005135    0.0008704     0.0005473    0.0005751    -0.0023402   -0.1616474 
   0.131982991    -0.0174535   -0.1746078     0.0005078    0.0005366     0.0002730    0.0006074    -0.0030106   -0.1618609 
   0.132083017    -0.0177744   -0.1734947     0.0004963    0.0006291     0.0003242    0.0006861    -0.0029671   -0.1616859 
   0.132183042    -0.0177197   -0.1738776     0.0004420    0.0009188     0.0004971    0.0006237    -0.0036784   -0.1616383 
   0.132283067    -0.0173241   -0.1730697     0.0006345    0.0006776     0.0005602    0.0005159    -0.0030254   -0.1616879 
   0.132383092    -0.0181490   -0.1734483     0.0003882    0.0007034     0.0006484    0.0005071    -0.0031076   -0.1620619 
   0.132483117    -0.0172323   -0.1727827     0.0002121    0.0007121     0.0006145    0.0006199    -0.0032707   -0.1611426 
   0.132583142    -0.0187057   -0.1732133     0.0003825    0.0007231     0.0004034    0.0006084    -0.0034314   -0.1614699 
   0.132683167    -0.0179630   -0.1727961     0.0003786    0.0006958     0.0004261    0.0006876    -0.0031138   -0.1615585 
   0.132783192    -0.0175544   -0.1720673     0.0001662    0.0004665     0.0003875    0.0004161    -0.0035377   -0.1616534 
   0.132883217    -0.0185563   -0.1731733     0.0008233    0.0005303     0.0004138    0.0005648    -0.0032160   -0.1614568 
   0.132983242    -0.0175524   -0.1718353     0.0006187    0.0007479     0.0004587    0.0005352    -0.0031009   -0.1614787 
   0.133083267    -0.0183806   -0.1728166     0.0005970    0.0005829     0.0004299    0.0004626    -0.0036927   -0.1615960 
   0.133183292    -0.0179035   -0.1717988     0.0007564    0.0004856     0.0003997    0.0004390    -0.0034753   -0.1611894 
   0.133283317    -0.0180173   -0.1722683     0.0005798    0.0004729     0.0004554    0.0005583    -0.0038900   -0.1609929 
   0.133383342    -0.0178389   -0.1712218     0.0004193    0.0001366     0.0004507    0.0007673    -0.0037377   -0.1615992 
   0.133483367    -0.0179531   -0.1711496     0.0005724    0.0008636     0.0005366    0.0005186    -0.0039655   -0.1616172 
   0.133583392    -0.0172795   -0.1717663     0.0007498    0.0005719     0.0004157    0.0004902    -0.0039804   -0.1615728 
   0.133683417    -0.0182341   -0.1714577     0.0003405    0.0004740     0.0006077    0.0007046    -0.0041153   -0.1613269 
   0.133783442    -0.0178883   -0.1709865     0.0007549    0.0006577     0.0004929    0.0007647    -0.0042210   -0.1613472 
   0.133883467    -0.0179505   -0.1701929     0.0004744    0.0007582     0.0004048    0.0003104    -0.0036940   -0.1613910 
   0.133983492    -0.0175691   -0.1709620     0.0005453    0.0004821     0.0005852    0.0005887    -0.0043365   -0.1611621 
   0.134083517    -0.0171394   -0.1710770     0.0007761    0.0010763     0.0003563    0.0004331    -0.0047973   -0.1604335 
   0.134183542    -0.0184555   -0.1692582     0.0006797    0.0007415     0.0003885    0.0001768    -0.0039262   -0.1607055 
   0.134283567    -0.0185799   -0.1702255     0.0004941    0.0004684     0.0006768    0.0007219    -0.0042019   -0.1608825 
   0.134383592    -0.0180857   -0.1700733     0.0006619    0.0005738     0.0005692    0.0005919    -0.0046020   -0.1606745 
   0.134483617    -0.0190989   -0.1694380     0.0005744    0.0005416     0.0006232    0.0005481    -0.0045275   -0.1609826 
   0.134583642    -0.0190829   -0.1697846     0.0004129    0.0001442     0.0005339    0.0007189    -0.0043800   -0.1607943 
   0.134683667    -0.0179455   -0.1688636     0.0008292    0.0004212     0.0006774    0.0006861    -0.0045588   -0.1606415 
   0.134783692    -0.0179806   -0.1689082     0.0002831    0.0002358     0.0006447    0.0007200    -0.0047162   -0.1604265 
   0.134883717    -0.0182437   -0.1692199     0.0007025    0.0005983     0.0005346    0.0006956    -0.0050939   -0.1603774 
   0.134983742    -0.0186015   -0.1685154     0.0005742    0.0006798     0.0003972    0.0005322    -0.0054560   -0.1603056 
   0.135083767    -0.0182466   -0.1687761     0.0004781    0.0003331     0.0006047    0.0007013    -0.0050619   -0.1608083 
   0.135183792    -0.0182829   -0.1682522     0.0007195    0.0005771     0.0006595    0.0008352    -0.0050829   -0.1603879 
   0.135283817    -0.0181151   -0.1679239     0.0002652    0.0004521     0.0004651    0.0004252    -0.0053443   -0.1604594 
   0.135383842    -0.0185561   -0.1680495     0.0006941    0.0007323     0.0003538    0.0006401    -0.0055853   -0.1607040 
   0.135483867    -0.0182888   -0.1669676     0.0006623    0.0005230     0.0007660    0.0007544    -0.0052935   -0.1608679 
   0.135583892    -0.0185106   -0.1674203     0.0006006    0.0008050     0.0005101    0.0003808    -0.0048988   -0.1605919 
   0.135683917    -0.0193261   -0.1670987     0.0003492    0.0005656     0.0006716    0.0006364    -0.0053236   -0.1603974 
   0.135783942    -0.0177081   -0.1680314     0.0002466    0.0004981     0.0004126    0.0003002    -0.0056679   -0.1602188 
   0.135883967    -0.0185414   -0.1667704     0.0004049    0.0006776     0.0004584    0.0005996    -0.0059316   -0.1600687 
   0.135983992    -0.0186528   -0.1664222     0.0005139    0.0004026     0.0003980    0.0005666    -0.0056687   -0.1602783 
   0.136084017    -0.0189013   -0.1668219     0.0005580    0.0008552     0.0005678    0.0007857    -0.0057608   -0.1603415 
   0.136184042    -0.0187844   -0.1671537     0.0003610    0.0007613     0.0005597    0.0005666    -0.0059475   -0.1605061 
   0.136284067    -0.0187006   -0.1664696     0.0003221    0.0005588     0.0005963    0.0004310    -0.0060765   -0.1598459 
   0.136384092    -0.0183122   -0.1661378     0.0004580    0.0005764     0.0004874    0.0004323    -0.0064154   -0.1598103 
   0.136484117    -0.0188513   -0.1660996     0.0004491    0.0005937     0.0006549    0.0003829    -0.0061598   -0.1600469 
   0.136584142    -0.0193371   -0.1659828     0.0007894    0.0004855     0.0004194    0.0004625    -0.0059813   -0.1598030 
   0.136684167    -0.0188306   -0.1655455     0.0006554    0.0005602     0.0005115    0.0006633    -0.0064032   -0.1598958 
   0.136784192    -0.0186603   -0.1654769     0.0004766    0.0006068     0.0004937    0.0003214    -0.0062342   -0.1598191 
   0.136884217    -0.0185587   -0.1653859     0.0006073    0.0005797     0.0002888    0.0007130    -0.0069206   -0.1598038 
   0.136984242    -0.0186966   -0.1655039     0.0003762    0.0007290     0.0005680    0.0005272    -0.0069825   -0.1599049 
   0.137084267    -0.0186107   -0.1649822     0.0003526    0.0004566     0.0003337    0.0006278    -0.0069783   -0.1600335 
   0.137184292    -0.0192390   -0.1647022     0.0002779    0.0005232     0.0003981    0.0006690    -0.0070646   -0.1596135 
   0.137284317    -0.0181583   -0.1642411     0.0004521    0.0006690     0.0005228    0.0007339    -0.0070085   -0.1591425 
   0.137384342    -0.0190457   -0.1641881     0.0008588    0.0007618     0.0002663    0.0004140    -0.0065224   -0.1595744 
   0.137484367    -0.0197176   -0.1648901     0.0005452    0.0006435     0.0006246    0.0004244    -0.0072050   -0.1598245 
   0.137584392    -0.0190172   -0.1640578     0.0005453    0.0009257     0.0004228    0.0005132    -0.0070634   -0.1595777 
   0.137684417    -0.0192061   -0.1633986     0.0003983    0.0007838     0.0006955    0.0005872    -0.0068655   -0.1591602 
   0.137784442    -0.0187048   -0.1642312     0.0006454    0.0003691     0.0006798    0.0003463    -0.0069700   -0.1592093 
   0.137884467    -0.0182406   -0.1633077     0.0007845    0.0003695     0.0004070    0.0003862    -0.0073037   -0.1600198 
   0.137984492    -0.0191013   -0.1628542     0.0003030    0.0003435     0.0005951    0.0005612    -0.0075213   -0.1594700 
   0.138084517    -0.0189649   -0.1625879     0.0008170    0.0005279     0.0003541    0.0004637    -0.0069877   -0.1593452 
   0.138184542    -0.0187604   -0.1622485     0.0007047    0.0005002     0.0003358    0.0004240    -0.0074831   -0.1593686 
   0.138284567    -0.0194888   -0.1622573     0.0003505    0.0006395     0.0005627    0.0005573    -0.0074967   -0.1593833 
   0.138384592    -0.0189768   -0.1626160     0.0005208    0.0005845     0.0006103    0.0003695    -0.0077569   -0.1590880 
   0.138484617    -0.0192767   -0.1623199     0.0005882    0.0005493     0.0007285    0.0003172    -0.0073833   -0.1591731 
   0.138584642    -0.0188959   -0.1616272     0.0008815    0.0005059     0.0004931    0.0005386    -0.0077812   -0.1593550 
   0.138684667    -0.0191158   -0.1622968     0.0003117    0.0007114     0.0005658    0.0005048    -0.0079140   -0.1590121 
   0.138784692    -0.0185752   -0.1627046     0.0002746    0.0011235     0.0004686    0.0002297    -0.0082549   -0.1594494 
   0.138884717    -0.0181264   -0.1617717     0.0005719    0.0006401     0.0004984    0.0004231    -0.0080494   -0.1592569 
   0.138984742    -0.0190709   -0.1620385     0.0007735    0.0008116     0.0006285    0.0007139    -0.0081951   -0.1588644 
   0.139084767    -0.0188117   -0.1612325     0.0007395    0.0003967     0.0006852    0.0005612    -0.0082365   -0.1587935 
   0.139184792    -0.0190457   -0.1608231     0.0001764    0.0003740     0.0005332    0.0004777    -0.0085013   -0.1588298 
   0.139284817    -0.0187364   -0.1613337     0.0006325    0.0011279     0.0004539    0.0006912    -0.0080637   -0.1588541 
   0.139384842    -0.0192672   -0.1616996     0.0003588    0.0008591     0.0005444    0.0007710    -0.0084502   -0.1587559 
   0.139484867    -0.0192070   -0.1607261     0.0002166    0.0006655     0.0006904    0.0007837    -0.0088304   -0.1586004 
   0.139584892    -0.0195014   -0.1608731     0.0002973    0.0007715     0.0005313    0.0005580    -0.0078367   -0.1583576 
   0.139684917    -0.0192381   -0.1610408     0.0006549    0.0004025     0.0007232    0.0006129    -0.0091346   -0.1589477 
   0.139784942    -0.0186634   -0.1608661     0.0004409    0.0006893     0.0004715    0.0006025    -0.0088398   -0.1591133 
   0.139884967    -0.0185970   -0.1603929     0.0004974    0.0006017     0.0006147    0.0004762    -0.0088300   -0.1588034 
   0.139984992    -0.0190160   -0.1596030     0.0010535    0.0006196     0.0008686    0.0005813    -0.0085160   -0.1586875 
   0.140085018    -0.0190200   -0.1599439     0.0005505    0.0006055     0.0005574    0.0004813    -0.0086334   -0.1583723 
   0.140185043    -0.0187308   -0.1594273     0.0005055    0.0008299     0.0006901    0.0007151    -0.0093397   -0.1580286 
   0.140285068    -0.0186178   -0.1581496     0.0003495    0.0008852     0.0003865    0.0005747    -0.0089188   -0.1582092 
   0.140385093    -0.0189435   -0.1595214     0.0005525    0.0005235     0.0006630    0.0004424    -0.0085475   -0.1581692 
   0.140485118    -0.0194209   -0.1591665     0.0006126    0.0007087     0.0006630    0.0006380    -0.0096789   -0.1579035 
   0.140585143    -0.0198192   -0.1590079     0.0006590    0.0003573     0.0005408    0.0004918    -0.0091092   -0.1582499 
   0.140685168    -0.0195372   -0.1591764     0.0006333    0.0006966     0.0004559    0.0007170    -0.0096398   -0.1582180 
   0.140785193    -0.0191471   -0.1585765     0.0002102    0.0005044     0.0004673    0.0007129    -0.0091362   -0.1577955 
   0.140885218    -0.0193238   -0.1581841     0.0007620    0.0006959     0.0003627    0.0003435    -0.0093124   -0.1580735 
   0.140985243    -0.0189271   -0.1584148     0.0004964    0.0007112     0.0005356    0.0005597    -0.0098815   -0.1581386 
   0.141085268    -0.0192512   -0.1583159     0.0004410    0.0005504     0.0006443    0.0006908    -0.0097188   -0.1582931 
   0.141185293    -0.0200868   -0.1571195     0.0005903    0.0005884     0.0006066    0.0004895    -0.0100388   -0.1577020 
   0.141285318    -0.0195691   -0.1573888     0.0005671    0.0003130     0.0004565    0.0007336    -0.0097754   -0.1578211 
   0.141385343    -0.0195107   -0.1572013     0.0003395    0.0006643     0.0007027    0.0005646    -0.0105275   -0.1580294 
   0.141485368    -0.0191429   -0.1569393     0.0004333    0.0004433     0.0007227    0.0005265    -0.0098635   -0.1582524 
   0.141585393    -0.0189866   -0.1570671     0.0008805    0.0006655     0.0004462    0.0003096    -0.0099004   -0.1578596 
   0.141685418    -0.0197149   -0.1580340     0.0004072    0.0004744     0.0007319    0.0007820    -0.0103203   -0.1577890 
   0.141785443    -0.0199492   -0.1569021     0.0003520    0.0006341     0.0004674    0.0005305    -0.0101214   -0.1572444 
   0.141885468    -0.0195796   -0.1561619     0.0007389    0.0002796     0.0005904    0.0006370    -0.0101698   -0.1574941 
   0.141985493    -0.0195760   -0.1560397     0.0006928    0.0007960     0.0006605    0.0005887    -0.0110843   -0.1579417 
   0.142085518    -0.0202786   -0.1559820     0.0005077    0.0006304     0.0005789    0.0005770    -0.0109621   -0.1580238 
   0.142185543    -0.0198320   -0.1558712     0.0007130    0.0003561     0.0007346    0.0006767    -0.0106440   -0.1577378 
   0.142285568    -0.0189976   -0.1565810     0.0005728    0.0007578     0.0005867    0.0004505    -0.0110328   -0.1573063 
   0.142385593    -0.0191834   -0.1559751     0.0007719    0.0003624     0.0005073    0.0004979    -0.0107230   -0.1571159 
   0.142485618    -0.0198191   -0.1560462     0.0006369    0.0004480     0.0004035    0.0004149    -0.0114108   -0.1573965 
   0.142585643    -0.0193914   -0.1549917     0.0006186    0.0008033     0.0003267    0.0006739    -0.0107017   -0.1573449 
   0.142685668    -0.0194861   -0.1553747     0.0006608    0.0002541     0.0007235    0.0006524    -0.0111332   -0.1577189 
   0.142785693    -0.0202018   -0.1549104     0.0010749    0.0004504     0.0005713    0.0005797    -0.0112472   -0.1570272 
   0.142885718    -0.0192995   -0.1546354     0.0004912    0.0005664     0.0005748    0.0005737    -0.0112105   -0.1571266 
   0.142985743    -0.0197263   -0.1546384     0.0005468    0.0000034     0.0009104    0.0007041    -0.0113805   -0.1576279 
   0.143085768    -0.0191908   -0.1544801     0.0009670    0.0005782     0.0004802    0.0006180    -0.0113752   -0.1571506 
   0.143185793    -0.0190916   -0.1542713     0.0007754    0.0007440     0.0007378    0.0006072    -0.0118146   -0.1572938 
   0.143285818    -0.0195348   -0.1540775     0.0005886    0.0004749     0.0005627    0.0006811    -0.0115518   -0.1570369 
   0.143385843    -0.0194980   -0.1543334     0.0003308    0.0008264     0.0005259    0.0004480    -0.0115736   -0.1567883 
   0.143485868    -0.0190074   -0.1540663     0.0007479    0.0007615     0.0006603    0.0006762    -0.0113494   -0.1564113 
   0.143585893    -0.0197284   -0.1544667     0.0005832    0.0007965     0.0005220    0.0005090    -0.0123786   -0.1570502 
   0.143685918    -0.0200821   -0.1529251     0.0006593    0.0006327     0.0005184    0.0006737    -0.0123629   -0.1568145 
   0.143785943    -0.0197725   -0.1532936     0.0004665    0.0003507     0.0005521    0.0007610    -0.0123461   -0.1570671 
   0.143885968    -0.0196499   -0.1532945     0.0001714    0.0005794     0.0006577    0.0004342    -0.0120609   -0.1575147 
   0.143985993    -0.0192487   -0.1530962     0.0006008    0.0002844     0.0006751    0.0005750    -0.0118754   -0.1570930 
   0.144086018    -0.0196475   -0.1539049     0.0003858    0.0005405     0.0006533    0.0006998    -0.0120516   -0.1569344 
   0.144186043    -0.0199619   -0.1533689     0.0002525    0.0004246     0.0007397    0.0003411    -0.0127663   -0.1567558 
   0.144286068    -0.0195748   -0.1524679     0.0005340    0.0003556     0.0004592    0.0006793    -0.0123163   -0.1566800 
   0.144386093    -0.0193793   -0.1530048     0.0005202    0.0012428     0.0004690    0.0006345    -0.0119986   -0.1572015 
   0.144486118    -0.0192792   -0.1525593     0.0002988    0.0010342     0.0005540    0.0005401    -0.0124595   -0.1567449 
   0.144586143    -0.0202960   -0.1520676     0.0005808    0.0007947     0.0007022    0.0004237    -0.0126680   -0.1564955 
   0.144686168    -0.0190889   -0.1516074     0.0005893    0.0007939     0.0005113    0.0005324    -0.0123805   -0.1563336 
   0.144786193    -0.0204642   -0.1521588     0.0005340    0.0004742     0.0005210    0.0006105    -0.0129628   -0.1563132 
   0.144886218    -0.0201583   -0.1518245     0.0006428    0.0005104     0.0004906    0.0004525    -0.0121692   -0.1565029 
   0.144986243    -0.0197589   -0.1513211     0.0006722    0.0001950     0.0007130    0.0006083    -0.0122712   -0.1566715 
   0.145086268    -0.0194343   -0.1510221     0.0006458    0.0005091     0.0006059    0.0005080    -0.0127437   -0.1569525 
   0.145186293    -0.0200462   -0.1508990     0.0002332    0.0006360     0.0005008    0.0006264    -0.0132551   -0.1566624 
   0.145286318    -0.0198747   -0.1509945     0.0003945    0.0006616     0.0006662    0.0007464    -0.0125880   -0.1563818 
   0.145386343    -0.0198207   -0.1514419     0.0005188    0.0006662     0.0006176    0.0003984    -0.0132532   -0.1560472 
   0.145486368    -0.0202110   -0.1499263     0.0002911    0.0005203     0.0007018    0.0005841    -0.0129528   -0.1556533 
   0.145586393    -0.0193648   -0.1501257     0.0005333    0.0010537     0.0005850    0.0006884    -0.0133831   -0.1565040 
   0.145686418    -0.0192835   -0.1512548     0.0004765    0.0004896     0.0006863    0.0004247    -0.0134339   -0.1564305 
   0.145786443    -0.0193260   -0.1502185     0.0005422    0.0006785     0.0006668    0.0007295    -0.0132714   -0.1561611 
   0.145886468    -0.0189875   -0.1497303     0.0004458   -0.0002097     0.0006965    0.0007795    -0.0133672   -0.1565475 
   0.145986493    -0.0198501   -0.1503064     0.0004273    0.0006909     0.0005809    0.0004774    -0.0137886   -0.1554746 
   0.146086518    -0.0193152   -0.1504987     0.0005351    0.0004985     0.0003447    0.0004981    -0.0140402   -0.1561735 
   0.146186543    -0.0201194   -0.1498284     0.0008025    0.0004502     0.0007945    0.0005306    -0.0136374   -0.1557840 
   0.146286568    -0.0206995   -0.1494608     0.0008562    0.0003846     0.0004381    0.0005458    -0.0138530   -0.1562664 
   0.146386593    -0.0200510   -0.1490084     0.0005722    0.0003139     0.0007030    0.0005492    -0.0140646   -0.1561101 
   0.146486618    -0.0205570   -0.1495890     0.0008878    0.0003742     0.0007074    0.0004689    -0.0143288   -0.1562244 
   0.146586643    -0.0198695   -0.1491677     0.0004872    0.0003193     0.0006721    0.0004267    -0.0143409   -0.1555119 
   0.146686668    -0.0194178   -0.1490674     0.0008540    0.0005037     0.0004545    0.0005370    -0.0145487   -0.1558561 
   0.146786693    -0.0199396   -0.1489474     0.0003565    0.0008334     0.0005426    0.0004688    -0.0141087   -0.1555121 
   0.146886718    -0.0196436   -0.1476116     0.0005431    0.0007525     0.0008409    0.0003286    -0.0143634   -0.1551849 
   0.146986743    -0.0194680   -0.1487027     0.0006006    0.0006078     0.0004774    0.0007776    -0.0146043   -0.1558808 
   0.147086768    -0.0200246   -0.1478223     0.0004652    0.0004784     0.0006975    0.0005750    -0.0145156   -0.1559141 
   0.147186793    -0.0191211   -0.1485220     0.0003801    0.0008308     0.0006969    0.0005281    -0.0149746   -0.1552398 
   0.147286818    -0.0195386   -0.1475542     0.0008625    0.0002769     0.0005018    0.0006206    -0.0149269   -0.1551019 
   0.147386843    -0.0206101   -0.1472339     0.0006783    0.0004916     0.0006437    0.0005748    -0.0149881   -0.1557068 
   0.147486868    -0.0201804   -0.1476890     0.0008740    0.0006164     0.0005644    0.0005585    -0.0148689   -0.1556381 
   0.147586893    -0.0202416   -0.1468778     0.0005680    0.0005912     0.0005227    0.0007222    -0.0150975   -0.1551305 
   0.147686918    -0.0199319   -0.1464157     0.0007279    0.0005870     0.0005741    0.0005750    -0.0150657   -0.1556802 
   0.147786943    -0.0197068   -0.1468049     0.0005394    0.0006954     0.0005233    0.0006840    -0.0148133   -0.1551141 
   0.147886968    -0.0200009   -0.1463674     0.0004234    0.0005201     0.0005252    0.0006402    -0.0148988   -0.1549327 
   0.147986993    -0.0203868   -0.1469343     0.0006653    0.0005095     0.0006699    0.0005425    -0.0155425   -0.1548314 
   0.148087019    -0.0198620   -0.1469551     0.0002738    0.0004637     0.0004908    0.0007314    -0.0153656   -0.1552256 
   0.148187044    -0.0200354   -0.1471983     0.0006024    0.0005657     0.0006725    0.0004129    -0.0155479   -0.1551362 
   0.148287069    -0.0192516   -0.1476785     0.0007729    0.0005714     0.0007840    0.0005594    -0.0161540   -0.1551457 
   0.148387094    -0.0187280   -0.1462267     0.0007302    0.0003757     0.0005484    0.0004047    -0.0153114   -0.1550828 
   0.148487119    -0.0198257   -0.1462295     0.0005536    0.0006509     0.0007110    0.0004455    -0.0155787   -0.1552970 
   0.148587144    -0.0196828   -0.1460250     0.0006715    0.0012372     0.0006250    0.0005318    -0.0152598   -0.1552833 
   0.148687169    -0.0198607   -0.1455562     0.0005415    0.0007293     0.0006525    0.0004411    -0.0161001   -0.1548079 
   0.148787194    -0.0200372   -0.1451605     0.0005082    0.0008810     0.0006404    0.0005423    -0.0159448   -0.1547411 
   0.148887219    -0.0194975   -0.1457171     0.0005544    0.0006564     0.0005171    0.0003815    -0.0161311   -0.1548184 
   0.148987244    -0.0195037   -0.1451592     0.0005930    0.0006450     0.0006486    0.0006093    -0.0160051   -0.1551345 
   0.149087269    -0.0197243   -0.1448504     0.0007239    0.0004248     0.0006167    0.0004869    -0.0159674   -0.1546438 
   0.149187294    -0.0202976   -0.1446885     0.0003571    0.0003789     0.0006368    0.0007169    -0.0159893   -0.1550189 
   0.149287319    -0.0200185   -0.1451981     0.0005970    0.0006952     0.0007173    0.0003190    -0.0164065   -0.1549858 
   0.149387344    -0.0193483   -0.1441819     0.0005046    0.0000391     0.0005948    0.0004325    -0.0161348   -0.1548480 
   0.149487369    -0.0200697   -0.1443036     0.0008702    0.0005940     0.0006555    0.0005936    -0.0163814   -0.1549354 
   0.149587394    -0.0202888   -0.1437809     0.0011013    0.0005825     0.0004253    0.0004848    -0.0166212   -0.1550550 
   0.149687419    -0.0200307   -0.1443770     0.0007706    0.0005890     0.0007191    0.0007398    -0.0162319   -0.1550933 
   0.149787444    -0.0210105   -0.1433856     0.0003649    0.0001946     0.0007863    0.0004569    -0.0166372   -0.1541355 
   0.149887469    -0.0195948   -0.1443279     0.0007467    0.0002281     0.0007015    0.0006753    -0.0164199   -0.1545248 
   0.149987494    -0.0200725   -0.1438967     0.0005161    0.0006279     0.0006338    0.0006753    -0.0162744   -0.1541377 
   0.150087519    -0.0204056   -0.1431817     0.0004550    0.0004798     0.0007693    0.0005967    -0.0166284   -0.1546604 
   0.150187544    -0.0191377   -0.1435976     0.0004415    0.0004951     0.0005115    0.0005378    -0.0168954   -0.1548897 
   0.150287569    -0.0197747   -0.1432514     0.0007308    0.0003958     0.0004717    0.0006455    -0.0168418   -0.1541456 
   0.150387594    -0.0200349   -0.1432849     0.0008601    0.0003933     0.0007240    0.0004969    -0.0166925   -0.1544553 
   0.150487619    -0.0200078   -0.1426305     0.0008339    0.0005932     0.0006576    0.0004455    -0.0170985   -0.1545431 
   0.150587644    -0.0201262   -0.1419053     0.0003247    0.0004342     0.0004824    0.0003364    -0.0169147   -0.1540851 
   0.150687669    -0.0202932   -0.1424876     0.0004436    0.0007610     0.0005039    0.0004659    -0.0173420   -0.1545553 
   0.150787694    -0.0193648   -0.1421007     0.0009011    0.0001120     0.0004053    0.0005556    -0.0177638   -0.1542584 
   0.150887719    -0.0201573   -0.1423135     0.0004558    0.0001940     0.0006748    0.0006307    -0.0176616   -0.1544780 
   0.150987744    -0.0189455   -0.1417813     0.0006009    0.0004515     0.0005775    0.0005843    -0.0174185   -0.1538511 
   0.151087769    -0.0204304   -0.1419881     0.0006181    0.0003261     0.0005199    0.0006477    -0.0177735   -0.1539508 
   0.151187794    -0.0200658   -0.1414996     0.0007854    0.0004691     0.0008578    0.0005726    -0.0178962   -0.1540211 
   0.151287819    -0.0199037   -0.1415457     0.0008637    0.0008196     0.0006477    0.0006072    -0.0169688   -0.1540853 
   0.151387844    -0.0194379   -0.1417005     0.0005651    0.0006276     0.0005525    0.0005250    -0.0175368   -0.1541134 
   0.151487869    -0.0205865   -0.1410961     0.0007297    0.0002568     0.0006985    0.0005678    -0.0177529   -0.1537896 
   0.151587894    -0.0202310   -0.1415501     0.0008295    0.0002483     0.0007811    0.0005345    -0.0179284   -0.1539675 
   0.151687919    -0.0201828   -0.1411281     0.0009740    0.0003870     0.0004467    0.0005536    -0.0178588   -0.1532541 
   0.151787944    -0.0199271   -0.1410150     0.0006800    0.0005119     0.0005698    0.0007155    -0.0181396   -0.1536281 
   0.151887969    -0.0192427   -0.1408454     0.0005072    0.0007034     0.0006842    0.0004029    -0.0177745   -0.1540428 
   0.151987994    -0.0196345   -0.1408774     0.0006313    0.0007891     0.0007457    0.0007900    -0.0183414   -0.1532413 
   0.152088019    -0.0201322   -0.1407259     0.0006962    0.0002592     0.0006489    0.0005691    -0.0182833   -0.1538510 
   0.152188044    -0.0201988   -0.1402091     0.0006761    0.0004443     0.0005863    0.0004711    -0.0183049   -0.1537092 
   0.152288069    -0.0199273   -0.1408430     0.0006221    0.0004191     0.0005517    0.0002538    -0.0183623   -0.1538082 
   0.152388094    -0.0192932   -0.1407570     0.0005676    0.0005532     0.0007922    0.0006026    -0.0185496   -0.1533567 
   0.152488119    -0.0198330   -0.1394684     0.0006948    0.0006085     0.0005152    0.0003990    -0.0191225   -0.1534227 
   0.152588144    -0.0198266   -0.1399348     0.0004286    0.0006696     0.0006778    0.0005432    -0.0185932   -0.1532830 
   0.152688169    -0.0201848   -0.1390346     0.0005786    0.0003610     0.0006841    0.0005248    -0.0187830   -0.1540076 
   0.152788194    -0.0199411   -0.1389707     0.0007244    0.0006434     0.0008281    0.0005421    -0.0192538   -0.1536415 
   0.152888219    -0.0199751   -0.1400836     0.0006341    0.0004572     0.0007759    0.0005541    -0.0190341   -0.1527224 
   0.152988244    -0.0197393   -0.1386319     0.0006669    0.0003695     0.0006938    0.0005469    -0.0190967   -0.1536544 
   0.153088269    -0.0211328   -0.1389102     0.0009286    0.0006054     0.0007361    0.0005297    -0.0183009   -0.1529493 
   0.153188294    -0.0195465   -0.1389262     0.0006804    0.0006681     0.0007656    0.0004637    -0.0190174   -0.1535758 
   0.153288319    -0.0192797   -0.1391547     0.0008229    0.0006257     0.0007764    0.0005732    -0.0188947   -0.1532786 
   0.153388344    -0.0191834   -0.1387383     0.0008337    0.0006265     0.0007283    0.0005585    -0.0190675   -0.1527009 
   0.153488369    -0.0198774   -0.1390931     0.0008075    0.0006984     0.0005211    0.0005392    -0.0188558   -0.1527891 
   0.153588394    -0.0196817   -0.1379328     0.0006130    0.0006247     0.0008047    0.0003149    -0.0193912   -0.1524579 
   0.153688419    -0.0193245   -0.1380780     0.0008290    0.0006358     0.0005660    0.0004058    -0.0196416   -0.1527686 
   0.153788444    -0.0194524   -0.1368596     0.0006723    0.0007117     0.0006912    0.0006450    -0.0201418   -0.1527334 
   0.153888469    -0.0193606   -0.1379488     0.0008121    0.0008425     0.0006105    0.0004598    -0.0198127   -0.1529469 
   0.153988494    -0.0198805   -0.1374131     0.0004325    0.0007185     0.0005101    0.0007168    -0.0192936   -0.1525264 
   0.154088519    -0.0205656   -0.1379572     0.0007654    0.0004624     0.0006277    0.0002798    -0.0202191   -0.1522061 
   0.154188544    -0.0197587   -0.1376551     0.0006829    0.0006351     0.0006940    0.0004825    -0.0195581   -0.1529737 
   0.154288569    -0.0203426   -0.1372980     0.0004790    0.0007099     0.0007511    0.0005731    -0.0202365   -0.1531466 
   0.154388594    -0.0195851   -0.1368042     0.0006698    0.0011175     0.0005818    0.0006085    -0.0198151   -0.1524238 
   0.154488619    -0.0202020   -0.1375396     0.0007059    0.0007862     0.0005888    0.0003996    -0.0199212   -0.1523248 
   0.154588644    -0.0206086   -0.1364241     0.0008834    0.0003010     0.0008142    0.0006623    -0.0202461   -0.1527654 
   0.154688669    -0.0199114   -0.1363420     0.0006463    0.0006343     0.0008311    0.0005119    -0.0201509   -0.1523637 
   0.154788694    -0.0195137   -0.1368901     0.0008420    0.0006706     0.0007451    0.0007297    -0.0201312   -0.1525478 
   0.154888719    -0.0199931   -0.1358352     0.0007954    0.0006373     0.0006323    0.0003605    -0.0200268   -0.1526731 
   0.154988744    -0.0199724   -0.1354688     0.0007330    0.0005248     0.0006776    0.0004628    -0.0204745   -0.1525416 
   0.155088769    -0.0190762   -0.1359693     0.0009009    0.0004255     0.0006302    0.0005419    -0.0206603   -0.1527283 
   0.155188794    -0.0199783   -0.1356504     0.0007009    0.0005426     0.0007809    0.0003403    -0.0203451   -0.1521542 
   0.155288819    -0.0191468   -0.1352455     0.0007690    0.0006974     0.0008198    0.0005277    -0.0207406   -0.1527956 
   0.155388844    -0.0189343   -0.1361478     0.0005815    0.0003036     0.0009414    0.0004281    -0.0209189   -0.1520449 
   0.155488869    -0.0188783   -0.1353937     0.0009460    0.0004719     0.0007129    0.0007086    -0.0205482   -0.1522521 
   0.155588894    -0.0196107   -0.1348229     0.0005323    0.0007589     0.0004520    0.0003741    -0.0204867   -0.1525557 
   0.155688919    -0.0195867   -0.1353350     0.0004227    0.0008861     0.0007980    0.0003998    -0.0214410   -0.1520036 
   0.155788944    -0.0194810   -0.1353750     0.0007851    0.0005812     0.0005665    0.0004657    -0.0209557   -0.1522826 
   0.155888969    -0.0199356   -0.1350211     0.0005362    0.0006073     0.0006466    0.0003688    -0.0213561   -0.1519233 
   0.155988994    -0.0196833   -0.1353473     0.0006071    0.0005050     0.0005802    0.0003845    -0.0211362   -0.1523139 
   0.156089020    -0.0194181   -0.1345755     0.0006866    0.0004256     0.0009352    0.0003880    -0.0212819   -0.1514734 
   0.156189045    -0.0200398   -0.1343543     0.0008697    0.0004610     0.0006211    0.0004841    -0.0210254   -0.1519728 
   0.156289070    -0.0195836   -0.1340443     0.0004020    0.0004677     0.0007173    0.0007520    -0.0213742   -0.1518234 
   0.156389095    -0.0195825   -0.1343483     0.0006229    0.0005517     0.0007324    0.0006394    -0.0215627   -0.1518226 
   0.156489120    -0.0199463   -0.1338970     0.0008873    0.0003566     0.0005820    0.0006311    -0.0213317   -0.1517854 
   0.156589145    -0.0195192   -0.1337218     0.0006656    0.0004406     0.0007697    0.0007373    -0.0216459   -0.1519543 
   0.156689170    -0.0199753   -0.1338560     0.0007223    0.0005496     0.0005876    0.0004170    -0.0217790   -0.1515323 
   0.156789195    -0.0197862   -0.1337460     0.0008631    0.0002039     0.0006424    0.0005386    -0.0216283   -0.1515404 
   0.156889220    -0.0199350   -0.1335820     0.0007941    0.0004997     0.0006004    0.0006057    -0.0216411   -0.1517585 
   0.156989245    -0.0193213   -0.1338124     0.0007325    0.0003724     0.0006479    0.0004512    -0.0219139   -0.1512661 
   0.157089270    -0.0203780   -0.1329679     0.0011000    0.0004403     0.0006783    0.0004527    -0.0221518   -0.1520295 
   0.157189295    -0.0195801   -0.1329522     0.0008284    0.0006887     0.0006671    0.0003927    -0.0221704   -0.1516163 
   0.157289320    -0.0197083   -0.1329756     0.0007622    0.0005326     0.0007309    0.0004131    -0.0218603   -0.1512766 
   0.157389345    -0.0190544   -0.1325652     0.0006984    0.0003509     0.0007095    0.0002211    -0.0222415   -0.1512321 
   0.157489370    -0.0196960   -0.1321299     0.0007939    0.0008060     0.0005949    0.0004153    -0.0217578   -0.1508761 
   0.157589395    -0.0200839   -0.1320430     0.0007008    0.0008007     0.0006051    0.0005629    -0.0218356   -0.1516175 
   0.157689420    -0.0195819   -0.1324183     0.0007242    0.0006416     0.0007384    0.0006280    -0.0223216   -0.1513456 
   0.157789445    -0.0186728   -0.1333161     0.0007203    0.0003008     0.0006301    0.0003913    -0.0224204   -0.1515057 
   0.157889470    -0.0198326   -0.1319564     0.0009296    0.0008274     0.0007732    0.0003209    -0.0226521   -0.1514710 
   0.157989495    -0.0198497   -0.1311080     0.0004213    0.0006291     0.0005932    0.0005672    -0.0227754   -0.1512517 
   0.158089520    -0.0199794   -0.1319576     0.0008005    0.0006470     0.0007470    0.0001943    -0.0225087   -0.1514139 
   0.158189545    -0.0199598   -0.1312780     0.0005924    0.0007464     0.0007260    0.0004179    -0.0232160   -0.1513708 
   0.158289570    -0.0193401   -0.1315713     0.0008616    0.0006447     0.0007935    0.0002669    -0.0228994   -0.1520753 
   0.158389595    -0.0200366   -0.1317902     0.0006563    0.0003262     0.0010296    0.0003558    -0.0226301   -0.1508783 
   0.158489620    -0.0202186   -0.1296072     0.0006958    0.0009524     0.0007826    0.0003714    -0.0232074   -0.1513489 
   0.158589645    -0.0188734   -0.1304679     0.0008424    0.0004506     0.0006709    0.0004648    -0.0233239   -0.1509681 
   0.158689670    -0.0193410   -0.1313383     0.0006476    0.0006059     0.0006106    0.0003098    -0.0229347   -0.1509911 
   0.158789695    -0.0193700   -0.1305699     0.0008447    0.0007159     0.0006055    0.0004673    -0.0232989   -0.1502205 
   0.158889720    -0.0194281   -0.1309127     0.0007609    0.0005977     0.0008104    0.0003519    -0.0228588   -0.1511125 
   0.158989745    -0.0192306   -0.1297119     0.0009116    0.0008065     0.0005763    0.0003588    -0.0231327   -0.1507002 
   0.159089770    -0.0188463   -0.1309153     0.0003692    0.0007395     0.0007751    0.0005612    -0.0234242   -0.1503687 
   0.159189795    -0.0192512   -0.1297730     0.0006422    0.0005727     0.0007268    0.0004663    -0.0230734   -0.1504174 
   0.159289820    -0.0192598   -0.1301103     0.0008595    0.0006931     0.0011411    0.0002972    -0.0235090   -0.1505436 
   0.159389845    -0.0197675   -0.1304281     0.0010800    0.0004467     0.0007878    0.0003479    -0.0236923   -0.1508298 
   0.159489870    -0.0199297   -0.1292280     0.0007124    0.0007031     0.0006842    0.0004038    -0.0237851   -0.1511438 
   0.159589895    -0.0193150   -0.1282718     0.0007115    0.0001128     0.0008312    0.0005720    -0.0241536   -0.1502145 
   0.159689920    -0.0191668   -0.1297344     0.0010102    0.0005702     0.0008856    0.0004695    -0.0239894   -0.1507208 
   0.159789945    -0.0189568   -0.1296095     0.0007227    0.0000820     0.0008267    0.0005717    -0.0237475   -0.1506160 
   0.159889970    -0.0189251   -0.1293813     0.0007597    0.0006612     0.0007012    0.0005491    -0.0234796   -0.1503828 
   0.159989995    -0.0195624   -0.1293225     0.0007147    0.0002391     0.0008479    0.0005799    -0.0247171   -0.1500631 
   0.160090020    -0.0201250   -0.1286622     0.0009705    0.0007099     0.0007360    0.0003329    -0.0248354   -0.1501535 
   0.160190045    -0.0188804   -0.1281343     0.0009534    0.0004227     0.0006354    0.0007398    -0.0242321   -0.1505065 
   0.160290070    -0.0192012   -0.1281231     0.0008579    0.0003369     0.0006486    0.0005376    -0.0243800   -0.1502450 
   0.160390095    -0.0196029   -0.1282017     0.0008842    0.0007330     0.0007219    0.0003553    -0.0245071   -0.1502423 
   0.160490120    -0.0193444   -0.1279177     0.0005402    0.0001708     0.0005263    0.0006908    -0.0249630   -0.1498650 
   0.160590145    -0.0187760   -0.1272560     0.0004856    0.0003275     0.0007683    0.0004063    -0.0245276   -0.1495990 
   0.160690170    -0.0188613   -0.1271189     0.0007896    0.0004230     0.0005795    0.0003607    -0.0249538   -0.1507647 
   0.160790195    -0.0199143   -0.1270956     0.0009753    0.0004831     0.0006470    0.0004789    -0.0248322   -0.1498219 
   0.160890220    -0.0184416   -0.1282607     0.0005350    0.0006825     0.0007553    0.0005589    -0.0247692   -0.1497086 
   0.160990245    -0.0189329   -0.1279562     0.0008925    0.0008891     0.0007634    0.0007252    -0.0251834   -0.1498578 
   0.161090270    -0.0192482   -0.1279231     0.0007833    0.0004773     0.0010123    0.0004942    -0.0249137   -0.1496540 
   0.161190295    -0.0196825   -0.1271535     0.0009934    0.0006077     0.0006666    0.0005721    -0.0253582   -0.1495785 
   0.161290320    -0.0191173   -0.1264188     0.0007388    0.0005058     0.0007547    0.0004490    -0.0251298   -0.1502086 
   0.161390345    -0.0191241   -0.1274450     0.0009818    0.0007602     0.0004804    0.0004025    -0.0255991   -0.1495658 
   0.161490370    -0.0188966   -0.1264288     0.0007816    0.0004222     0.0007498    0.0003577    -0.0250884   -0.1496675 
   0.161590395    -0.0190529   -0.1266241     0.0009688    0.0005128     0.0005922    0.0003690    -0.0247859   -0.1503056 
   0.161690420    -0.0181764   -0.1265003     0.0006607    0.0002649     0.0007412    0.0003756    -0.0254135   -0.1494968 
   0.161790445    -0.0194221   -0.1255790     0.0009831    0.0004714     0.0008249    0.0005827    -0.0248550   -0.1497288 
   0.161890470    -0.0200353   -0.1267205     0.0008173    0.0006055     0.0007692    0.0006173    -0.0253285   -0.1500849 
   0.161990495    -0.0191470   -0.1255832     0.0011763    0.0004145     0.0009081    0.0008262    -0.0256429   -0.1490456 
   0.162090520    -0.0197524   -0.1267660     0.0006571    0.0005209     0.0006449    0.0007242    -0.0253608   -0.1499653 
   0.162190545    -0.0191702   -0.1258317     0.0008111    0.0004256     0.0005904    0.0006796    -0.0259934   -0.1496089 
   0.162290570    -0.0193408   -0.1261836     0.0004472    0.0007716     0.0006536    0.0004131    -0.0257729   -0.1496858 
   0.162390595    -0.0187623   -0.1268327     0.0005512    0.0004754     0.0008141    0.0004840    -0.0257362   -0.1498611 
   0.162490620    -0.0194287   -0.1258561     0.0008470    0.0005569     0.0007473    0.0003815    -0.0260176   -0.1494945 
   0.162590645    -0.0182182   -0.1250957     0.0004924    0.0007699     0.0007829    0.0003481    -0.0262459   -0.1492938 
   0.162690670    -0.0191375   -0.1255237     0.0010241    0.0008923     0.0008377    0.0004538    -0.0259845   -0.1494044 
   0.162790695    -0.0188682   -0.1249114     0.0008536    0.0005045     0.0007154    0.0005214    -0.0257621   -0.1491210 
   0.162890720    -0.0181914   -0.1255484     0.0006638    0.0006576     0.0009208    0.0006650    -0.0264124   -0.1489251 
   0.162990745    -0.0182023   -0.1251775     0.0013214    0.0006739     0.0006634    0.0004617    -0.0260387   -0.1491500 
   0.163090770    -0.0194320   -0.1249982     0.0008564    0.0009116     0.0007285    0.0005101    -0.0264283   -0.1493344 
   0.163190795    -0.0181796   -0.1251850     0.0008673    0.0005105     0.0006685    0.0004242    -0.0258890   -0.1489440 
   0.163290820    -0.0196949   -0.1242747     0.0008655    0.0004333     0.0007683    0.0005230    -0.0265851   -0.1491456 
   0.163390845    -0.0183796   -0.1248364     0.0007441    0.0003205     0.0005554    0.0004793    -0.0271288   -0.1493414 
   0.163490870    -0.0195533   -0.1243456     0.0007387    0.0004689     0.0006930    0.0006929    -0.0265820   -0.1491998 
   0.163590895    -0.0186129   -0.1244444     0.0008408    0.0003018     0.0008381    0.0006191    -0.0270768   -0.1486534 
   0.163690920    -0.0187601   -0.1246859     0.0007085    0.0007485     0.0008143    0.0005082    -0.0269336   -0.1485476 
   0.163790945    -0.0194854   -0.1241089     0.0007721    0.0005736     0.0007986    0.0006078    -0.0266591   -0.1488236 
   0.163890970    -0.0192764   -0.1231263     0.0007766    0.0009080     0.0008554    0.0004134    -0.0271754   -0.1486525 
   0.163990995    -0.0184233   -0.1232228     0.0009214    0.0006425     0.0006807    0.0006088    -0.0272120   -0.1485069 
   0.164091021    -0.0184465   -0.1238537     0.0005178    0.0004550     0.0006197    0.0004897    -0.0271327   -0.1493134 
   0.164191046    -0.0185879   -0.1230437     0.0006768    0.0002106     0.0007370    0.0004471    -0.0273650   -0.1477783 
   0.164291071    -0.0184696   -0.1232417     0.0006766    0.0003383     0.0009472    0.0005789    -0.0270549   -0.1487957 
   0.164391096    -0.0184123   -0.1235122     0.0006901    0.0003554     0.0007096    0.0004037    -0.0273844   -0.1486163 
   0.164491121    -0.0188650   -0.1232358     0.0010403    0.0009722     0.0008358    0.0007108    -0.0278798   -0.1482204 
   0.164591146    -0.0194578   -0.1229988     0.0010743    0.0005092     0.0007748    0.0005998    -0.0274784   -0.1484448 
   0.164691171    -0.0189866   -0.1225630     0.0009032    0.0004394     0.0007438    0.0005815    -0.0278153   -0.1483982 
   0.164791196    -0.0190857   -0.1227737     0.0007409    0.0004796     0.0003754    0.0004340    -0.0278878   -0.1478019 
   0.164891221    -0.0192860   -0.1223658     0.0007646    0.0005336     0.0007056    0.0004695    -0.0277462   -0.1485019 
   0.164991246    -0.0185567   -0.1229095     0.0008460    0.0003736     0.0007776    0.0004918    -0.0278873   -0.1478432 
   0.165091271    -0.0188891   -0.1232553     0.0009380    0.0006387     0.0008990    0.0004435    -0.0277899   -0.1484089 
   0.165191296    -0.0193893   -0.1219462     0.0009101    0.0005091     0.0009459    0.0006169    -0.0281652   -0.1481754 
   0.165291321    -0.0181649   -0.1214850     0.0006625    0.0005919     0.0009066    0.0005347    -0.0275861   -0.1481557 
   0.165391346    -0.0193445   -0.1218379     0.0007266    0.0005320     0.0007485    0.0004490    -0.0283906   -0.1476519 
   0.165491371    -0.0189946   -0.1211677     0.0007625    0.0005708     0.0007271    0.0006970    -0.0283045   -0.1475735 
   0.165591396    -0.0185123   -0.1221143     0.0010143    0.0004343     0.0007085    0.0005158    -0.0279134   -0.1475219 
   0.165691421    -0.0186357   -0.1211527     0.0008978    0.0005936     0.0008859    0.0004474    -0.0288860   -0.1481866 
   0.165791446    -0.0186172   -0.1208515     0.0006528    0.0007727     0.0009247    0.0006325    -0.0290520   -0.1482314 
   0.165891471    -0.0183650   -0.1215292     0.0007714    0.0005892     0.0008035    0.0004352    -0.0276332   -0.1475144 
   0.165991496    -0.0185023   -0.1209533     0.0008279    0.0004507     0.0008707    0.0005843    -0.0283827   -0.1481781 
   0.166091521    -0.0178918   -0.1208137     0.0007536    0.0006970     0.0008243    0.0004323    -0.0292836   -0.1482943 
   0.166191546    -0.0182781   -0.1206120     0.0006163    0.0004926     0.0006100    0.0006423    -0.0292976   -0.1482507 
   0.166291571    -0.0185150   -0.1203778     0.0008017    0.0007244     0.0008683    0.0005551    -0.0293248   -0.1474489 
   0.166391596    -0.0188032   -0.1203698     0.0007983    0.0003380     0.0008916    0.0005225    -0.0292063   -0.1474082 
   0.166491621    -0.0186635   -0.1204669     0.0007229    0.0003323     0.0007187    0.0003577    -0.0284263   -0.1478842 
   0.166591646    -0.0183830   -0.1202191     0.0009827    0.0004320     0.0008755    0.0005387    -0.0294573   -0.1467586 
   0.166691671    -0.0188282   -0.1201350     0.0010589    0.0007878     0.0006489    0.0005146    -0.0291139   -0.1478482 
   0.166791696    -0.0182441   -0.1194352     0.0005002    0.0003865     0.0007391    0.0002881    -0.0292762   -0.1471616 
   0.166891721    -0.0179279   -0.1190380     0.0007664    0.0001865     0.0007949    0.0005910    -0.0295311   -0.1476997 
   0.166991746    -0.0178883   -0.1193365     0.0008641    0.0008127     0.0005361    0.0004767    -0.0293315   -0.1470388 
   0.167091771    -0.0185894   -0.1194182     0.0006706    0.0002206     0.0006206    0.0005917    -0.0289773   -0.1467529 
   0.167191796    -0.0186849   -0.1187819     0.0009451    0.0002043     0.0008074    0.0004724    -0.0292710   -0.1465972 
   0.167291821    -0.0183715   -0.1198824     0.0008083    0.0005923     0.0009957    0.0003341    -0.0300178   -0.1469326 
   0.167391846    -0.0185759   -0.1191242     0.0009083    0.0005013     0.0007858    0.0006671    -0.0301988   -0.1472095 
   0.167491871    -0.0181825   -0.1194348     0.0005201    0.0007888     0.0007694    0.0005555    -0.0296361   -0.1471235 
   0.167591896    -0.0181694   -0.1180983     0.0009409    0.0005394     0.0007986    0.0004793    -0.0303509   -0.1468194 
   0.167691921    -0.0182643   -0.1186856     0.0009710    0.0004385     0.0007407    0.0005087    -0.0304291   -0.1479093 
   0.167791946    -0.0177545   -0.1178408     0.0006536    0.0007220     0.0008481    0.0004969    -0.0294846   -0.1464569 
   0.167891971    -0.0189958   -0.1184481     0.0008578    0.0004073     0.0007781    0.0004521    -0.0300650   -0.1468080 
   0.167991996    -0.0182830   -0.1186552     0.0008112    0.0003004     0.0006951    0.0005069    -0.0301046   -0.1462895 
   0.168092021    -0.0174479   -0.1180475     0.0012442    0.0007173     0.0007729    0.0004202    -0.0301771   -0.1467278 
   0.168192046    -0.0186863   -0.1191956     0.0008669    0.0007726     0.0009614    0.0005557    -0.0298418   -0.1468413 
   0.168292071    -0.0188320   -0.1181611     0.0009294    0.0006205     0.0010273    0.0004516    -0.0304912   -0.1469034 
   0.168392096    -0.0195997   -0.1173823     0.0008295    0.0001568     0.0007533    0.0003083    -0.0303254   -0.1470951 
   0.168492121    -0.0177555   -0.1174190     0.0007983    0.0006605     0.0007834    0.0007175    -0.0299638   -0.1471232 
   0.168592146    -0.0183183   -0.1177395     0.0007586    0.0006231     0.0007696    0.0005359    -0.0304203   -0.1466325 
   0.168692171    -0.0180290   -0.1177819     0.0010714    0.0007176     0.0007776    0.0006146    -0.0308730   -0.1464790 
   0.168792196    -0.0190196   -0.1169814     0.0010323    0.0004255     0.0006294    0.0004588    -0.0304014   -0.1472829 
   0.168892221    -0.0187789   -0.1168974     0.0007536    0.0007862     0.0007076    0.0006413    -0.0305481   -0.1464945 
   0.168992246    -0.0189880   -0.1177537     0.0008075    0.0003480     0.0008159    0.0005096    -0.0310166   -0.1461718 
   0.169092271    -0.0179070   -0.1175533     0.0006287    0.0003670     0.0007524    0.0002961    -0.0304950   -0.1458931 
   0.169192296    -0.0186820   -0.1167117     0.0005914    0.0003021     0.0009651    0.0003294    -0.0318048   -0.1465729 
   0.169292321    -0.0181822   -0.1165009     0.0008579    0.0004940     0.0007099    0.0004869    -0.0309437   -0.1461979 
   0.169392346    -0.0179265   -0.1168329     0.0007643    0.0005022     0.0007275    0.0005975    -0.0315549   -0.1464855 
   0.169492371    -0.0185184   -0.1169790     0.0008950    0.0003503     0.0008134    0.0003977    -0.0311824   -0.1454532 
   0.169592396    -0.0178567   -0.1160002     0.0007857    0.0006957     0.0007967    0.0004122    -0.0311412   -0.1461668 
   0.169692421    -0.0178100   -0.1155098     0.0010252    0.0005929     0.0008968    0.0003513    -0.0312789   -0.1461495 
   0.169792446    -0.0178319   -0.1166420     0.0009960    0.0000934     0.0007888    0.0007592    -0.0319723   -0.1454103 
   0.169892471    -0.0181912   -0.1158783     0.0007457    0.0005349     0.0007113    0.0005470    -0.0318917   -0.1461002 
   0.169992496    -0.0179549   -0.1155871     0.0006747    0.0006282     0.0007243    0.0005785    -0.0308516   -0.1458607 
   0.170092521    -0.0167988   -0.1158758     0.0006872    0.0002139     0.0009323    0.0006043    -0.0316018   -0.1457354 
   0.170192546    -0.0190042   -0.1158548     0.0009729    0.0005171     0.0008744    0.0005007    -0.0320729   -0.1451386 
   0.170292571    -0.0176560   -0.1155695     0.0009038    0.0005021     0.0007935    0.0005512    -0.0320961   -0.1457172 
   0.170392596    -0.0178848   -0.1156586     0.0005714    0.0007318     0.0009241    0.0005313    -0.0320021   -0.1453868 
   0.170492621    -0.0172777   -0.1155601     0.0006069    0.0004163     0.0007054    0.0003340    -0.0325375   -0.1451270 
   0.170592646    -0.0183655   -0.1149778     0.0007178    0.0004452     0.0007590    0.0004529    -0.0322828   -0.1456325 
   0.170692671    -0.0171068   -0.1146280     0.0009540    0.0005265     0.0006825    0.0005721    -0.0320153   -0.1453827 
   0.170792696    -0.0183549   -0.1152622     0.0010776    0.0002479     0.0010155    0.0006735    -0.0320522   -0.1461265 
   0.170892721    -0.0184082   -0.1149373     0.0010861    0.0004417     0.0009819    0.0002872    -0.0322287   -0.1456554 
   0.170992746    -0.0175494   -0.1148616     0.0011154    0.0005110     0.0008155    0.0005673    -0.0324796   -0.1455833 
   0.171092771    -0.0169845   -0.1144411     0.0008395    0.0007125     0.0007112    0.0005453    -0.0329548   -0.1453391 
   0.171192796    -0.0179230   -0.1146067     0.0006323    0.0003569     0.0008185    0.0006670    -0.0329193   -0.1453238 
   0.171292821    -0.0176146   -0.1143829     0.0008837    0.0010571     0.0008333    0.0004208    -0.0331260   -0.1454967 
   0.171392846    -0.0176840   -0.1145822     0.0009344    0.0005854     0.0007664    0.0004562    -0.0323867   -0.1450873 
   0.171492871    -0.0175057   -0.1133660     0.0008471    0.0003931     0.0008223    0.0004391    -0.0327362   -0.1453055 
   0.171592896    -0.0175062   -0.1129837     0.0007991    0.0004397     0.0008494    0.0003557    -0.0335908   -0.1450104 
   0.171692921    -0.0172631   -0.1137896     0.0009242    0.0009028     0.0009049    0.0003611    -0.0322280   -0.1453958 
   0.171792946    -0.0168857   -0.1139828     0.0008677    0.0004472     0.0008910    0.0005451    -0.0338412   -0.1452795 
   0.171892971    -0.0180685   -0.1137412     0.0007814    0.0006123     0.0009490    0.0003676    -0.0331294   -0.1451368 
   0.171992996    -0.0180943   -0.1135897     0.0008285    0.0003638     0.0007787    0.0003524    -0.0338050   -0.1452862 
   0.172093022    -0.0174299   -0.1128287     0.0008887    0.0005313     0.0008597    0.0003469    -0.0332673   -0.1449549 
   0.172193047    -0.0174881   -0.1133635     0.0005096    0.0005972     0.0010478    0.0004238    -0.0332755   -0.1451244 
   0.172293072    -0.0173922   -0.1132043     0.0009932    0.0006117     0.0010617    0.0003934    -0.0333559   -0.1447606 
   0.172393097    -0.0170594   -0.1130197     0.0006858    0.0003806     0.0008684    0.0004497    -0.0334655   -0.1445888 
   0.172493122    -0.0172723   -0.1124235     0.0005851    0.0004583     0.0008427    0.0006027    -0.0331768   -0.1451007 
   0.172593147    -0.0173304   -0.1127182     0.0006845    0.0005292     0.0008983    0.0004001    -0.0337393   -0.1448127 
   0.172693172    -0.0179043   -0.1127999     0.0009492    0.0005698     0.0007677    0.0003998    -0.0333501   -0.1441196 
   0.172793197    -0.0175056   -0.1134340     0.0007543    0.0004884     0.0008662    0.0002487    -0.0336923   -0.1445696 
   0.172893222    -0.0186032   -0.1117699     0.0011489    0.0008243     0.0008527    0.0004034    -0.0339687   -0.1445431 
   0.172993247    -0.0176641   -0.1122141     0.0008318    0.0002455     0.0009019    0.0003816    -0.0336506   -0.1450201 
   0.173093272    -0.0169819   -0.1125089     0.0010457    0.0004650     0.0009453    0.0005015    -0.0338524   -0.1438178 
   0.173193297    -0.0169880   -0.1118880     0.0005633    0.0002745     0.0007995    0.0003365    -0.0339791   -0.1442291 
   0.173293322    -0.0165866   -0.1126693     0.0008404    0.0005528     0.0008405    0.0005152    -0.0339807   -0.1448794 
   0.173393347    -0.0176529   -0.1123125     0.0008483    0.0005926     0.0009234    0.0003736    -0.0344549   -0.1441894 
   0.173493372    -0.0171176   -0.1118824     0.0009842    0.0005772     0.0008867    0.0005145    -0.0345836   -0.1446366 
   0.173593397    -0.0176368   -0.1112431     0.0008930    0.0004693     0.0007336    0.0003722    -0.0353388   -0.1433692 
   0.173693422    -0.0173575   -0.1116552     0.0011624    0.0004902     0.0007094    0.0006692    -0.0348898   -0.1446025 
   0.173793447    -0.0162501   -0.1110654     0.0011267    0.0003934     0.0009299    0.0004038    -0.0340127   -0.1439841 
   0.173893472    -0.0166280   -0.1122179     0.0008381    0.0007749     0.0008290    0.0003675    -0.0347407   -0.1447844 
   0.173993497    -0.0166633   -0.1109469     0.0007677    0.0005277     0.0008538    0.0004576    -0.0347367   -0.1441489 
   0.174093522    -0.0178471   -0.1111795     0.0007455    0.0006060     0.0007760    0.0003781    -0.0347424   -0.1442805 
   0.174193547    -0.0170660   -0.1113911     0.0008673    0.0003033     0.0010173    0.0003165    -0.0349527   -0.1438510 
   0.174293572    -0.0168389   -0.1111008     0.0009812    0.0003944     0.0009798    0.0006521    -0.0351158   -0.1437027 
   0.174393597    -0.0160111   -0.1116503     0.0009746    0.0004146     0.0007390    0.0004804    -0.0351941   -0.1433896 
   0.174493622    -0.0172618   -0.1097704     0.0010756    0.0004118     0.0007549    0.0004142    -0.0347201   -0.1433462 
   0.174593647    -0.0167313   -0.1105454     0.0004003    0.0005705     0.0008062    0.0003421    -0.0355300   -0.1441953 
   0.174693672    -0.0156597   -0.1101001     0.0007350    0.0006658     0.0008001    0.0005373    -0.0358398   -0.1440091 
   0.174793697    -0.0171405   -0.1105516     0.0009800    0.0005163     0.0009912    0.0005648    -0.0354236   -0.1441035 
   0.174893722    -0.0157594   -0.1096766     0.0011231    0.0005818     0.0008008    0.0004957    -0.0358875   -0.1442215 
   0.174993747    -0.0171262   -0.1097731     0.0005390    0.0005905     0.0008533    0.0003473    -0.0354154   -0.1433697 
   0.175093772    -0.0168290   -0.1100565     0.0005416    0.0004816     0.0008840    0.0002662    -0.0352492   -0.1439952 
   0.175193797    -0.0168495   -0.1099055     0.0006745    0.0002485     0.0007521    0.0004038    -0.0357912   -0.1431761 
   0.175293822    -0.0172579   -0.1096469     0.0008640    0.0006558     0.0010383    0.0005561    -0.0358482   -0.1428883 
   0.175393847    -0.0162866   -0.1095526     0.0007793    0.0008468     0.0010318    0.0005551    -0.0357525   -0.1433556 
   0.175493872    -0.0168846   -0.1091259     0.0009044    0.0003329     0.0007891    0.0004997    -0.0361209   -0.1425845 
   0.175593897    -0.0166067   -0.1091392     0.0008413    0.0004341     0.0009213    0.0005121    -0.0351220   -0.1431687 
   0.175693922    -0.0169113   -0.1093656     0.0008933    0.0004097     0.0009589    0.0004746    -0.0356963   -0.1435450 
   0.175793947    -0.0167386   -0.1092205     0.0011059    0.0001506     0.0007704    0.0004079    -0.0360836   -0.1430681 
   0.175893972    -0.0162843   -0.1083428     0.0007323    0.0001981     0.0006784    0.0005232    -0.0361393   -0.1435123 
   0.175993997    -0.0169560   -0.1084400     0.0009421    0.0005909     0.0006419    0.0005434    -0.0364608   -0.1430327 
   0.176094022    -0.0169319   -0.1087342     0.0010190    0.0004052     0.0010418    0.0004945    -0.0367353   -0.1432169 
   0.176194047    -0.0175817   -0.1095461     0.0007994    0.0005287     0.0005120    0.0004053    -0.0366431   -0.1424160 
   0.176294072    -0.0160609   -0.1081270     0.0006812    0.0003084     0.0008001    0.0005528    -0.0371303   -0.1424881 
   0.176394097    -0.0163947   -0.1083980     0.0008426    0.0007493     0.0008136    0.0004116    -0.0372918   -0.1428918 
   0.176494122    -0.0163828   -0.1085424     0.0009304    0.0002111     0.0008967    0.0005222    -0.0368435   -0.1431171 
   0.176594147    -0.0167854   -0.1088069     0.0009505    0.0007726     0.0007455    0.0003507    -0.0359683   -0.1428943 
   0.176694172    -0.0169103   -0.1082372     0.0009668    0.0004692     0.0008830    0.0004351    -0.0373600   -0.1425371 
   0.176794197    -0.0162437   -0.1079995     0.0007732    0.0000819     0.0011253    0.0002155    -0.0371250   -0.1422919 
   0.176894222    -0.0166414   -0.1076290     0.0009133    0.0001880     0.0011041    0.0003650    -0.0371699   -0.1425963 
   0.176994247    -0.0157184   -0.1070325     0.0008651    0.0005503     0.0008067    0.0004018    -0.0365934   -0.1423126 
   0.177094272    -0.0164263   -0.1075731     0.0009113    0.0003622     0.0008386    0.0004240    -0.0370686   -0.1422815 
   0.177194297    -0.0162137   -0.1082360     0.0007555    0.0005476     0.0010144    0.0003044    -0.0371982   -0.1426412 
   0.177294322    -0.0170092   -0.1081607     0.0008762    0.0006795     0.0010510    0.0004412    -0.0371175   -0.1430698 
   0.177394347    -0.0160914   -0.1072283     0.0009952    0.0005153     0.0009047    0.0003628    -0.0373592   -0.1429839 
   0.177494372    -0.0157709   -0.1072973     0.0008672    0.0006318     0.0010208    0.0002655    -0.0366720   -0.1424900 
   0.177594397    -0.0160961   -0.1070948     0.0005932    0.0006507     0.0007580    0.0004658    -0.0373397   -0.1422857 
   0.177694422    -0.0162676   -0.1073280     0.0008864    0.0005723     0.0008663    0.0005427    -0.0376552   -0.1421713 
   0.177794447    -0.0158683   -0.1066148     0.0006553    0.0004541     0.0008738    0.0005437    -0.0373551   -0.1422405 
   0.177894472    -0.0164389   -0.1066749     0.0009800    0.0006221     0.0008070    0.0004240    -0.0378455   -0.1415665 
   0.177994497    -0.0172317   -0.1060713     0.0008899    0.0007250     0.0010656    0.0005163    -0.0380356   -0.1416765 
   0.178094522    -0.0159838   -0.1062923     0.0011090    0.0007579     0.0011479    0.0004580    -0.0368317   -0.1408695 
   0.178194547    -0.0162638   -0.1055369     0.0005776    0.0006767     0.0009287    0.0005848    -0.0376157   -0.1418659 
   0.178294572    -0.0162319   -0.1063497     0.0009217    0.0001998     0.0010070    0.0006970    -0.0383764   -0.1421134 
   0.178394597    -0.0164564   -0.1063387     0.0010745    0.0005901     0.0009014    0.0006073    -0.0380134   -0.1417537 
   0.178494622    -0.0162831   -0.1053800     0.0011665    0.0002648     0.0008067    0.0005090    -0.0383863   -0.1423418 
   0.178594647    -0.0157437   -0.1058242     0.0007816    0.0003303     0.0008303    0.0006436    -0.0378981   -0.1415365 
   0.178694672    -0.0161734   -0.1055719     0.0011176    0.0001966     0.0007241    0.0005585    -0.0382414   -0.1412282 
   0.178794697    -0.0163296   -0.1060659     0.0009720    0.0003537     0.0011520    0.0004126    -0.0380896   -0.1413381 
   0.178894722    -0.0167685   -0.1051511     0.0007146    0.0004906     0.0008395    0.0005053    -0.0388646   -0.1411242 
   0.178994747    -0.0162098   -0.1062362     0.0009216    0.0006206     0.0009403    0.0004294    -0.0387740   -0.1413001 
   0.179094772    -0.0159173   -0.1051750     0.0008420    0.0003140     0.0009890    0.0005937    -0.0380264   -0.1422112 
   0.179194797    -0.0157065   -0.1050771     0.0007747    0.0003901     0.0009986    0.0005681    -0.0388111   -0.1413040 
   0.179294822    -0.0161267   -0.1053883     0.0009463    0.0002623     0.0010259    0.0005385    -0.0389527   -0.1417270 
   0.179394847    -0.0163080   -0.1042946     0.0009720    0.0006942     0.0009358    0.0006358    -0.0390443   -0.1417800 
   0.179494872    -0.0157171   -0.1050146     0.0009195    0.0004014     0.0011103    0.0004068    -0.0393485   -0.1410618 
   0.179594897    -0.0150837   -0.1051224     0.0008120   -0.0000128     0.0009252    0.0004705    -0.0389553   -0.1420143 
   0.179694922    -0.0158968   -0.1041724     0.0010487    0.0003578     0.0009597    0.0002219    -0.0388953   -0.1407738 
   0.179794947    -0.0156610   -0.1046725     0.0010725    0.0001949     0.0010995    0.0006144    -0.0394983   -0.1413769 
   0.179894972    -0.0145476   -0.1042995     0.0007000    0.0004293     0.0009268    0.0004696    -0.0390979   -0.1413008 
   0.179994997    -0.0164808   -0.1042016     0.0010236    0.0003943     0.0008773    0.0003675    -0.0387402   -0.1413487 
   0.180095023    -0.0158089   -0.1040047     0.0011123    0.0003633     0.0008684    0.0004962    -0.0395876   -0.1410491 
   0.180195048    -0.0159762   -0.1044511     0.0010051    0.0005416     0.0009267    0.0002960    -0.0396983   -0.1411137 
   0.180295073    -0.0165042   -0.1045748     0.0008326    0.0003800     0.0007177    0.0003370    -0.0392567   -0.1402294 
   0.180395098    -0.0152074   -0.1042161     0.0010449    0.0001191     0.0009627    0.0005562    -0.0400548   -0.1409758 
   0.180495123    -0.0155945   -0.1045383     0.0010029    0.0003264     0.0010190    0.0005264    -0.0399493   -0.1410335 
   0.180595148    -0.0161558   -0.1037576     0.0010447    0.0003826     0.0008839    0.0002716    -0.0400146   -0.1405115 
   0.180695173    -0.0152150   -0.1031782     0.0011514    0.0004935     0.0009113    0.0005620    -0.0395384   -0.1406905 
   0.180795198    -0.0151262   -0.1035381     0.0008250    0.0005052     0.0009261    0.0001810    -0.0400922   -0.1404178 
   0.180895223    -0.0159325   -0.1034911     0.0010456    0.0004902     0.0009479    0.0003370    -0.0406861   -0.1403278 
   0.180995248    -0.0150818   -0.1039456     0.0010079    0.0004177     0.0010881    0.0004477    -0.0399314   -0.1403526 
   0.181095273    -0.0153381   -0.1035893     0.0008062    0.0003277     0.0010160    0.0003453    -0.0395047   -0.1401618 
   0.181195298    -0.0158619   -0.1029206     0.0009075    0.0005640     0.0009956    0.0004395    -0.0405889   -0.1404343 
   0.181295323    -0.0155213   -0.1029715     0.0010318    0.0003025     0.0009400    0.0001562    -0.0404189   -0.1399461 
   0.181395348    -0.0156195   -0.1027615     0.0006568    0.0006911     0.0009109    0.0005102    -0.0406007   -0.1405374 
   0.181495373    -0.0155324   -0.1032260     0.0008487    0.0003621     0.0007718    0.0004771    -0.0399253   -0.1404237 
   0.181595398    -0.0153761   -0.1031521     0.0008644    0.0004005     0.0009098    0.0006189    -0.0415667   -0.1403537 
   0.181695423    -0.0155580   -0.1018391     0.0010224    0.0002935     0.0008756    0.0005073    -0.0399885   -0.1400076 
   0.181795448    -0.0150704   -0.1023248     0.0010973    0.0002084     0.0011074    0.0003039    -0.0407490   -0.1398244 
   0.181895473    -0.0148562   -0.1024686     0.0008570    0.0003813     0.0008228    0.0003398    -0.0410089   -0.1399949 
   0.181995498    -0.0147654   -0.1022821     0.0013573    0.0003748     0.0007780    0.0002480    -0.0405455   -0.1397603 
   0.182095523    -0.0155535   -0.1018086     0.0009147    0.0004057     0.0008712    0.0005592    -0.0402463   -0.1400269 
   0.182195548    -0.0155461   -0.1020927     0.0010425    0.0003359     0.0009322    0.0004775    -0.0410000   -0.1401960 
   0.182295573    -0.0150854   -0.1014334     0.0009975    0.0002136     0.0009396    0.0001679    -0.0404560   -0.1404919 
   0.182395598    -0.0149657   -0.1012972     0.0008787    0.0002508     0.0009319    0.0004189    -0.0408574   -0.1401053 
   0.182495623    -0.0139618   -0.1022082     0.0008444    0.0003008     0.0009003    0.0005398    -0.0417626   -0.1400995 
   0.182595648    -0.0141127   -0.1014491     0.0009502    0.0004315     0.0011202    0.0004664    -0.0417801   -0.1397672 
   0.182695673    -0.0145657   -0.1022462     0.0011773    0.0003913     0.0010952    0.0004586    -0.0418524   -0.1391326 
   0.182795698    -0.0152160   -0.1012819     0.0008168    0.0003689     0.0009299    0.0002512    -0.0416751   -0.1398887 
   0.182895723    -0.0152681   -0.1015297     0.0008636    0.0005006     0.0010569    0.0004555    -0.0412773   -0.1400180 
   0.182995748    -0.0146353   -0.1010179     0.0011550    0.0004805     0.0009570    0.0002769    -0.0418827   -0.1398644 
   0.183095773    -0.0152064   -0.1011236     0.0006309    0.0002239     0.0006448    0.0003516    -0.0425074   -0.1397167 
   0.183195798    -0.0144722   -0.1011774     0.0007550    0.0000425     0.0009113    0.0005257    -0.0417281   -0.1392672 
   0.183295823    -0.0143085   -0.1008063     0.0009656    0.0005091     0.0008143    0.0006464    -0.0423806   -0.1398689 
   0.183395848    -0.0149376   -0.1014370     0.0008280    0.0003362     0.0011283    0.0004700    -0.0419992   -0.1398368 
   0.183495873    -0.0147963   -0.1006474     0.0008429    0.0004524     0.0008398    0.0004362    -0.0419517   -0.1393224 
   0.183595898    -0.0144967   -0.1011704     0.0012152    0.0006077     0.0009405    0.0003354    -0.0416812   -0.1388518 
   0.183695923    -0.0144012   -0.1007870     0.0010931    0.0005376     0.0010732    0.0004411    -0.0424544   -0.1390185 
   0.183795948    -0.0147472   -0.1003914     0.0008764    0.0005249     0.0009176    0.0001922    -0.0433800   -0.1390699 
   0.183895973    -0.0149587   -0.1007880     0.0005857    0.0004573     0.0008045    0.0004829    -0.0429179   -0.1390506 
   0.183995998    -0.0138960   -0.1002561     0.0009744    0.0003962     0.0009526    0.0004175    -0.0420858   -0.1389463 
   0.184096023    -0.0146271   -0.0994203     0.0009854    0.0003491     0.0011265    0.0005587    -0.0429101   -0.1389766 
   0.184196048    -0.0144985   -0.1002974     0.0009415    0.0004880     0.0008369    0.0006129    -0.0428332   -0.1388923 
   0.184296073    -0.0133475   -0.0998026     0.0008954    0.0004686     0.0008886    0.0003096    -0.0429802   -0.1387990 
   0.184396098    -0.0144408   -0.0994522     0.0009291    0.0002718     0.0008772    0.0005224    -0.0430041   -0.1392295 
   0.184496123    -0.0144568   -0.1004111     0.0009825    0.0002856     0.0010120    0.0002945    -0.0426891   -0.1393999 
   0.184596148    -0.0136148   -0.1004153     0.0010686    0.0004326     0.0010396    0.0004728    -0.0433545   -0.1390056 
   0.184696173    -0.0145919   -0.0998457     0.0010074    0.0005594     0.0009064    0.0006579    -0.0433766   -0.1387064 
   0.184796198    -0.0142481   -0.0995937     0.0008577    0.0004474     0.0009564    0.0003084    -0.0429788   -0.1389946 
   0.184896223    -0.0141756   -0.0996899     0.0009161    0.0002422     0.0008242    0.0006035    -0.0430710   -0.1389267 
   0.184996248    -0.0144230   -0.0986850     0.0009929    0.0006807     0.0010893    0.0003881    -0.0441765   -0.1382680 
   0.185096273    -0.0142317   -0.0996522     0.0008610    0.0005654     0.0010106    0.0004865    -0.0431009   -0.1383852 
   0.185196298    -0.0136671   -0.0995121     0.0011900    0.0002852     0.0010249    0.0002655    -0.0430804   -0.1385772 
   0.185296323    -0.0150617   -0.0992912     0.0011823    0.0004471     0.0009741    0.0003200    -0.0429765   -0.1386768 
   0.185396348    -0.0137322   -0.0986478     0.0008495    0.0005891     0.0009407    0.0003940    -0.0440515   -0.1382571 
   0.185496373    -0.0140474   -0.0986748     0.0013154    0.0006188     0.0008389    0.0003757    -0.0433349   -0.1379225 
   0.185596398    -0.0148827   -0.0974644     0.0011041    0.0004197     0.0008575    0.0003394    -0.0441938   -0.1383394 
   0.185696423    -0.0143511   -0.0991484     0.0011847    0.0003412     0.0007774    0.0005121    -0.0440439   -0.1382780 
   0.185796448    -0.0143434   -0.0983865     0.0009901    0.0002851     0.0010627    0.0004565    -0.0435175   -0.1382864 
   0.185896473    -0.0135113   -0.0976806     0.0010533    0.0000576     0.0010080    0.0002627    -0.0444049   -0.1385797 
   0.185996498    -0.0141392   -0.0983200     0.0010251    0.0006429     0.0009003    0.0003086    -0.0449296   -0.1379679 
   0.186096523    -0.0140529   -0.0974107     0.0010627    0.0005157     0.0010632    0.0005454    -0.0442401   -0.1384744 
   0.186196548    -0.0143458   -0.0976378     0.0009380    0.0004906     0.0009532    0.0005284    -0.0448846   -0.1377649 
   0.186296573    -0.0133818   -0.0984971     0.0007125    0.0002069     0.0010412    0.0003975    -0.0436643   -0.1375272 
   0.186396598    -0.0139112   -0.0976045     0.0010551    0.0003314     0.0008759    0.0003945    -0.0443025   -0.1377524 
   0.186496623    -0.0142164   -0.0976379     0.0007989    0.0004406     0.0010308    0.0003792    -0.0448461   -0.1376911 
   0.186596648    -0.0139533   -0.0980323     0.0010778    0.0004818     0.0008843    0.0002823    -0.0445378   -0.1373588 
   0.186696673    -0.0141175   -0.0980678     0.0008156    0.0005735     0.0008587    0.0003721    -0.0444623   -0.1379479 
   0.186796698    -0.0139581   -0.0981341     0.0010549    0.0004242     0.0009611    0.0006468    -0.0448731   -0.1378589 
   0.186896723    -0.0127570   -0.0971846     0.0010761    0.0003322     0.0009935    0.0002712    -0.0446575   -0.1369752 
   0.186996748    -0.0129903   -0.0966808     0.0009386    0.0002597     0.0008590    0.0003440    -0.0446443   -0.1375857 
   0.187096773    -0.0140959   -0.0974826     0.0011583    0.0004305     0.0009699    0.0005342    -0.0456741   -0.1375150 
   0.187196798    -0.0144300   -0.0971502     0.0010311    0.0003325     0.0010998    0.0005262    -0.0448271   -0.1380397 
   0.187296823    -0.0133063   -0.0968074     0.0007906    0.0004600     0.0011279    0.0006372    -0.0451050   -0.1385090 
   0.187396848    -0.0132931   -0.0967082     0.0008078    0.0003632     0.0010632    0.0005459    -0.0451706   -0.1375180 
   0.187496873    -0.0130888   -0.0969494     0.0010065    0.0006108     0.0011240    0.0004630    -0.0458550   -0.1370055 
   0.187596898    -0.0134513   -0.0964367     0.0008185    0.0005574     0.0008686    0.0005399    -0.0449554   -0.1373775 
   0.187696923    -0.0131096   -0.0967092     0.0007313    0.0003405     0.0009401    0.0003291    -0.0456865   -0.1369491 
   0.187796948    -0.0140937   -0.0962755     0.0011368    0.0002507     0.0009019    0.0004656    -0.0453399   -0.1372340 
   0.187896973    -0.0131781   -0.0954267     0.0008747    0.0005742     0.0009398    0.0004316    -0.0459902   -0.1367652 
   0.187996998    -0.0128549   -0.0968424     0.0009915    0.0005162     0.0009727    0.0003076    -0.0448279   -0.1371355 
   0.188097024    -0.0137879   -0.0949547     0.0008489    0.0004686     0.0008432    0.0002978    -0.0453471   -0.1372266 
   0.188197049    -0.0133064   -0.0967102     0.0007927    0.0002816     0.0009942    0.0002723    -0.0451060   -0.1369796 
   0.188297074    -0.0131403   -0.0959971     0.0009955    0.0002825     0.0008806    0.0004555    -0.0460837   -0.1361716 
   0.188397099    -0.0135288   -0.0960378     0.0009403    0.0002208     0.0009703    0.0003912    -0.0462374   -0.1365342 
   0.188497124    -0.0131157   -0.0962527     0.0011911    0.0004752     0.0010838    0.0003740    -0.0457234   -0.1364051 
   0.188597149    -0.0134894   -0.0958409     0.0011246    0.0002095     0.0009334    0.0004009    -0.0469468   -0.1366981 
   0.188697174    -0.0138280   -0.0956874     0.0010478    0.0004568     0.0009472    0.0003409    -0.0462179   -0.1362441 
   0.188797199    -0.0136442   -0.0956083     0.0010783    0.0002992     0.0009981    0.0004331    -0.0463001   -0.1369395 
   0.188897224    -0.0132089   -0.0950369     0.0009546    0.0007530     0.0010445    0.0003534    -0.0459677   -0.1362826 
   0.188997249    -0.0135287   -0.0955744     0.0012415    0.0002817     0.0008638    0.0002288    -0.0470526   -0.1366928 
   0.189097274    -0.0136426   -0.0955682     0.0007105    0.0004514     0.0009186    0.0005360    -0.0467346   -0.1365261 
   0.189197299    -0.0136588   -0.0952937     0.0012603    0.0002786     0.0010823    0.0003391    -0.0468791   -0.1359549 
   0.189297324    -0.0126595   -0.0943206     0.0008658    0.0004175     0.0009516    0.0004275    -0.0474000   -0.1365444 
   0.189397349    -0.0121889   -0.0949374     0.0011372    0.0002110     0.0011169    0.0004371    -0.0468010   -0.1359365 
   0.189497374    -0.0128045   -0.0942593     0.0009673    0.0003078     0.0009160    0.0004479    -0.0465854   -0.1366909 
   0.189597399    -0.0130795   -0.0947934     0.0010133    0.0004311     0.0009730    0.0002981    -0.0465430   -0.1358938 
   0.189697424    -0.0127384   -0.0946704     0.0010406    0.0004387     0.0008982    0.0003530    -0.0471359   -0.1361223 
   0.189797449    -0.0126756   -0.0947007     0.0013599    0.0004181     0.0011287    0.0003558    -0.0467460   -0.1363492 
   0.189897474    -0.0128398   -0.0945080     0.0009515    0.0004452     0.0009567    0.0003963    -0.0474975   -0.1360837 
   0.189997499    -0.0121307   -0.0948549     0.0012936    0.0004378     0.0007754    0.0004606    -0.0468195   -0.1357749 
   0.190097524    -0.0128294   -0.0943490     0.0009090    0.0002821     0.0007465    0.0004344    -0.0480836   -0.1357094 
   0.190197549    -0.0129237   -0.0941650     0.0009357    0.0003456     0.0012013    0.0004685    -0.0473120   -0.1355898 
   0.190297574    -0.0129339   -0.0941141     0.0006417    0.0003285     0.0011213    0.0004162    -0.0477263   -0.1362809 
   0.190397599    -0.0124583   -0.0936557     0.0008531    0.0004790     0.0010727    0.0002378    -0.0478297   -0.1357677 
   0.190497624    -0.0133460   -0.0939182     0.0011090    0.0003489     0.0010165    0.0002398    -0.0479510   -0.1357209 
   0.190597649    -0.0131993   -0.0935762     0.0008890    0.0004199     0.0009570    0.0002252    -0.0481066   -0.1354077 
   0.190697674    -0.0122701   -0.0940573     0.0010648    0.0006072     0.0009549    0.0004082    -0.0482539   -0.1359596 
   0.190797699    -0.0129520   -0.0934922     0.0012377    0.0002985     0.0010494    0.0005318    -0.0480992   -0.1355573 
   0.190897724    -0.0123621   -0.0930100     0.0009458    0.0005649     0.0009711    0.0003005    -0.0483545   -0.1345953 
   0.190997749    -0.0124836   -0.0931815     0.0011111    0.0002982     0.0009626    0.0004356    -0.0479107   -0.1350800 
   0.191097774    -0.0131144   -0.0937695     0.0008881    0.0004589     0.0012421    0.0003527    -0.0483548   -0.1360806 
   0.191197799    -0.0121357   -0.0930916     0.0011792    0.0002426     0.0010543    0.0003729    -0.0473110   -0.1354914 
   0.191297824    -0.0123011   -0.0926858     0.0009811    0.0005441     0.0009775    0.0004540    -0.0487534   -0.1353516 
   0.191397849    -0.0130372   -0.0931949     0.0011890    0.0005821     0.0010085    0.0003897    -0.0477266   -0.1350515 
   0.191497874    -0.0125798   -0.0929865     0.0007532    0.0003836     0.0010485    0.0002926    -0.0481984   -0.1350314 
   0.191597899    -0.0122519   -0.0929874     0.0010517    0.0004237     0.0008833    0.0004251    -0.0485743   -0.1351111 
   0.191697924    -0.0120242   -0.0920760     0.0011463    0.0004525     0.0008543    0.0002492    -0.0485198   -0.1347868 
   0.191797949    -0.0121797   -0.0926543     0.0010533    0.0001661     0.0010993    0.0004518    -0.0488314   -0.1341984 
   0.191897974    -0.0124193   -0.0925763     0.0012869    0.0003784     0.0010325    0.0001439    -0.0484067   -0.1353025 
   0.191997999    -0.0124028   -0.0918710     0.0008261    0.0004136     0.0008541    0.0003867    -0.0487252   -0.1346902 
   0.192098024    -0.0123165   -0.0924034     0.0011369    0.0003019     0.0009901    0.0004023    -0.0487182   -0.1344705 
   0.192198049    -0.0121694   -0.0921623     0.0008822    0.0004248     0.0010612    0.0003986    -0.0500109   -0.1350536 
   0.192298074    -0.0122264   -0.0913258     0.0011538    0.0002884     0.0010262    0.0003941    -0.0494632   -0.1351411 
   0.192398099    -0.0119491   -0.0916028     0.0010167    0.0001526     0.0010425    0.0004127    -0.0496479   -0.1348674 
   0.192498124    -0.0122331   -0.0914641     0.0010066    0.0004890     0.0013675    0.0004329    -0.0492331   -0.1345835 
   0.192598149    -0.0122774   -0.0915303     0.0010178    0.0004023     0.0012306    0.0002955    -0.0490754   -0.1349725 
   0.192698174    -0.0125888   -0.0914600     0.0007976    0.0005709     0.0010859    0.0003966    -0.0493487   -0.1338949 
   0.192798199    -0.0115522   -0.0908881     0.0009784    0.0001805     0.0009828    0.0003684    -0.0490556   -0.1340772 
   0.192898224    -0.0131646   -0.0908209     0.0009883    0.0004318     0.0010231    0.0002841    -0.0496728   -0.1344115 
   0.192998249    -0.0121939   -0.0911529     0.0009051    0.0003047     0.0012680    0.0001739    -0.0499343   -0.1339577 
   0.193098274    -0.0125835   -0.0913440     0.0008615    0.0003533     0.0011360    0.0003109    -0.0498563   -0.1339306 
   0.193198299    -0.0115693   -0.0910322     0.0008796    0.0004583     0.0011237    0.0003944    -0.0504560   -0.1342383 
   0.193298324    -0.0117079   -0.0912492     0.0010969    0.0004010     0.0009397    0.0003363    -0.0497174   -0.1344418 
   0.193398349    -0.0122161   -0.0917008     0.0010095    0.0003354     0.0010797    0.0004384    -0.0496277   -0.1345805 
   0.193498374    -0.0117360   -0.0904845     0.0010682    0.0002213     0.0010737    0.0003478    -0.0497970   -0.1333894 
   0.193598399    -0.0125277   -0.0902680     0.0010589    0.0004943     0.0010378    0.0003163    -0.0503731   -0.1337624 
   0.193698424    -0.0117335   -0.0904520     0.0012604    0.0002780     0.0011457    0.0004684    -0.0508518   -0.1335679 
   0.193798449    -0.0120783   -0.0900883     0.0013854    0.0005300     0.0012885    0.0004836    -0.0504547   -0.1352237 
   0.193898474    -0.0116207   -0.0909775     0.0008354    0.0004029     0.0011732    0.0002169    -0.0509774   -0.1338191 
   0.193998499    -0.0117586   -0.0905305     0.0012075    0.0001087     0.0008863    0.0004084    -0.0514801   -0.1340969 
   0.194098524    -0.0121817   -0.0907458     0.0012383    0.0005751     0.0010714    0.0002903    -0.0506293   -0.1332224 
   0.194198549    -0.0115394   -0.0902672     0.0008755    0.0004292     0.0011145    0.0004469    -0.0505012   -0.1336992 
   0.194298574    -0.0117002   -0.0897622     0.0008971    0.0003629     0.0010474    0.0002586    -0.0509494   -0.1344024 
   0.194398599    -0.0119403   -0.0895606     0.0012399    0.0004552     0.0011172    0.0002778    -0.0507955   -0.1339722 
   0.194498624    -0.0115852   -0.0891514     0.0008197    0.0004932     0.0010485    0.0001866    -0.0508657   -0.1334024 
   0.194598649    -0.0110814   -0.0899193     0.0010887    0.0004098     0.0012019    0.0003458    -0.0505080   -0.1335547 
   0.194698674    -0.0117743   -0.0899059     0.0010171    0.0003459     0.0009909    0.0005145    -0.0513694   -0.1334509 
   0.194798699    -0.0113624   -0.0903248     0.0010269    0.0000973     0.0009478    0.0004648    -0.0511819   -0.1332000 
   0.194898724    -0.0116620   -0.0896397     0.0009051    0.0005734     0.0009249    0.0005736    -0.0509384   -0.1344424 
   0.194998749    -0.0114984   -0.0893583     0.0009527    0.0001346     0.0010807    0.0004257    -0.0510915   -0.1324906 
   0.195098774    -0.0109630   -0.0899834     0.0013166    0.0006331     0.0011183    0.0006409    -0.0514096   -0.1332434 
   0.195198799    -0.0113377   -0.0887996     0.0013986    0.0003548     0.0009469    0.0004108    -0.0513821   -0.1331641 
   0.195298824    -0.0122859   -0.0888550     0.0013728    0.0004030     0.0010548    0.0005232    -0.0511769   -0.1330996 
   0.195398849    -0.0113435   -0.0888209     0.0010819    0.0003046     0.0009598    0.0004007    -0.0515329   -0.1333882 
   0.195498874    -0.0117458   -0.0898671     0.0008758    0.0003691     0.0011073    0.0002368    -0.0517450   -0.1328667 
   0.195598899    -0.0110238   -0.0887948     0.0008604    0.0002558     0.0011260    0.0003738    -0.0518402   -0.1330647 
   0.195698924    -0.0116381   -0.0893598     0.0009332    0.0002774     0.0009725    0.0001761    -0.0515985   -0.1329413 
   0.195798949    -0.0110585   -0.0886239     0.0008206    0.0005381     0.0011225    0.0001717    -0.0511711   -0.1328806 
   0.195898974    -0.0110626   -0.0891052     0.0010604    0.0004612     0.0010681    0.0003076    -0.0524566   -0.1323514 
   0.195998999    -0.0112430   -0.0884976     0.0009794    0.0005539     0.0009288    0.0003576    -0.0516372   -0.1324482 
   0.196099025    -0.0108968   -0.0889352     0.0011121    0.0004519     0.0010441    0.0002096    -0.0523575   -0.1326199 
   0.196199050    -0.0106138   -0.0889769     0.0013680    0.0001403     0.0012217    0.0003802    -0.0522734   -0.1328268 
   0.196299075    -0.0112327   -0.0881115     0.0009692    0.0003217     0.0010583    0.0003614    -0.0524334   -0.1325645 
   0.196399100    -0.0116168   -0.0880033     0.0011138    0.0003490     0.0013908    0.0004889    -0.0519382   -0.1321579 
   0.196499125    -0.0099711   -0.0882627     0.0008048    0.0000954     0.0010385    0.0002123    -0.0525554   -0.1329645 
   0.196599150    -0.0113344   -0.0882622     0.0009007    0.0005718     0.0011165    0.0003893    -0.0526826   -0.1330193 
   0.196699175    -0.0105460   -0.0878162     0.0009278    0.0003591     0.0011400    0.0005563    -0.0529120   -0.1323803 
   0.196799200    -0.0098753   -0.0872562     0.0010677    0.0003353     0.0011569    0.0002703    -0.0523893   -0.1318768 
   0.196899225    -0.0110724   -0.0879802     0.0009484    0.0005378     0.0010750    0.0002663    -0.0532185   -0.1327255 
   0.196999250    -0.0106267   -0.0870728     0.0010252    0.0000994     0.0011177    0.0001845    -0.0531071   -0.1320005 
   0.197099275    -0.0100613   -0.0877869     0.0010401    0.0004372     0.0009333    0.0002259    -0.0532766   -0.1329996 
   0.197199300    -0.0107281   -0.0873481     0.0011022    0.0004849     0.0008722    0.0003761    -0.0538663   -0.1320666 
   0.197299325    -0.0105192   -0.0874441     0.0009765    0.0002321     0.0012384    0.0003808    -0.0529333   -0.1320415 
   0.197399350    -0.0107759   -0.0869496     0.0010588    0.0004890     0.0010435    0.0004423    -0.0528647   -0.1321322 
   0.197499375    -0.0102951   -0.0874378     0.0009967    0.0005586     0.0010971    0.0002922    -0.0538401   -0.1321344 
   0.197599400    -0.0103612   -0.0872719     0.0010852    0.0003192     0.0011179    0.0004666    -0.0530937   -0.1327293 
   0.197699425    -0.0105729   -0.0866556     0.0011058    0.0002262     0.0011580    0.0004568    -0.0532080   -0.1322151 
   0.197799450    -0.0100050   -0.0866911     0.0010848    0.0005121     0.0010311    0.0003377    -0.0539243   -0.1316775 
   0.197899475    -0.0112072   -0.0870540     0.0011943    0.0001599     0.0010967    0.0002571    -0.0541247   -0.1316859 
   0.197999500    -0.0109234   -0.0870492     0.0012319    0.0003804     0.0011451    0.0005252    -0.0536608   -0.1314361 
   0.198099525    -0.0100678   -0.0863047     0.0011893    0.0003314     0.0008990    0.0001834    -0.0538383   -0.1312154 
   0.198199550    -0.0101693   -0.0861388     0.0009382    0.0004444     0.0010743    0.0002088    -0.0538452   -0.1318245 
   0.198299575    -0.0102878   -0.0869873     0.0011422    0.0002501     0.0009808    0.0002445    -0.0543610   -0.1308811 
   0.198399600    -0.0099832   -0.0864988     0.0012868    0.0004179     0.0010471    0.0004447    -0.0544634   -0.1313434 
   0.198499625    -0.0100981   -0.0868457     0.0009504    0.0005235     0.0009102    0.0002740    -0.0540287   -0.1312075 
   0.198599650    -0.0100519   -0.0863519     0.0011233    0.0002739     0.0009811    0.0003240    -0.0539651   -0.1314426 
   0.198699675    -0.0097775   -0.0860393     0.0012248    0.0005112     0.0010863    0.0005740    -0.0545745   -0.1317521 
   0.198799700    -0.0100868   -0.0850005     0.0009580    0.0002296     0.0010890    0.0001994    -0.0548769   -0.1313390 
   0.198899725    -0.0098028   -0.0864714     0.0009325    0.0003260     0.0010361    0.0000962    -0.0552373   -0.1313111 
   0.198999750    -0.0101914   -0.0850052     0.0010221    0.0000618     0.0011362    0.0000927    -0.0547646   -0.1314723 
   0.199099775    -0.0105634   -0.0854192     0.0010313    0.0004178     0.0011267    0.0001648    -0.0547566   -0.1310666 
   0.199199800    -0.0101776   -0.0858438     0.0010287    0.0003498     0.0008471    0.0004749    -0.0546309   -0.1313455 
   0.199299825    -0.0092693   -0.0852720     0.0010598    0.0002810     0.0009614    0.0003965    -0.0553885   -0.1309600 
   0.199399850    -0.0105234   -0.0851277     0.0008729    0.0003635     0.0012314    0.0002154    -0.0548057   -0.1309869 
   0.199499875    -0.0099319   -0.0852372     0.0011751    0.0000187     0.0010145    0.0002208    -0.0554362   -0.1312360 
   0.199599900    -0.0096466   -0.0847142     0.0012814    0.0003690     0.0008219    0.0002407    -0.0552199   -0.1314682 
   0.199699925    -0.0095165   -0.0858626     0.0010452    0.0000469     0.0011805    0.0004777    -0.0550689   -0.1308926 
   0.199799950    -0.0098010   -0.0856069     0.0011245    0.0004454     0.0013084    0.0002751    -0.0549148   -0.1310016 
   0.199899975    -0.0095286   -0.0853945     0.0012563    0.0003086     0.0010362    0.0002666    -0.0555639   -0.1300564 
   0.200000000    -0.0098227   -0.0849407     0.0009508    0.0002775     0.0012096    0.0002977    -0.0554295   -0.1305597 
