! 27-Aug-26 2:27:43 PM
! E:\20260827_VNA\T1T1E8_OPEN_1.S2P
! CHANNEL.1
! TR.MEASUREMENT
! CORRECTED.DATA
# GHZ S RI R 50.0
! FREQ.GHZ         S11RE         S11IM         S21RE         S21IM         S12RE         S12IM         S22RE         S22IM         
!; PortSelection: Port_12
   0.000050000     0.0569980   -0.1927648    -0.0666242   -0.0683592     0.0012146    0.0102365     1.0317770    0.0623423 
   0.000150025     0.0094852    0.0398133    -0.5469035    0.1003746     0.0008395   -0.0002390     0.9968908   -0.0072181 
   0.000250050    -0.4005874   -0.2896474    -0.0025330    0.0008264    -0.0007266   -0.0010892     1.0093570   -0.0248287 
   0.000350075     0.9709576   -0.0284847    -0.0062242   -0.0095776    -0.0002971   -0.0004439     0.9936152   -0.0355653 
   0.000450100     1.0376940   -0.0205970    -0.0028883   -0.0059133    -0.0004851   -0.0014497     0.9894062   -0.0154644 
   0.000550125     0.9480575   -0.0084539    -0.0026268   -0.0086684    -0.0014195   -0.0013611     0.9986793   -0.0426054 
   0.000650150     0.9369324   -0.0174379    -0.0033224   -0.0087233    -0.0005487    0.0009824     0.9984559   -0.0549229 
   0.000750175     0.9666494   -0.0813944    -0.0069877   -0.0102928     0.0001470   -0.0002728     0.9929594   -0.0515265 
   0.000850200     1.0244400   -0.0708370    -0.0098843   -0.0127434    -0.0006192   -0.0006743     0.9983171   -0.0595933 
   0.000950225     0.9942929   -0.0049768    -0.0064960   -0.0083675     0.0003909    0.0005733     0.9929439   -0.0676534 
   0.001050250     0.9653131   -0.0251223    -0.0132470   -0.0093167    -0.0005300    0.0007835     0.9978050   -0.0745958 
   0.001150275     1.0296670   -0.0551239    -0.0103139   -0.0053500    -0.0004114   -0.0000472     0.9932052   -0.0770515 
   0.001250300     1.0088920    0.0011765    -0.0115539   -0.0064452     0.0001906    0.0001677     0.9916861   -0.0936531 
   0.001350325     0.9871253   -0.0222974    -0.0123433   -0.0032742    -0.0006440    0.0003759     0.9826016   -0.0973444 
   0.001450350     1.0261910   -0.0295595    -0.0051719    0.0001056     0.0007204    0.0009758     0.9829862   -0.1030426 
   0.001550375     0.9712674   -0.0247715    -0.0127754   -0.0019228    -0.0013418   -0.0007399     0.9922351   -0.1104386 
   0.001650400     1.0002560   -0.0183587    -0.0083785   -0.0026823    -0.0002052   -0.0003298     0.9803811   -0.1183791 
   0.001750425     0.9777182   -0.0119537    -0.0111335   -0.0043135     0.0003869    0.0004544     0.9875982   -0.1252646 
   0.001850450     0.9950695   -0.0163245    -0.0076255    0.0013531    -0.0003471   -0.0006760     0.9763691   -0.1367848 
   0.001950475     1.0308200   -0.0203307    -0.0075788    0.0003067     0.0003536    0.0007240     0.9845572   -0.1348411 
   0.002050500     0.9773657   -0.0022023    -0.0056923    0.0048018     0.0010050   -0.0008753     0.9796590   -0.1484958 
   0.002150525     1.0542070   -0.0274130    -0.0056215    0.0006254     0.0008859   -0.0002614     0.9788881   -0.1628747 
   0.002250550     1.0211390    0.0087198    -0.0059665    0.0013297     0.0002897   -0.0000320     0.9779827   -0.1619596 
   0.002350575     0.9487047   -0.0515171    -0.0035593    0.0024351    -0.0013418    0.0008363     0.9774485   -0.1600448 
   0.002450600     0.9308956   -0.0772506    -0.0025396    0.0005177    -0.0006285   -0.0003469     0.9737714   -0.1763143 
   0.002550625     0.9535576   -0.0545187    -0.0051200    0.0034674    -0.0001927   -0.0002913     0.9682733   -0.1778184 
   0.002650650     1.0004760   -0.0000565    -0.0013237    0.0031641     0.0004972    0.0003411     0.9672143   -0.1895401 
   0.002750675     1.0024950    0.0318347    -0.0025012    0.0056142     0.0007028   -0.0000269     0.9559453   -0.1976901 
   0.002850700     0.9726710   -0.0664032    -0.0042000    0.0030405    -0.0009268    0.0005239     0.9602906   -0.1994933 
   0.002950725     0.9208443   -0.0253670    -0.0033604    0.0049857     0.0006439   -0.0003534     0.9624419   -0.2090731 
   0.003050750     0.9403634   -0.0288755    -0.0026695    0.0006070     0.0003701    0.0005054     0.9564021   -0.2120070 
   0.003150775     0.9867451   -0.0878129    -0.0016375    0.0027836     0.0005620    0.0005443     0.9505243   -0.2175618 
   0.003250800     0.9552451   -0.0166314    -0.0021377    0.0047128    -0.0008986    0.0011843     0.9554731   -0.2192886 
   0.003350825     0.9791243   -0.0346889    -0.0019376    0.0019621    -0.0000677   -0.0013524     0.9413679   -0.2281310 
   0.003450850     0.9566643   -0.0621898    -0.0017363    0.0055672    -0.0004500    0.0002092     0.9413161   -0.2372849 
   0.003550875     0.9503092   -0.0322660    -0.0001891    0.0032624     0.0001191   -0.0001428     0.9341580   -0.2459245 
   0.003650900     0.9606746   -0.0108937    -0.0009894   -0.0003229    -0.0004852    0.0000804     0.9325672   -0.2517878 
   0.003750925     0.9539943   -0.0490524    -0.0031233    0.0012495    -0.0002344   -0.0002186     0.9275991   -0.2565919 
   0.003850950     0.9886350   -0.0406024     0.0005415   -0.0003618    -0.0002144   -0.0003096     0.9224898   -0.2669924 
   0.003950975     0.9967492   -0.0110005     0.0013162    0.0030406    -0.0001088    0.0002770     0.9152476   -0.2665222 
   0.004051001     0.9556980   -0.0678999    -0.0021990    0.0033695     0.0002329    0.0005876     0.9173445   -0.2738783 
   0.004151026     0.9503853   -0.0406376    -0.0011758    0.0015580    -0.0002376    0.0002433     0.9150076   -0.2821705 
   0.004251051     0.9877533   -0.0437267     0.0006756    0.0005908    -0.0001603    0.0006569     0.9132140   -0.2865845 
   0.004351076     0.9668086   -0.0309854    -0.0013959    0.0020044     0.0002705    0.0000229     0.9057497   -0.2878668 
   0.004451101     0.9908025   -0.0647872    -0.0006871    0.0019852    -0.0002286   -0.0000125     0.9006046   -0.2897202 
   0.004551126     0.9890388   -0.0232814     0.0006361    0.0024751    -0.0002348   -0.0001062     0.9013324   -0.2967091 
   0.004651151     0.9716598   -0.0289998    -0.0004124    0.0001459    -0.0006389    0.0001496     0.8982279   -0.3025522 
   0.004751176     0.9634397   -0.0803175    -0.0019990    0.0016430    -0.0000098    0.0004723     0.8922843   -0.3137099 
   0.004851201     0.9373282   -0.0569113     0.0020011    0.0046759     0.0005824    0.0008369     0.8848359   -0.3157910 
   0.004951226     0.9687342   -0.0338557    -0.0017967    0.0020807    -0.0000892    0.0001234     0.8844414   -0.3157417 
   0.005051251     0.9986308   -0.0391019     0.0000366    0.0010464     0.0002272    0.0002107     0.8797389   -0.3198492 
   0.005151276     0.9315760   -0.0177434    -0.0006827    0.0017493     0.0002410   -0.0002256     0.8738970   -0.3320251 
   0.005251301     0.9614924   -0.0274002    -0.0028710    0.0023770    -0.0007861    0.0004388     0.8663730   -0.3332509 
   0.005351326     0.9280106   -0.0304979     0.0002345   -0.0007823    -0.0000665   -0.0005971     0.8713793   -0.3387418 
   0.005451351     0.9647729   -0.0392105     0.0022906   -0.0012676     0.0000829    0.0000731     0.8643801   -0.3432163 
   0.005551376     0.9880357   -0.0651089    -0.0005903    0.0024142    -0.0002490   -0.0001377     0.8567094   -0.3486040 
   0.005651401     0.9626024   -0.0453038     0.0005286    0.0019847    -0.0001945    0.0002466     0.8523768   -0.3585834 
   0.005751426     0.9711203   -0.0516651    -0.0013529   -0.0007076    -0.0000811    0.0002849     0.8487670   -0.3568943 
   0.005851451     0.9593762   -0.0556047     0.0005686    0.0008455    -0.0000482    0.0008349     0.8449976   -0.3590976 
   0.005951476     0.9501599   -0.0561080     0.0002640   -0.0023394     0.0001712    0.0001866     0.8391321   -0.3645122 
   0.006051501     0.9775758   -0.0419681     0.0007551   -0.0010557    -0.0001387    0.0002152     0.8328969   -0.3731985 
   0.006151526     0.9409140   -0.0762101    -0.0004578    0.0018415    -0.0005196   -0.0005249     0.8286849   -0.3700592 
   0.006251551     0.9847147   -0.0464320    -0.0008282   -0.0003332     0.0004246    0.0000285     0.8243952   -0.3775712 
   0.006351576     0.9665445   -0.0449419    -0.0000018    0.0000470    -0.0005859    0.0003310     0.8209535   -0.3816553 
   0.006451601     0.9534660   -0.0395291    -0.0028348    0.0009835     0.0002688    0.0007143     0.8154201   -0.3880399 
   0.006551626     0.9474964   -0.0726940     0.0014373    0.0014258    -0.0002670    0.0004648     0.8107491   -0.3867930 
   0.006651651     0.9641213   -0.0577004     0.0002860    0.0006642    -0.0002499   -0.0000239     0.8065946   -0.3921383 
   0.006751676     0.9659678   -0.0683996    -0.0017599    0.0017093    -0.0004346    0.0001577     0.8081215   -0.3956755 
   0.006851701     0.9633895   -0.0674126    -0.0001393    0.0007244     0.0002463   -0.0005288     0.7953405   -0.4014987 
   0.006951726     0.9412481   -0.0706199     0.0014957    0.0007669    -0.0001344    0.0000189     0.7947651   -0.4026601 
   0.007051751     0.9693898   -0.0489581    -0.0017147   -0.0021099    -0.0003271    0.0001525     0.7833893   -0.4075158 
   0.007151776     0.9531267   -0.0766410     0.0004867    0.0002927     0.0001521    0.0001903     0.7793155   -0.4089354 
   0.007251801     0.9701152   -0.0370104     0.0001107   -0.0001099     0.0003364    0.0002059     0.7781444   -0.4159797 
   0.007351826     0.9736280   -0.0710739    -0.0012063    0.0011366    -0.0001205   -0.0002420     0.7700227   -0.4194571 
   0.007451851     0.9541185   -0.0527350    -0.0005434    0.0001397     0.0001516   -0.0001453     0.7680738   -0.4173413 
   0.007551876     0.9655110   -0.0755747    -0.0019521    0.0001459    -0.0002336    0.0005427     0.7670752   -0.4210380 
   0.007651901     0.9557753   -0.0670135     0.0002869    0.0013883    -0.0000731    0.0001246     0.7582179   -0.4275272 
   0.007751926     0.9658475   -0.0698703     0.0008602    0.0007356     0.0000931    0.0006475     0.7551852   -0.4282906 
   0.007851951     0.9522476   -0.0666818     0.0010176    0.0007950    -0.0002543   -0.0000560     0.7487415   -0.4298849 
   0.007951976     0.9649687   -0.0803991     0.0013857    0.0010979    -0.0001233    0.0002831     0.7438276   -0.4326456 
   0.008052001     0.9703930   -0.0655182    -0.0009529    0.0016427     0.0002828   -0.0002302     0.7404087   -0.4333559 
   0.008152026     0.9705381   -0.0654061     0.0003679    0.0005602    -0.0001984   -0.0003897     0.7344311   -0.4395901 
   0.008252051     0.9371958   -0.0599787    -0.0012120   -0.0000149    -0.0001295    0.0004408     0.7264615   -0.4381198 
   0.008352076     0.9708787   -0.0743568     0.0010359    0.0009327    -0.0001312    0.0002928     0.7243334   -0.4420592 
   0.008452101     0.9522443   -0.0478946    -0.0007428   -0.0000840     0.0003149    0.0003103     0.7196887   -0.4446037 
   0.008552126     0.9520742   -0.0545286     0.0003706   -0.0002589     0.0002821    0.0004430     0.7167213   -0.4467203 
   0.008652151     0.9564759   -0.0525685    -0.0000791   -0.0003788    -0.0002921    0.0006702     0.7101977   -0.4470194 
   0.008752176     0.9521441   -0.0333121    -0.0005511   -0.0014200     0.0001836    0.0006512     0.7054523   -0.4533505 
   0.008852201     0.9407211   -0.0589513     0.0005869   -0.0007187     0.0000188    0.0000453     0.7033672   -0.4512860 
   0.008952226     0.9714155   -0.0505946    -0.0008997    0.0004398     0.0003622    0.0004927     0.7002898   -0.4546021 
   0.009052251     0.9688141   -0.0392264    -0.0006043    0.0002687    -0.0001224    0.0005032     0.6957576   -0.4594750 
   0.009152276     0.9543150   -0.0543131    -0.0004478   -0.0002443    -0.0003340    0.0002668     0.6858591   -0.4633116 
   0.009252301     0.9561172   -0.0572286    -0.0004233    0.0001092     0.0001636    0.0002304     0.6821994   -0.4639653 
   0.009352326     0.9716378   -0.0487883    -0.0004992   -0.0017027     0.0001506    0.0004181     0.6776230   -0.4639183 
   0.009452351     0.9857961   -0.0501905     0.0003036    0.0010476    -0.0002500    0.0001718     0.6723493   -0.4624020 
   0.009552376     0.9682475   -0.0770787     0.0004851   -0.0004134    -0.0001678   -0.0000176     0.6687757   -0.4644625 
   0.009652401     0.9619792   -0.0595659     0.0002543   -0.0003893     0.0001427    0.0000872     0.6642089   -0.4662639 
   0.009752426     0.9538729   -0.0636280     0.0003640   -0.0017760    -0.0001862    0.0003608     0.6591779   -0.4667103 
   0.009852451     0.9609450   -0.0683593     0.0000507   -0.0002700    -0.0003275    0.0003416     0.6552041   -0.4702746 
   0.009952476     0.9622740   -0.0644384    -0.0009570   -0.0002961    -0.0000826    0.0004467     0.6497107   -0.4706333 
   0.010052501     0.9451212   -0.0632780     0.0013302    0.0002170     0.0001753    0.0002202     0.6496643   -0.4703982 
   0.010152526     0.9585825   -0.0650076    -0.0012469   -0.0000010     0.0004258    0.0005179     0.6407843   -0.4736355 
   0.010252551     0.9301481   -0.0705269     0.0001935    0.0009903    -0.0003031   -0.0001650     0.6401379   -0.4775420 
   0.010352576     0.9614508   -0.0720107    -0.0004893   -0.0002847    -0.0000556    0.0005416     0.6310836   -0.4790234 
   0.010452601     0.9555886   -0.0596497     0.0012737    0.0005325    -0.0003498    0.0000570     0.6263803   -0.4799509 
   0.010552626     0.9408877   -0.0708919    -0.0007181    0.0019709     0.0002555    0.0002345     0.6248825   -0.4801231 
   0.010652651     0.9666045   -0.0729911     0.0003674   -0.0004380    -0.0001217    0.0007995     0.6184176   -0.4800600 
   0.010752676     0.9695491   -0.0692014    -0.0012635    0.0004110    -0.0000286    0.0005346     0.6151569   -0.4785248 
   0.010852701     0.9498003   -0.0586646    -0.0003781    0.0001216     0.0002938    0.0000722     0.6126347   -0.4807239 
   0.010952726     0.9697315   -0.0520695     0.0005296   -0.0006318    -0.0001961    0.0001720     0.6073993   -0.4841107 
   0.011052751     0.9657469   -0.0723617     0.0011003   -0.0007747     0.0001006    0.0004056     0.6024877   -0.4851511 
   0.011152776     0.9572114   -0.0803215     0.0012673   -0.0001639     0.0005142    0.0004021     0.5956534   -0.4837913 
   0.011252801     0.9696401   -0.0778208    -0.0008859    0.0011381    -0.0001788    0.0001122     0.5915265   -0.4837927 
   0.011352826     0.9638671   -0.0957241     0.0001067    0.0008245     0.0001388    0.0004740     0.5911671   -0.4856693 
   0.011452851     0.9560831   -0.0636302    -0.0003805    0.0006035    -0.0000789    0.0001444     0.5834030   -0.4869777 
   0.011552876     0.9547469   -0.0735633    -0.0003663    0.0005228     0.0001623    0.0000357     0.5833033   -0.4914619 
   0.011652901     0.9518349   -0.1002109    -0.0009387    0.0008200     0.0000146    0.0004933     0.5761875   -0.4880112 
   0.011752926     0.9495568   -0.0816746    -0.0006273    0.0009734    -0.0000885    0.0005152     0.5737482   -0.4862272 
   0.011852951     0.9679967   -0.0931259    -0.0003782    0.0002382     0.0001239   -0.0000029     0.5715022   -0.4899254 
   0.011952976     0.9711826   -0.0771168    -0.0006441   -0.0012253     0.0001734    0.0001419     0.5648766   -0.4908696 
   0.012053002     0.9476261   -0.0986189    -0.0005249    0.0002072     0.0000474   -0.0000159     0.5605152   -0.4903453 
   0.012153027     0.9657305   -0.0822739    -0.0009044    0.0009771     0.0002451    0.0002642     0.5572838   -0.4932406 
   0.012253052     0.9553409   -0.0895753     0.0003377    0.0008586    -0.0001642    0.0002839     0.5534260   -0.4898898 
   0.012353077     0.9650192   -0.0807545     0.0010282   -0.0000349    -0.0000025    0.0004532     0.5515231   -0.4912952 
   0.012453102     0.9808154   -0.0954615     0.0004798   -0.0003275     0.0001269    0.0004401     0.5440161   -0.4927349 
   0.012553127     0.9631934   -0.1061488    -0.0009224   -0.0002517     0.0000487    0.0003121     0.5399490   -0.4905214 
   0.012653152     0.9649088   -0.0731880     0.0000720   -0.0007830     0.0000925    0.0004765     0.5366827   -0.4924546 
   0.012753177     0.9457325   -0.0855055     0.0002562    0.0001641    -0.0001806    0.0006231     0.5346884   -0.4909427 
   0.012853202     0.9403623   -0.0624109     0.0004489    0.0001061    -0.0000071    0.0003220     0.5294508   -0.4912557 
   0.012953227     0.9462683   -0.0785073     0.0007769   -0.0003986     0.0002094    0.0004345     0.5271394   -0.4933838 
   0.013053252     0.9429505   -0.1013457     0.0002985   -0.0004728     0.0001426    0.0004150     0.5247275   -0.4930562 
   0.013153277     0.9483278   -0.0778418    -0.0004436    0.0003797    -0.0002309    0.0003350     0.5173981   -0.4966168 
   0.013253302     0.9572533   -0.0722631     0.0004153    0.0008952     0.0003823    0.0004597     0.5170108   -0.4902703 
   0.013353327     0.9546239   -0.0815392     0.0007324    0.0004064    -0.0004325    0.0004949     0.5120171   -0.4951551 
   0.013453352     0.9530379   -0.0785343    -0.0002568    0.0000970     0.0002845    0.0005706     0.5096017   -0.4930336 
   0.013553377     0.9359662   -0.0886881    -0.0003318    0.0010366     0.0002170    0.0003515     0.5037184   -0.4932575 
   0.013653402     0.9441018   -0.0943324    -0.0005610    0.0011080    -0.0003327   -0.0000970     0.5004448   -0.4928037 
   0.013753427     0.9515707   -0.0797541    -0.0003999    0.0001844     0.0001376    0.0004673     0.4942548   -0.4932580 
   0.013853452     0.9652123   -0.0855504     0.0002505    0.0008942     0.0003164    0.0001291     0.4971972   -0.4905049 
   0.013953477     0.9409148   -0.0805873    -0.0009682    0.0005398    -0.0001556    0.0005347     0.4920633   -0.4952905 
   0.014053502     0.9602707   -0.0936540    -0.0005010    0.0010524     0.0000724    0.0004078     0.4873188   -0.4923240 
   0.014153527     0.9459268   -0.0948083    -0.0000188    0.0015927    -0.0003429    0.0004227     0.4850933   -0.4930884 
   0.014253552     0.9630574   -0.0758929    -0.0008581    0.0008959     0.0002104    0.0004118     0.4813731   -0.4931336 
   0.014353577     0.9346289   -0.0977370     0.0002932    0.0006665     0.0002065    0.0005380     0.4751028   -0.4913776 
   0.014453602     0.9391913   -0.0956654    -0.0000468   -0.0003351     0.0000264    0.0004682     0.4744354   -0.4893936 
   0.014553627     0.9473080   -0.0888996     0.0003041    0.0002368     0.0001083    0.0002810     0.4722524   -0.4895815 
   0.014653652     0.9575889   -0.0929979    -0.0002523   -0.0000510     0.0000170    0.0003282     0.4650230   -0.4917985 
   0.014753677     0.9510562   -0.0892795    -0.0004700    0.0010717     0.0000197    0.0004346     0.4648210   -0.4904684 
   0.014853702     0.9524627   -0.0913050     0.0001833    0.0008925    -0.0000009   -0.0000173     0.4600354   -0.4895645 
   0.014953727     0.9568714   -0.1058971    -0.0002716   -0.0000145     0.0000237    0.0003442     0.4557522   -0.4897801 
   0.015053752     0.9565607   -0.0899847     0.0004971   -0.0003599     0.0001625    0.0005895     0.4543401   -0.4892989 
   0.015153777     0.9580919   -0.0865075     0.0001646    0.0008524     0.0001713    0.0006311     0.4535078   -0.4899650 
   0.015253802     0.9438711   -0.0877970    -0.0001393   -0.0003854     0.0004843    0.0004517     0.4486993   -0.4897060 
   0.015353827     0.9536366   -0.0847219     0.0006187    0.0000697     0.0001318    0.0003796     0.4426785   -0.4890774 
   0.015453852     0.9643045   -0.0852379    -0.0000524    0.0010795     0.0000679    0.0004526     0.4411278   -0.4879525 
   0.015553877     0.9538110   -0.1014034    -0.0002430    0.0010168    -0.0001140    0.0001666     0.4398095   -0.4879040 
   0.015653902     0.9482506   -0.0929246     0.0001776   -0.0002279     0.0003706    0.0003404     0.4368262   -0.4874561 
   0.015753927     0.9456232   -0.0903378     0.0011605    0.0009373     0.0002881    0.0004723     0.4311114   -0.4881561 
   0.015853952     0.9518684   -0.1024012     0.0003575   -0.0000690     0.0001900    0.0005019     0.4310792   -0.4855089 
   0.015953977     0.9723259   -0.0860058    -0.0002130    0.0008438     0.0000356    0.0004717     0.4263885   -0.4850432 
   0.016054002     0.9429224   -0.0850374     0.0008146    0.0002114     0.0002348    0.0003958     0.4228618   -0.4856512 
   0.016154027     0.9650923   -0.0989258    -0.0003936    0.0007687     0.0000274    0.0004214     0.4202009   -0.4861522 
   0.016254052     0.9358084   -0.0959530     0.0002257   -0.0000615     0.0000266    0.0003163     0.4176383   -0.4834859 
   0.016354077     0.9327224   -0.0994773    -0.0000962    0.0002181     0.0002660    0.0005788     0.4132478   -0.4840378 
   0.016454102     0.9414264   -0.1053398    -0.0000101    0.0003114     0.0001432    0.0002821     0.4113252   -0.4822278 
   0.016554127     0.9578772   -0.1026916    -0.0005283    0.0007945     0.0001865    0.0004815     0.4087703   -0.4838904 
   0.016654152     0.9502673   -0.0956519    -0.0008274    0.0006490    -0.0002248    0.0004022     0.4069231   -0.4826632 
   0.016754177     0.9501905   -0.1073624    -0.0006067   -0.0002863     0.0000912    0.0004680     0.4024670   -0.4809519 
   0.016854202     0.9539356   -0.0843488     0.0013212    0.0012273    -0.0000469    0.0003029     0.4025896   -0.4812236 
   0.016954227     0.9769273   -0.1015453    -0.0001992   -0.0006478    -0.0000598    0.0005146     0.3989258   -0.4800698 
   0.017054252     0.9591489   -0.1029229     0.0006207    0.0013708     0.0005028    0.0003330     0.3959939   -0.4800096 
   0.017154277     0.9491272   -0.1006640     0.0008128   -0.0001494     0.0001677    0.0003864     0.3931383   -0.4779605 
   0.017254302     0.9477041   -0.0910237     0.0010553   -0.0000685     0.0003025    0.0006014     0.3879873   -0.4772872 
   0.017354327     0.9777914   -0.1043612     0.0000703    0.0005747     0.0000064    0.0003952     0.3889181   -0.4795167 
   0.017454352     0.9624558   -0.1027467    -0.0006961    0.0000140    -0.0000483    0.0004802     0.3837833   -0.4763758 
   0.017554377     0.9518372   -0.1132383    -0.0005746   -0.0001349    -0.0000506    0.0003403     0.3835671   -0.4763277 
   0.017654402     0.9608611   -0.0988622     0.0000659    0.0006687     0.0003584    0.0004110     0.3783791   -0.4742955 
   0.017754427     0.9483274   -0.1231662    -0.0003672    0.0005602     0.0004493    0.0005944     0.3778170   -0.4755948 
   0.017854452     0.9551268   -0.1088161    -0.0000725    0.0002131     0.0000886    0.0005279     0.3754312   -0.4743280 
   0.017954477     0.9517844   -0.1026037    -0.0004784    0.0013853     0.0001155    0.0007755     0.3739342   -0.4727300 
   0.018054502     0.9510054   -0.1032896     0.0009098   -0.0001755    -0.0001727    0.0003399     0.3701319   -0.4720317 
   0.018154527     0.9583483   -0.1060856    -0.0000826    0.0005015     0.0002642    0.0002872     0.3678731   -0.4744846 
   0.018254552     0.9465258   -0.1093324     0.0000923    0.0005629     0.0002494    0.0006303     0.3635587   -0.4712248 
   0.018354577     0.9494931   -0.1159133    -0.0006522    0.0001966     0.0001346    0.0003318     0.3615481   -0.4701118 
   0.018454602     0.9439359   -0.1188864     0.0001473    0.0003477     0.0002674    0.0002324     0.3600453   -0.4697487 
   0.018554627     0.9577514   -0.1185575    -0.0005890    0.0007354     0.0001578    0.0006681     0.3582244   -0.4689828 
   0.018654652     0.9558818   -0.1209292    -0.0008756    0.0006051     0.0001715    0.0004432     0.3546894   -0.4657277 
   0.018754677     0.9557624   -0.1122783    -0.0000289    0.0006460     0.0001894    0.0005317     0.3532059   -0.4671861 
   0.018854702     0.9520536   -0.1050744     0.0007010    0.0011521     0.0002554    0.0003168     0.3541081   -0.4663067 
   0.018954727     0.9612341   -0.1109749     0.0000766    0.0004964     0.0002652    0.0004644     0.3490734   -0.4657786 
   0.019054752     0.9449366   -0.1087020    -0.0011812   -0.0004101     0.0003232    0.0003476     0.3460086   -0.4647872 
   0.019154777     0.9542032   -0.1159068     0.0005278    0.0007849     0.0001593    0.0007276     0.3424884   -0.4649545 
   0.019254802     0.9608402   -0.1145737     0.0003458   -0.0001593     0.0002568    0.0003144     0.3411777   -0.4644098 
   0.019354827     0.9351355   -0.1224711    -0.0000642   -0.0004778     0.0001657    0.0003321     0.3394311   -0.4631133 
   0.019454852     0.9515999   -0.1040944     0.0005024    0.0000954    -0.0000297    0.0004046     0.3372031   -0.4632643 
   0.019554877     0.9435495   -0.1166630     0.0006393    0.0014353     0.0002972    0.0007299     0.3359892   -0.4626884 
   0.019654902     0.9663566   -0.1093532    -0.0006376    0.0004224     0.0004711    0.0005208     0.3333865   -0.4626671 
   0.019754927     0.9423462   -0.1256105     0.0006944    0.0013476     0.0004013    0.0003824     0.3308960   -0.4601530 
   0.019854952     0.9455944   -0.1231187     0.0000324   -0.0005039     0.0002805    0.0004804     0.3283338   -0.4582627 
   0.019954977     0.9396388   -0.1178128     0.0003694    0.0008888     0.0004289    0.0004792     0.3293808   -0.4569950 
   0.020055003     0.9531918   -0.1128348     0.0007236    0.0002190     0.0001645    0.0002009     0.3250124   -0.4581814 
   0.020155028     0.9464200   -0.1182659    -0.0002595    0.0003809     0.0002131    0.0005198     0.3228617   -0.4578364 
   0.020255053     0.9454608   -0.1145797     0.0004871    0.0009663    -0.0001158    0.0003826     0.3215472   -0.4549776 
   0.020355078     0.9447675   -0.1134016     0.0001928    0.0004413     0.0001298    0.0004890     0.3185964   -0.4561727 
   0.020455103     0.9632359   -0.1190891     0.0002054    0.0002077     0.0004536    0.0005372     0.3186334   -0.4556209 
   0.020555128     0.9498143   -0.1233000     0.0006411    0.0010064    -0.0000658    0.0003447     0.3145785   -0.4542608 
   0.020655153     0.9482925   -0.1213262    -0.0001813    0.0002421     0.0001448    0.0003892     0.3142404   -0.4533284 
   0.020755178     0.9483027   -0.1317299     0.0008035    0.0008819     0.0005190    0.0004968     0.3118738   -0.4519760 
   0.020855203     0.9385473   -0.1172989     0.0003068    0.0003009     0.0003532    0.0003315     0.3086550   -0.4527024 
   0.020955228     0.9484457   -0.1202735    -0.0005840    0.0004798     0.0002917    0.0005615     0.3061626   -0.4493208 
   0.021055253     0.9447004   -0.1306038     0.0005818    0.0005854     0.0002416    0.0003049     0.3053737   -0.4489548 
   0.021155278     0.9517569   -0.1248803     0.0010484    0.0017106     0.0000178    0.0007629     0.3041127   -0.4492882 
   0.021255303     0.9402021   -0.1320516     0.0000414    0.0002778     0.0001399    0.0002612     0.3025496   -0.4477673 
   0.021355328     0.9509910   -0.1193449     0.0004167    0.0005281     0.0001854    0.0004722     0.3006657   -0.4459428 
   0.021455353     0.9433863   -0.1323778     0.0001588   -0.0002625     0.0001897    0.0001934     0.2972631   -0.4464295 
   0.021555378     0.9563882   -0.1237779     0.0002274    0.0001523     0.0002209    0.0006397     0.2958559   -0.4440437 
   0.021655403     0.9572946   -0.1364331     0.0000296   -0.0006023     0.0002333    0.0005793     0.2964081   -0.4437122 
   0.021755428     0.9430541   -0.1326234     0.0010094    0.0003339     0.0001938    0.0004224     0.2936664   -0.4452246 
   0.021855453     0.9548405   -0.1306756    -0.0001192    0.0001018     0.0001277    0.0007182     0.2905552   -0.4417169 
   0.021955478     0.9387515   -0.1330528    -0.0004345    0.0005188     0.0001667    0.0009236     0.2891128   -0.4415872 
   0.022055503     0.9560801   -0.1341613     0.0004534    0.0004356     0.0002333    0.0003196     0.2872743   -0.4392646 
   0.022155528     0.9557691   -0.1250890     0.0003787    0.0011309     0.0004593    0.0001037     0.2852970   -0.4408241 
   0.022255553     0.9459484   -0.1399616     0.0009059    0.0007615     0.0003895    0.0006105     0.2839683   -0.4392922 
   0.022355578     0.9427101   -0.1322413    -0.0001740    0.0002021     0.0002155    0.0005219     0.2809336   -0.4378640 
   0.022455603     0.9540862   -0.1382978     0.0002297    0.0015382     0.0001394    0.0005044     0.2800344   -0.4377482 
   0.022555628     0.9530517   -0.1320781     0.0003294    0.0007412     0.0003482    0.0004488     0.2791094   -0.4380277 
   0.022655653     0.9451885   -0.1256602    -0.0000205    0.0008055     0.0001723    0.0006667     0.2760017   -0.4350913 
   0.022755678     0.9545245   -0.1486361     0.0004386    0.0006807     0.0001508    0.0005725     0.2761358   -0.4347689 
   0.022855703     0.9464772   -0.1435039     0.0003083    0.0004638     0.0002730    0.0002140     0.2731210   -0.4329744 
   0.022955728     0.9463899   -0.1364115     0.0008204    0.0009785     0.0002508    0.0004979     0.2729625   -0.4323121 
   0.023055753     0.9507147   -0.1396848     0.0002602   -0.0000712     0.0001995    0.0005886     0.2718690   -0.4316288 
   0.023155778     0.9424742   -0.1317568     0.0000740    0.0003344     0.0003782    0.0002658     0.2695595   -0.4324126 
   0.023255803     0.9451059   -0.1511112    -0.0004290    0.0006011     0.0001929    0.0001182     0.2686103   -0.4298881 
   0.023355828     0.9314549   -0.1457594     0.0005938    0.0011150     0.0001119    0.0002627     0.2663048   -0.4303754 
   0.023455853     0.9513353   -0.1350218     0.0006664    0.0006144     0.0002861    0.0005336     0.2642053   -0.4282068 
   0.023555878     0.9431505   -0.1427477     0.0005637    0.0006386     0.0002115    0.0004357     0.2630639   -0.4288128 
   0.023655903     0.9451502   -0.1405434     0.0001829    0.0008237     0.0003047    0.0004229     0.2635992   -0.4265758 
   0.023755928     0.9497305   -0.1492976     0.0001143    0.0004264     0.0000294    0.0003573     0.2591608   -0.4248243 
   0.023855953     0.9354777   -0.1452044     0.0000295    0.0005983     0.0001691    0.0005041     0.2577369   -0.4247898 
   0.023955978     0.9425732   -0.1529913    -0.0000456   -0.0003461     0.0000859    0.0005839     0.2581180   -0.4241606 
   0.024056003     0.9488087   -0.1324861    -0.0000519    0.0003887     0.0005046    0.0008474     0.2558554   -0.4252114 
   0.024156028     0.9464886   -0.1543987    -0.0003569    0.0003882     0.0002027    0.0004468     0.2548325   -0.4229215 
   0.024256053     0.9430562   -0.1471896     0.0001645    0.0011122     0.0001705    0.0003600     0.2530600   -0.4224497 
   0.024356078     0.9456363   -0.1438876     0.0007818    0.0007967     0.0002698    0.0002512     0.2524167   -0.4224284 
   0.024456103     0.9448236   -0.1388619     0.0000964    0.0007163     0.0003845    0.0004788     0.2503940   -0.4205575 
   0.024556128     0.9423048   -0.1413990    -0.0001346    0.0008933     0.0003356    0.0005077     0.2492144   -0.4200129 
   0.024656153     0.9436657   -0.1513353     0.0001945    0.0003911     0.0004836    0.0003645     0.2479833   -0.4182458 
   0.024756178     0.9480263   -0.1531296     0.0002929    0.0006110     0.0003417    0.0004516     0.2462757   -0.4168009 
   0.024856203     0.9499697   -0.1507428     0.0003443    0.0008970     0.0001175    0.0005677     0.2444120   -0.4165193 
   0.024956228     0.9491029   -0.1383633     0.0001102    0.0001078     0.0003846    0.0005384     0.2435362   -0.4155129 
   0.025056253     0.9342716   -0.1487601     0.0003604    0.0004606     0.0002602    0.0005174     0.2423078   -0.4160818 
   0.025156278     0.9505752   -0.1470118     0.0001570    0.0008638     0.0003360    0.0005305     0.2397786   -0.4148234 
   0.025256303     0.9357569   -0.1420718     0.0003222    0.0003815     0.0001074    0.0003762     0.2401774   -0.4132795 
   0.025356328     0.9399659   -0.1453122     0.0003268    0.0003124     0.0004151    0.0004153     0.2383709   -0.4135499 
   0.025456353     0.9395100   -0.1497332     0.0000554    0.0003214     0.0002576    0.0006594     0.2370908   -0.4119897 
   0.025556378     0.9422063   -0.1568706    -0.0001058    0.0006049     0.0001414    0.0003146     0.2369720   -0.4105710 
   0.025656403     0.9458693   -0.1552988     0.0005210    0.0003629     0.0001852    0.0004114     0.2343874   -0.4105394 
   0.025756428     0.9465038   -0.1434879     0.0006804    0.0001651     0.0003331    0.0005661     0.2329573   -0.4079861 
   0.025856453     0.9473323   -0.1523415     0.0002687   -0.0001297     0.0003855    0.0003566     0.2315263   -0.4067455 
   0.025956478     0.9544612   -0.1476866     0.0003132    0.0007643     0.0001373    0.0007072     0.2317774   -0.4077294 
   0.026056503     0.9407130   -0.1560793     0.0001925    0.0006852     0.0003532    0.0005249     0.2302829   -0.4060521 
   0.026156528     0.9404041   -0.1511233     0.0004136    0.0001072     0.0002933    0.0004904     0.2282899   -0.4062953 
   0.026256553     0.9400374   -0.1485762     0.0005116    0.0005549     0.0002734    0.0003849     0.2266097   -0.4049543 
   0.026356578     0.9531193   -0.1485965    -0.0004526    0.0001206     0.0003932    0.0003680     0.2264412   -0.4057508 
   0.026456603     0.9502982   -0.1528259     0.0001276    0.0003847     0.0005020    0.0006103     0.2249324   -0.4039977 
   0.026556628     0.9415853   -0.1558669     0.0003762    0.0005426     0.0003260    0.0004982     0.2230748   -0.4018780 
   0.026656653     0.9362635   -0.1527120     0.0004685    0.0000101     0.0003044    0.0005911     0.2218756   -0.4018165 
   0.026756678     0.9437507   -0.1613338     0.0002290    0.0007085     0.0003003    0.0007234     0.2229988   -0.4016447 
   0.026856703     0.9431325   -0.1603818     0.0001988    0.0000449     0.0003951    0.0002868     0.2205115   -0.4007204 
   0.026956728     0.9442020   -0.1541090     0.0005375    0.0002542     0.0004432    0.0007222     0.2188302   -0.3997780 
   0.027056753     0.9438685   -0.1642381     0.0000799    0.0006806     0.0005479    0.0005645     0.2161741   -0.3983271 
   0.027156778     0.9419355   -0.1597742     0.0001842    0.0004962     0.0001833    0.0003222     0.2156280   -0.3975630 
   0.027256803     0.9385942   -0.1511094     0.0002985    0.0005403     0.0002259    0.0004899     0.2154281   -0.3975985 
   0.027356828     0.9477108   -0.1543514     0.0002416    0.0005832     0.0002984    0.0005944     0.2148528   -0.3968405 
   0.027456853     0.9462302   -0.1693461     0.0000398    0.0001690     0.0003546    0.0005478     0.2138285   -0.3965557 
   0.027556878     0.9395306   -0.1595883     0.0004669    0.0006713     0.0002650    0.0005241     0.2114699   -0.3930887 
   0.027656903     0.9428849   -0.1607864     0.0000107    0.0006490     0.0000876    0.0005586     0.2112140   -0.3934691 
   0.027756928     0.9370256   -0.1692504     0.0004269    0.0002538     0.0003996    0.0006033     0.2098284   -0.3937325 
   0.027856953     0.9418027   -0.1622107     0.0007066    0.0004970     0.0003087    0.0005604     0.2105726   -0.3920262 
   0.027956978     0.9350894   -0.1573648     0.0003515    0.0005270     0.0002276    0.0005234     0.2083804   -0.3915035 
   0.028057004     0.9414118   -0.1582269     0.0003150    0.0010571     0.0003091    0.0005816     0.2061555   -0.3892557 
   0.028157029     0.9421185   -0.1719082     0.0006698    0.0005923     0.0003621    0.0005294     0.2058452   -0.3894802 
   0.028257054     0.9414157   -0.1648539     0.0001950    0.0007383     0.0004602    0.0004629     0.2062015   -0.3896028 
   0.028357079     0.9346743   -0.1749057     0.0001263    0.0004563     0.0002786    0.0006954     0.2023395   -0.3872595 
   0.028457104     0.9342495   -0.1670800     0.0005832    0.0004436     0.0005616    0.0005204     0.2029122   -0.3868069 
   0.028557129     0.9425599   -0.1674607     0.0001069    0.0001870     0.0001732    0.0004898     0.2027551   -0.3865334 
   0.028657154     0.9414433   -0.1646855     0.0002694    0.0001402     0.0002061    0.0006283     0.2014903   -0.3851102 
   0.028757179     0.9442337   -0.1574024     0.0004930    0.0003037     0.0003689    0.0005775     0.2011505   -0.3855203 
   0.028857204     0.9433499   -0.1738375     0.0004583    0.0008716     0.0004538    0.0005286     0.1990272   -0.3847868 
   0.028957229     0.9448115   -0.1763972     0.0004105    0.0006217     0.0002239    0.0005373     0.1984537   -0.3839259 
   0.029057254     0.9444997   -0.1660383     0.0003694    0.0007934     0.0003989    0.0004807     0.1974012   -0.3830636 
   0.029157279     0.9432096   -0.1722679     0.0003845    0.0003890     0.0004096    0.0007790     0.1957986   -0.3823873 
   0.029257304     0.9409594   -0.1720966     0.0000789    0.0005225     0.0003883    0.0005797     0.1945361   -0.3810367 
   0.029357329     0.9352108   -0.1697171     0.0002453    0.0001419     0.0003499    0.0006982     0.1940863   -0.3801927 
   0.029457354     0.9404738   -0.1723106     0.0002284    0.0003349     0.0005600    0.0006142     0.1930393   -0.3791813 
   0.029557379     0.9421689   -0.1772549     0.0005580    0.0001538     0.0004280    0.0004207     0.1926436   -0.3789040 
   0.029657404     0.9436458   -0.1749991     0.0002749    0.0008563     0.0002868    0.0005084     0.1913632   -0.3779096 
   0.029757429     0.9487190   -0.1741021     0.0003250    0.0005747     0.0002480    0.0006187     0.1904124   -0.3782876 
   0.029857454     0.9385146   -0.1771600     0.0005019    0.0007200     0.0003428    0.0005464     0.1894667   -0.3762121 
   0.029957479     0.9357527   -0.1722431     0.0002272    0.0004485     0.0003943    0.0005162     0.1888098   -0.3758916 
   0.030057504     0.9427760   -0.1757726     0.0003759    0.0004562     0.0004113    0.0004139     0.1878024   -0.3741178 
   0.030157529     0.9406174   -0.1710027     0.0003200    0.0006498     0.0003903    0.0005124     0.1866072   -0.3732700 
   0.030257554     0.9412332   -0.1761207     0.0005587    0.0008252     0.0004185    0.0005544     0.1864894   -0.3730194 
   0.030357579     0.9310651   -0.1647595     0.0002674    0.0006109     0.0003722    0.0004049     0.1843657   -0.3726839 
   0.030457604     0.9421904   -0.1736315     0.0001704   -0.0000632     0.0003436    0.0005702     0.1846986   -0.3726011 
   0.030557629     0.9401021   -0.1759859     0.0002804    0.0007311     0.0004906    0.0005086     0.1839793   -0.3714091 
   0.030657654     0.9349102   -0.1819334     0.0000604    0.0011528     0.0003977    0.0005642     0.1821277   -0.3707646 
   0.030757679     0.9391783   -0.1795605     0.0005139    0.0004129     0.0003794    0.0004402     0.1826769   -0.3705822 
   0.030857704     0.9358885   -0.1822057     0.0003693    0.0003394     0.0004333    0.0005044     0.1810950   -0.3695761 
   0.030957729     0.9373307   -0.1871278     0.0004591    0.0002056     0.0003934    0.0005608     0.1790499   -0.3698636 
   0.031057754     0.9400980   -0.1824657     0.0004889    0.0006910     0.0002874    0.0004646     0.1799078   -0.3688678 
   0.031157779     0.9447004   -0.1817628     0.0005614    0.0006395     0.0004223    0.0005332     0.1780525   -0.3667147 
   0.031257804     0.9361523   -0.1776675     0.0006322    0.0008609     0.0005694    0.0006416     0.1786138   -0.3670737 
   0.031357829     0.9356448   -0.1856075    -0.0000038    0.0005249     0.0003207    0.0006496     0.1765409   -0.3659220 
   0.031457854     0.9306597   -0.1840926     0.0008350    0.0008647     0.0004866    0.0005251     0.1756243   -0.3656896 
   0.031557879     0.9409798   -0.1746312     0.0007607    0.0004839     0.0004857    0.0007141     0.1757890   -0.3643357 
   0.031657904     0.9375409   -0.1887610     0.0004396    0.0002321     0.0003404    0.0003895     0.1748044   -0.3637584 
   0.031757929     0.9407325   -0.1839475     0.0006507    0.0000453     0.0004024    0.0006841     0.1729745   -0.3624448 
   0.031857954     0.9383955   -0.1882112     0.0007936    0.0004721     0.0004355    0.0005219     0.1740321   -0.3618630 
   0.031957979     0.9390768   -0.1826584     0.0006275    0.0000667     0.0003162    0.0005277     0.1727358   -0.3611074 
   0.032058004     0.9418718   -0.1810111     0.0007237    0.0004701     0.0004962    0.0004626     0.1711513   -0.3619896 
   0.032158029     0.9377856   -0.1833191     0.0003657    0.0002687     0.0003730    0.0004288     0.1707123   -0.3596668 
   0.032258054     0.9370230   -0.1827895     0.0009479    0.0007294     0.0005278    0.0005519     0.1701574   -0.3601775 
   0.032358079     0.9417934   -0.1835254     0.0001807    0.0005708     0.0004103    0.0005614     0.1689077   -0.3582628 
   0.032458104     0.9394624   -0.1887356     0.0005548    0.0002953     0.0004672    0.0004740     0.1684652   -0.3584431 
   0.032558129     0.9345481   -0.1863281     0.0002861    0.0006384     0.0003638    0.0004438     0.1677042   -0.3576926 
   0.032658154     0.9368362   -0.1869541     0.0003754    0.0007709     0.0005267    0.0004595     0.1668438   -0.3569410 
   0.032758179     0.9376511   -0.1888976     0.0002550    0.0005721     0.0004394    0.0004796     0.1665162   -0.3564723 
   0.032858204     0.9356385   -0.1892157     0.0001499    0.0005476     0.0004136    0.0006154     0.1653391   -0.3559552 
   0.032958229     0.9364161   -0.1865194     0.0003550    0.0002828     0.0004172    0.0005188     0.1647416   -0.3539968 
   0.033058254     0.9338509   -0.1850657     0.0006751    0.0009693     0.0005074    0.0005484     0.1641782   -0.3544174 
   0.033158279     0.9388407   -0.1934371     0.0004286    0.0005181     0.0003827    0.0005748     0.1633965   -0.3529214 
   0.033258304     0.9329603   -0.1938447     0.0004825    0.0002702     0.0004328    0.0006724     0.1621200   -0.3523868 
   0.033358329     0.9364929   -0.1915385     0.0001105    0.0004122     0.0004985    0.0005816     0.1620830   -0.3518996 
   0.033458354     0.9343670   -0.1919541     0.0010836    0.0007103     0.0006459    0.0004631     0.1608110   -0.3518341 
   0.033558379     0.9366217   -0.1934200     0.0002685    0.0006204     0.0002691    0.0004667     0.1609116   -0.3503950 
   0.033658404     0.9359540   -0.1939048     0.0001388    0.0004296     0.0004650    0.0005289     0.1594374   -0.3497451 
   0.033758429     0.9359483   -0.1931626     0.0006060    0.0010581     0.0004547    0.0004636     0.1597483   -0.3495935 
   0.033858454     0.9355646   -0.2000609     0.0006037    0.0004034     0.0004648    0.0004689     0.1585403   -0.3481119 
   0.033958479     0.9389895   -0.1987302     0.0003007    0.0005807     0.0005266    0.0005766     0.1579643   -0.3477065 
   0.034058504     0.9275318   -0.1945435     0.0003327    0.0002621     0.0004104    0.0004686     0.1566886   -0.3469940 
   0.034158529     0.9394878   -0.1995020     0.0000871    0.0005985     0.0005275    0.0005951     0.1576174   -0.3461655 
   0.034258554     0.9336759   -0.1985338     0.0007180    0.0001256     0.0005590    0.0005516     0.1564406   -0.3468357 
   0.034358579     0.9358852   -0.1990974     0.0007757    0.0005496     0.0005094    0.0005654     0.1554348   -0.3452997 
   0.034458604     0.9396285   -0.2002687     0.0005074    0.0006020     0.0004304    0.0005679     0.1550338   -0.3446607 
   0.034558629     0.9361779   -0.2021589     0.0008113    0.0002730     0.0005264    0.0005459     0.1538655   -0.3447323 
   0.034658654     0.9375916   -0.2028760     0.0003704    0.0002716     0.0004113    0.0005176     0.1529026   -0.3423227 
   0.034758679     0.9349013   -0.2028626     0.0001205    0.0005466     0.0004073    0.0005725     0.1529759   -0.3428441 
   0.034858704     0.9360149   -0.1997892     0.0003429    0.0005150     0.0004910    0.0006069     0.1518192   -0.3426109 
   0.034958729     0.9321055   -0.1968453     0.0004027    0.0006090     0.0003843    0.0005591     0.1520736   -0.3413179 
   0.035058754     0.9303594   -0.2049203     0.0005487    0.0005226     0.0004049    0.0005193     0.1505623   -0.3414196 
   0.035158779     0.9362720   -0.2033804     0.0005740    0.0002948     0.0005307    0.0005593     0.1498228   -0.3409442 
   0.035258804     0.9341059   -0.2052557     0.0003911    0.0006974     0.0005259    0.0005273     0.1500751   -0.3399681 
   0.035358829     0.9287711   -0.2049359     0.0004057    0.0005641     0.0004303    0.0006027     0.1489398   -0.3379541 
   0.035458854     0.9361199   -0.2043247     0.0006365    0.0004996     0.0004719    0.0005883     0.1479462   -0.3384194 
   0.035558879     0.9376284   -0.2021547     0.0006941    0.0006804     0.0004825    0.0004637     0.1481491   -0.3377864 
   0.035658904     0.9326687   -0.2023411     0.0004674    0.0003617     0.0003921    0.0005187     0.1472396   -0.3369595 
   0.035758929     0.9324483   -0.2019894     0.0004022    0.0005481     0.0005800    0.0005099     0.1467807   -0.3364018 
   0.035858954     0.9307306   -0.2075204     0.0002601    0.0006739     0.0005892    0.0005539     0.1465277   -0.3356663 
   0.035958979     0.9363125   -0.2088697     0.0005276    0.0007044     0.0004700    0.0005332     0.1454807   -0.3360901 
   0.036059005     0.9341558   -0.2066866     0.0004840    0.0005351     0.0005511    0.0004971     0.1448508   -0.3348286 
   0.036159030     0.9332579   -0.2089040     0.0002632    0.0004696     0.0004965    0.0005903     0.1434353   -0.3353172 
   0.036259055     0.9317404   -0.2090317     0.0004634    0.0006556     0.0005263    0.0005180     0.1436339   -0.3337388 
   0.036359080     0.9282125   -0.2096520     0.0005065    0.0004017     0.0004672    0.0006331     0.1433759   -0.3334601 
   0.036459105     0.9335521   -0.2145484     0.0005111    0.0007142     0.0004068    0.0005820     0.1430512   -0.3329635 
   0.036559130     0.9330981   -0.2077256     0.0005098    0.0004097     0.0004452    0.0005091     0.1415643   -0.3309523 
   0.036659155     0.9324018   -0.2112952     0.0004423    0.0003480     0.0003988    0.0005201     0.1413784   -0.3308614 
   0.036759180     0.9318920   -0.2125523     0.0004974    0.0005941     0.0005180    0.0005527     0.1415834   -0.3311602 
   0.036859205     0.9334927   -0.2072101     0.0006992    0.0007951     0.0004853    0.0005290     0.1401928   -0.3305830 
   0.036959230     0.9334646   -0.2142689     0.0007655    0.0007008     0.0004493    0.0005910     0.1399574   -0.3305084 
   0.037059255     0.9320216   -0.2155056     0.0006211    0.0004134     0.0004843    0.0005537     0.1399324   -0.3289049 
   0.037159280     0.9321434   -0.2157053     0.0005360    0.0004789     0.0006412    0.0005505     0.1394375   -0.3290844 
   0.037259305     0.9309096   -0.2150990     0.0002033    0.0003779     0.0004326    0.0004447     0.1384578   -0.3277309 
   0.037359330     0.9329933   -0.2177677     0.0003773    0.0003945     0.0004892    0.0004649     0.1382979   -0.3276135 
   0.037459355     0.9321997   -0.2147668     0.0003864    0.0005200     0.0005046    0.0005528     0.1377208   -0.3263444 
   0.037559380     0.9301543   -0.2162290     0.0005153    0.0005787     0.0004800    0.0005425     0.1368811   -0.3257541 
   0.037659405     0.9312817   -0.2141201     0.0005474    0.0004984     0.0005727    0.0005562     0.1370386   -0.3253034 
   0.037759430     0.9321447   -0.2173985     0.0005770    0.0007052     0.0005489    0.0004712     0.1359894   -0.3240552 
   0.037859455     0.9308003   -0.2142698     0.0004899    0.0004878     0.0005343    0.0005071     0.1351208   -0.3240685 
   0.037959480     0.9281133   -0.2184895     0.0005517    0.0006380     0.0004844    0.0005827     0.1345528   -0.3241118 
   0.038059505     0.9291251   -0.2122410     0.0004518    0.0005575     0.0005126    0.0005701     0.1347095   -0.3234686 
   0.038159530     0.9313263   -0.2179872     0.0004557    0.0003495     0.0004859    0.0005094     0.1340047   -0.3225528 
   0.038259555     0.9309318   -0.2186422     0.0006837    0.0005374     0.0004776    0.0005948     0.1331785   -0.3223146 
   0.038359580     0.9296859   -0.2189806     0.0004520    0.0006945     0.0005247    0.0005829     0.1323845   -0.3205579 
   0.038459605     0.9303868   -0.2193689     0.0004960    0.0004009     0.0005061    0.0005983     0.1316956   -0.3206729 
   0.038559630     0.9300603   -0.2240198     0.0006544    0.0004754     0.0004941    0.0005882     0.1306940   -0.3215608 
   0.038659655     0.9313650   -0.2205462     0.0006070    0.0004744     0.0005319    0.0005265     0.1321895   -0.3203023 
   0.038759680     0.9274858   -0.2209183     0.0003584    0.0008740     0.0006340    0.0005742     0.1306262   -0.3202199 
   0.038859705     0.9291372   -0.2237239     0.0005344    0.0006689     0.0004908    0.0005592     0.1306421   -0.3192363 
   0.038959730     0.9289344   -0.2244506     0.0003867    0.0004870     0.0004789    0.0004187     0.1301623   -0.3188271 
   0.039059755     0.9297339   -0.2250289     0.0006639    0.0002546     0.0005581    0.0004984     0.1301284   -0.3172362 
   0.039159780     0.9278106   -0.2238587     0.0006469    0.0005514     0.0005133    0.0005023     0.1283934   -0.3173727 
   0.039259805     0.9270093   -0.2243962     0.0004442    0.0006246     0.0005708    0.0005733     0.1284364   -0.3171165 
   0.039359830     0.9260004   -0.2261588     0.0007228    0.0004672     0.0005640    0.0006137     0.1276905   -0.3165179 
   0.039459855     0.9271509   -0.2257609     0.0005960    0.0004149     0.0005771    0.0005639     0.1272831   -0.3156851 
   0.039559880     0.9232653   -0.2299487     0.0005462    0.0007135     0.0005590    0.0006074     0.1267316   -0.3157870 
   0.039659905     0.9274851   -0.2268476     0.0006484    0.0005613     0.0005499    0.0005611     0.1259643   -0.3139161 
   0.039759930     0.9260433   -0.2281274     0.0007067    0.0005410     0.0005343    0.0004660     0.1258040   -0.3131165 
   0.039859955     0.9270079   -0.2260121     0.0006160    0.0004287     0.0005062    0.0006387     0.1260598   -0.3137113 
   0.039959980     0.9278021   -0.2318652     0.0004958    0.0006599     0.0005441    0.0005762     0.1248733   -0.3133118 
   0.040060005     0.9247289   -0.2269979     0.0004327    0.0008456     0.0005898    0.0005278     0.1246170   -0.3120041 
   0.040160030     0.9268964   -0.2316906     0.0006813    0.0004010     0.0005571    0.0005802     0.1248510   -0.3117664 
   0.040260055     0.9273850   -0.2309521     0.0007991    0.0003628     0.0004822    0.0005706     0.1232993   -0.3113766 
   0.040360080     0.9229396   -0.2317794     0.0005947    0.0005215     0.0005522    0.0004981     0.1230246   -0.3097631 
   0.040460105     0.9304832   -0.2314586     0.0007052    0.0005437     0.0005601    0.0005647     0.1221426   -0.3099390 
   0.040560130     0.9275026   -0.2307987     0.0004561    0.0001834     0.0005761    0.0005805     0.1231878   -0.3095882 
   0.040660155     0.9252269   -0.2308342     0.0005633    0.0005317     0.0005205    0.0004974     0.1223732   -0.3088233 
   0.040760180     0.9259569   -0.2295174     0.0005101    0.0003760     0.0005808    0.0005367     0.1210715   -0.3085569 
   0.040860205     0.9239130   -0.2350847     0.0006507    0.0004937     0.0005246    0.0005173     0.1205816   -0.3079022 
   0.040960230     0.9283676   -0.2350864     0.0005293    0.0006973     0.0004872    0.0006176     0.1206673   -0.3077055 
   0.041060255     0.9260395   -0.2297440     0.0004375    0.0002643     0.0005365    0.0005233     0.1200648   -0.3077742 
   0.041160280     0.9283600   -0.2356068     0.0006094    0.0004183     0.0006088    0.0005481     0.1194878   -0.3060779 
   0.041260305     0.9230967   -0.2339735     0.0007147    0.0005537     0.0006430    0.0005392     0.1189654   -0.3051670 
   0.041360330     0.9253594   -0.2384791     0.0008382    0.0005132     0.0005750    0.0005738     0.1192842   -0.3054590 
   0.041460355     0.9234214   -0.2400531     0.0005296    0.0003209     0.0005464    0.0006420     0.1184970   -0.3056064 
   0.041560380     0.9211360   -0.2362492     0.0008164    0.0005047     0.0006366    0.0006106     0.1186804   -0.3050024 
   0.041660405     0.9212548   -0.2385634     0.0008625    0.0004428     0.0005058    0.0006003     0.1179141   -0.3046438 
   0.041760430     0.9244909   -0.2370307     0.0007376    0.0004766     0.0005401    0.0006590     0.1187102   -0.3028063 
   0.041860455     0.9248372   -0.2393912     0.0003876    0.0005239     0.0005279    0.0005377     0.1174987   -0.3040452 
   0.041960480     0.9247578   -0.2433468     0.0007300    0.0003391     0.0005718    0.0005292     0.1169996   -0.3026516 
   0.042060505     0.9210989   -0.2382379     0.0004274    0.0004948     0.0005516    0.0005033     0.1161780   -0.3022226 
   0.042160530     0.9219985   -0.2384667     0.0005449    0.0005299     0.0005416    0.0005314     0.1162082   -0.3019330 
   0.042260555     0.9226327   -0.2447896     0.0005640    0.0005813     0.0005750    0.0005269     0.1160638   -0.3012264 
   0.042360580     0.9221087   -0.2402506     0.0005152    0.0006279     0.0006224    0.0006281     0.1152465   -0.3013332 
   0.042460605     0.9236817   -0.2380443     0.0005836    0.0003464     0.0005788    0.0006360     0.1146716   -0.2999927 
   0.042560630     0.9220448   -0.2433140     0.0004561    0.0005378     0.0006178    0.0005814     0.1149393   -0.3002126 
   0.042660655     0.9209632   -0.2444265     0.0005705    0.0007030     0.0005874    0.0006098     0.1136081   -0.2998202 
   0.042760680     0.9179099   -0.2410931     0.0006198    0.0004357     0.0005875    0.0006600     0.1133185   -0.2986233 
   0.042860705     0.9225466   -0.2467227     0.0007073    0.0005645     0.0005264    0.0004789     0.1126666   -0.2984651 
   0.042960730     0.9212088   -0.2459977     0.0003609    0.0005719     0.0006251    0.0005356     0.1125130   -0.2979588 
   0.043060755     0.9228788   -0.2433729     0.0007132    0.0003594     0.0005849    0.0004833     0.1120228   -0.2976258 
   0.043160780     0.9180704   -0.2478163     0.0006105    0.0005049     0.0005113    0.0005622     0.1124950   -0.2975160 
   0.043260805     0.9239728   -0.2470651     0.0005259    0.0005136     0.0005185    0.0005732     0.1120028   -0.2966297 
   0.043360830     0.9203905   -0.2475637     0.0005759    0.0007246     0.0005502    0.0006036     0.1107951   -0.2956899 
   0.043460855     0.9164650   -0.2456333     0.0004869    0.0003038     0.0007236    0.0005451     0.1112228   -0.2960074 
   0.043560880     0.9199982   -0.2464817     0.0006039    0.0008301     0.0006129    0.0005415     0.1105805   -0.2955319 
   0.043660905     0.9197385   -0.2480127     0.0006348    0.0002288     0.0005236    0.0005966     0.1093353   -0.2953901 
   0.043760930     0.9199186   -0.2513433     0.0008672    0.0007791     0.0004918    0.0005785     0.1095758   -0.2946619 
   0.043860955     0.9205691   -0.2487829     0.0005860    0.0004132     0.0005897    0.0005771     0.1088574   -0.2938383 
   0.043960980     0.9163157   -0.2516762     0.0005986    0.0005303     0.0006128    0.0005759     0.1082371   -0.2931823 
   0.044061006     0.9180928   -0.2451802     0.0004797    0.0004709     0.0004791    0.0005384     0.1092634   -0.2936331 
   0.044161031     0.9233208   -0.2538483     0.0008387    0.0005393     0.0005403    0.0005266     0.1077262   -0.2927307 
   0.044261056     0.9210440   -0.2516816     0.0007873    0.0008078     0.0006389    0.0005770     0.1080224   -0.2920829 
   0.044361081     0.9180847   -0.2514951     0.0005124    0.0004601     0.0005699    0.0004715     0.1071552   -0.2915569 
   0.044461106     0.9146854   -0.2537895     0.0006115    0.0008588     0.0006733    0.0004631     0.1068828   -0.2910189 
   0.044561131     0.9183878   -0.2522211     0.0006742    0.0006680     0.0005998    0.0004526     0.1071382   -0.2903480 
   0.044661156     0.9185811   -0.2522676     0.0008306    0.0006620     0.0006877    0.0005125     0.1065854   -0.2908296 
   0.044761181     0.9205076   -0.2554870     0.0003174    0.0007784     0.0005199    0.0004796     0.1065152   -0.2904040 
   0.044861206     0.9191757   -0.2562564     0.0004984    0.0007227     0.0005872    0.0004755     0.1061937   -0.2893010 
   0.044961231     0.9164714   -0.2578202     0.0007812    0.0008439     0.0006299    0.0006267     0.1045147   -0.2883096 
   0.045061256     0.9137904   -0.2545362     0.0004572    0.0004222     0.0005249    0.0004842     0.1047129   -0.2889055 
   0.045161281     0.9167337   -0.2550587     0.0004372    0.0005336     0.0005347    0.0005477     0.1050892   -0.2879774 
   0.045261306     0.9191360   -0.2555142     0.0007959    0.0005400     0.0005329    0.0005620     0.1043484   -0.2883479 
   0.045361331     0.9168670   -0.2565937     0.0007321    0.0004501     0.0005512    0.0005951     0.1039788   -0.2873066 
   0.045461356     0.9171188   -0.2566685     0.0006276    0.0007242     0.0006061    0.0003990     0.1043680   -0.2871056 
   0.045561381     0.9153031   -0.2533612     0.0008499    0.0007890     0.0005914    0.0005601     0.1035974   -0.2861995 
   0.045661406     0.9121178   -0.2603434     0.0010193    0.0008054     0.0004932    0.0004632     0.1030301   -0.2850110 
   0.045761431     0.9157498   -0.2536304     0.0004417    0.0002942     0.0006697    0.0005819     0.1021109   -0.2852871 
   0.045861456     0.9130642   -0.2545885     0.0003089    0.0006807     0.0005257    0.0005145     0.1024727   -0.2853391 
   0.045961481     0.9143690   -0.2622042     0.0005129    0.0004098     0.0005776    0.0006442     0.1023495   -0.2846025 
   0.046061506     0.9180756   -0.2615061     0.0009872    0.0007119     0.0006214    0.0005336     0.1021732   -0.2843953 
   0.046161531     0.9158293   -0.2596659     0.0005230    0.0007406     0.0006984    0.0005844     0.1020606   -0.2843748 
   0.046261556     0.9153869   -0.2589730     0.0006388    0.0003047     0.0006760    0.0005131     0.1004234   -0.2833196 
   0.046361581     0.9172564   -0.2629258     0.0004060    0.0008638     0.0006188    0.0005311     0.1010089   -0.2831961 
   0.046461606     0.9144292   -0.2644618     0.0006070    0.0004304     0.0007484    0.0004891     0.1007956   -0.2825387 
   0.046561631     0.9117059   -0.2610240     0.0009191    0.0009325     0.0006307    0.0005313     0.0998682   -0.2817360 
   0.046661656     0.9133845   -0.2616317     0.0005533    0.0007605     0.0006255    0.0004997     0.0999016   -0.2818268 
   0.046761681     0.9132925   -0.2628160     0.0009876    0.0005249     0.0007380    0.0006777     0.0985413   -0.2814978 
   0.046861706     0.9158183   -0.2676973     0.0008299    0.0001029     0.0006665    0.0006038     0.0995829   -0.2819236 
   0.046961731     0.9107127   -0.2633872     0.0006076    0.0003432     0.0006832    0.0006255     0.0994459   -0.2800016 
   0.047061756     0.9088339   -0.2618482     0.0006353    0.0003514     0.0007206    0.0004802     0.0990211   -0.2809481 
   0.047161781     0.9100667   -0.2687332     0.0007450    0.0002744     0.0006845    0.0006037     0.0981153   -0.2789402 
   0.047261806     0.9128467   -0.2685715     0.0007017    0.0003316     0.0007246    0.0005316     0.0979732   -0.2792005 
   0.047361831     0.9142284   -0.2641135     0.0008889    0.0003173     0.0006573    0.0005461     0.0972653   -0.2797983 
   0.047461856     0.9123427   -0.2648820     0.0008475    0.0006755     0.0005905    0.0006626     0.0978244   -0.2791043 
   0.047561881     0.9148213   -0.2657477     0.0005508    0.0004758     0.0005380    0.0004240     0.0979117   -0.2785149 
   0.047661906     0.9123948   -0.2684790     0.0008792    0.0004761     0.0006558    0.0004964     0.0971972   -0.2780261 
   0.047761931     0.9131716   -0.2720298     0.0006938    0.0008928     0.0005539    0.0006305     0.0973022   -0.2770896 
   0.047861956     0.9140251   -0.2681835     0.0004891    0.0005836     0.0005859    0.0006127     0.0969219   -0.2768142 
   0.047961981     0.9105487   -0.2738924     0.0007101    0.0002866     0.0007121    0.0004607     0.0963919   -0.2765953 
   0.048062006     0.9103209   -0.2742642     0.0006635    0.0010412     0.0006543    0.0004732     0.0955570   -0.2762411 
   0.048162031     0.9099918   -0.2739975     0.0002362    0.0007677     0.0006545    0.0005495     0.0949271   -0.2751921 
   0.048262056     0.9072539   -0.2677023     0.0005762    0.0000585     0.0006432    0.0006238     0.0955734   -0.2758731 
   0.048362081     0.9119737   -0.2727369     0.0006601    0.0007285     0.0005594    0.0004059     0.0943038   -0.2750131 
   0.048462106     0.9113668   -0.2705253     0.0014832    0.0008751     0.0007788    0.0005474     0.0942441   -0.2744406 
   0.048562131     0.9106321   -0.2767433     0.0001403    0.0004893     0.0007472    0.0006038     0.0952251   -0.2744858 
   0.048662156     0.9099668   -0.2772490     0.0003296    0.0002979     0.0006033    0.0005425     0.0938472   -0.2740092 
   0.048762181     0.9050296   -0.2757231     0.0008718   -0.0001754     0.0006155    0.0004727     0.0938416   -0.2731245 
   0.048862206     0.9163384   -0.2756048     0.0005619   -0.0000208     0.0005462    0.0007072     0.0935180   -0.2740629 
   0.048962231     0.9123851   -0.2767569     0.0011094    0.0004413     0.0005604    0.0006697     0.0927436   -0.2728341 
   0.049062256     0.9100227   -0.2732943     0.0003468    0.0007294     0.0006488    0.0006161     0.0931318   -0.2726211 
   0.049162281     0.9109302   -0.2753864     0.0007179    0.0004070     0.0007745    0.0005320     0.0923639   -0.2718962 
   0.049262306     0.9113592   -0.2763180     0.0005361    0.0005942     0.0006850    0.0005802     0.0924313   -0.2714139 
   0.049362331     0.9132093   -0.2826431     0.0000026    0.0002077     0.0005858    0.0006128     0.0934276   -0.2711514 
   0.049462356     0.9099479   -0.2817324     0.0004054    0.0004401     0.0007037    0.0005777     0.0907142   -0.2707708 
   0.049562381     0.9098206   -0.2749842     0.0004377    0.0007711     0.0006033    0.0005346     0.0911922   -0.2710510 
   0.049662406     0.9070672   -0.2772356     0.0004463    0.0004503     0.0006525    0.0005388     0.0922761   -0.2705506 
   0.049762431     0.9124311   -0.2828969     0.0014425    0.0002098     0.0006278    0.0003960     0.0907566   -0.2692454 
   0.049862456     0.9087926   -0.2783794     0.0008648    0.0006690     0.0007246    0.0004616     0.0904382   -0.2689265 
   0.049962481     0.9113923   -0.2767842     0.0004469    0.0002593     0.0007072    0.0006359     0.0905392   -0.2691779 
   0.050062506     0.9121482   -0.2820714     0.0003863    0.0004590     0.0007620    0.0004600     0.0899649   -0.2691415 
   0.050162531     0.9114577   -0.2856508     0.0007545    0.0000925     0.0006904    0.0005822     0.0897316   -0.2684158 
   0.050262556     0.9132240   -0.2795523     0.0001667    0.0004856     0.0005313    0.0005875     0.0898437   -0.2676847 
   0.050362581     0.9068984   -0.2886462     0.0011403    0.0006879     0.0006624    0.0005177     0.0894245   -0.2681342 
   0.050462606     0.9045904   -0.2830511     0.0008620    0.0000988     0.0007107    0.0006017     0.0903025   -0.2665986 
   0.050562631     0.9019758   -0.2886286     0.0009535    0.0008144     0.0008694    0.0005995     0.0890763   -0.2670260 
   0.050662656     0.9111411   -0.2836247     0.0004128    0.0008046     0.0008164    0.0007412     0.0885867   -0.2668245 
   0.050762681     0.9043038   -0.2870469     0.0009199    0.0001551     0.0007598    0.0004756     0.0888835   -0.2660598 
   0.050862706     0.9044408   -0.2866214     0.0009803    0.0003907     0.0006168    0.0005760     0.0877949   -0.2656356 
   0.050962731     0.9064318   -0.2890123     0.0005333   -0.0003084     0.0006755    0.0008095     0.0886982   -0.2654592 
   0.051062756     0.9099482   -0.2832308     0.0008948    0.0004812     0.0007047    0.0006408     0.0872594   -0.2654217 
   0.051162781     0.9115410   -0.2893517     0.0007475    0.0005107     0.0006023    0.0007342     0.0883515   -0.2650889 
   0.051262806     0.9063885   -0.2902769     0.0008032    0.0009205     0.0009138    0.0005400     0.0865816   -0.2649269 
   0.051362831     0.9122996   -0.2948470     0.0009338    0.0006085     0.0005809    0.0005156     0.0869283   -0.2643597 
   0.051462856     0.9119476   -0.2895487     0.0000165    0.0004346     0.0005452    0.0006007     0.0869082   -0.2634647 
   0.051562881     0.9111206   -0.2949096     0.0008936    0.0007741     0.0005925    0.0005318     0.0866820   -0.2636452 
   0.051662906     0.9092371   -0.2904797     0.0007020    0.0006591     0.0006782    0.0006474     0.0861952   -0.2627635 
   0.051762931     0.9091167   -0.2909205     0.0006979    0.0003387     0.0007678    0.0006136     0.0859274   -0.2628736 
   0.051862956     0.9095960   -0.2958491     0.0013807    0.0001615     0.0007594    0.0003944     0.0859777   -0.2630007 
   0.051962981     0.9029312   -0.2897605     0.0013386    0.0002514     0.0006328    0.0003902     0.0854606   -0.2622361 
   0.052063007     0.9051431   -0.2962162     0.0009757    0.0004744     0.0007376    0.0006701     0.0853794   -0.2614612 
   0.052163032     0.9008680   -0.2920922     0.0005731    0.0008953     0.0007173    0.0004558     0.0851524   -0.2609117 
   0.052263057     0.9032878   -0.2932307     0.0007603    0.0006797     0.0007756    0.0005615     0.0848850   -0.2613969 
   0.052363082     0.9026576   -0.2928958     0.0003824    0.0004708     0.0007974    0.0005949     0.0849032   -0.2610068 
   0.052463107     0.9050179   -0.2975668     0.0004330    0.0007011     0.0007491    0.0004403     0.0841595   -0.2601243 
   0.052563132     0.9101704   -0.2964591     0.0006657    0.0013661     0.0006916    0.0006054     0.0846960   -0.2600746 
   0.052663157     0.9070639   -0.2995785     0.0009121    0.0007690     0.0006649    0.0003888     0.0837856   -0.2596473 
   0.052763182     0.9011384   -0.2955044     0.0012626    0.0007112     0.0007632    0.0006688     0.0840330   -0.2588670 
   0.052863207     0.9033404   -0.2919886     0.0006985    0.0002079     0.0007204    0.0005318     0.0834983   -0.2599325 
   0.052963232     0.9055421   -0.2985572     0.0007276   -0.0005241     0.0008339    0.0002639     0.0830860   -0.2575437 
   0.053063257     0.9045870   -0.3011905     0.0003967    0.0004098     0.0006307    0.0004193     0.0833381   -0.2574960 
   0.053163282     0.9082130   -0.2994125     0.0006626    0.0006965     0.0006541    0.0005806     0.0830615   -0.2586646 
   0.053263307     0.9061183   -0.3034216     0.0002669    0.0004922     0.0007748    0.0004546     0.0827768   -0.2576067 
   0.053363332     0.8998497   -0.3030668     0.0003262    0.0011035     0.0007984    0.0004242     0.0815729   -0.2567247 
   0.053463357     0.9005887   -0.3031230     0.0011383    0.0003935     0.0005502    0.0005933     0.0828784   -0.2567914 
   0.053563382     0.9057309   -0.2978728     0.0006041    0.0006431     0.0008071    0.0006635     0.0820156   -0.2568187 
   0.053663407     0.9058714   -0.2988355     0.0010639    0.0003204     0.0009628    0.0005367     0.0818125   -0.2566594 
   0.053763432     0.8974333   -0.2976402     0.0005036    0.0013149     0.0008015    0.0003858     0.0827165   -0.2553907 
   0.053863457     0.9063005   -0.3052618     0.0008004    0.0003107     0.0006903    0.0005358     0.0811310   -0.2561612 
   0.053963482     0.9007894   -0.3050627     0.0010415    0.0003292     0.0009935    0.0005908     0.0807337   -0.2552587 
   0.054063507     0.9133574   -0.3008802     0.0003677   -0.0000750     0.0008236    0.0005103     0.0812368   -0.2550657 
   0.054163532     0.8979626   -0.3014729     0.0008178    0.0003843     0.0009286    0.0003762     0.0807931   -0.2548958 
   0.054263557     0.9046701   -0.3060421     0.0005603    0.0006307     0.0007437    0.0005372     0.0794635   -0.2540269 
   0.054363582     0.8960879   -0.3097611     0.0006523    0.0007985     0.0009377    0.0006120     0.0801155   -0.2540389 
   0.054463607     0.8986638   -0.3001776     0.0010210    0.0002360     0.0008428    0.0004815     0.0802367   -0.2534244 
   0.054563632     0.9088062   -0.3082491     0.0010937    0.0008763     0.0008344    0.0006086     0.0795526   -0.2541602 
   0.054663657     0.9002863   -0.3067480     0.0005787    0.0004812     0.0007723    0.0005723     0.0792943   -0.2533844 
   0.054763682     0.9037416   -0.3042974     0.0009659    0.0004041     0.0009047    0.0004784     0.0794130   -0.2523187 
   0.054863707     0.8989192   -0.3073005     0.0011457    0.0011682     0.0008323    0.0005358     0.0801970   -0.2521424 
   0.054963732     0.8955697   -0.3134496     0.0005601    0.0008847     0.0008049    0.0005647     0.0794088   -0.2522608 
   0.055063757     0.8997912   -0.3093955     0.0003512    0.0005691     0.0008223    0.0005606     0.0790243   -0.2525055 
   0.055163782     0.9008871   -0.3116336     0.0012073    0.0000048     0.0005727    0.0002764     0.0780125   -0.2521958 
   0.055263807     0.9027595   -0.3104575     0.0007597    0.0002268     0.0009314    0.0006016     0.0784861   -0.2507237 
   0.055363832     0.8935196   -0.3094700     0.0007081    0.0006683     0.0007639    0.0005447     0.0783100   -0.2509532 
   0.055463857     0.8997627   -0.3138996     0.0013804    0.0002683     0.0007197    0.0005321     0.0776982   -0.2507873 
   0.055563882     0.8980963   -0.3114200     0.0003797    0.0011019     0.0008246    0.0005877     0.0782755   -0.2503414 
   0.055663907     0.8929982   -0.3205624     0.0004859    0.0006297     0.0009452    0.0005238     0.0776738   -0.2504513 
   0.055763932     0.8949030   -0.3073497     0.0011169    0.0006590     0.0007797    0.0004150     0.0776063   -0.2503745 
   0.055863957     0.8934820   -0.3146412     0.0007932    0.0011138     0.0009154    0.0003058     0.0776528   -0.2496694 
   0.055963982     0.9023988   -0.3146589     0.0005626    0.0002425     0.0006804    0.0006695     0.0771507   -0.2490693 
   0.056064007     0.9014892   -0.3125163     0.0009022    0.0002904     0.0009049    0.0006304     0.0758657   -0.2487200 
   0.056164032     0.9016345   -0.3119585     0.0013029    0.0002226     0.0007986    0.0004701     0.0768358   -0.2490451 
   0.056264057     0.9019955   -0.3097932     0.0010340   -0.0002755     0.0008612    0.0003628     0.0763358   -0.2484767 
   0.056364082     0.9002181   -0.3159545     0.0011085    0.0002690     0.0007558    0.0006806     0.0768282   -0.2480720 
   0.056464107     0.8980822   -0.3170052     0.0007809    0.0004551     0.0009852    0.0005946     0.0755497   -0.2479164 
   0.056564132     0.9011106   -0.3134166     0.0009377    0.0007262     0.0010337    0.0004036     0.0757788   -0.2475692 
   0.056664157     0.8960153   -0.3171563     0.0007884    0.0012120     0.0008150    0.0005475     0.0749736   -0.2466842 
   0.056764182     0.8979825   -0.3244522     0.0013034    0.0002269     0.0010771    0.0006912     0.0755661   -0.2471801 
   0.056864207     0.8940713   -0.3133969     0.0002558    0.0003896     0.0008546    0.0006090     0.0743731   -0.2471803 
   0.056964232     0.9006445   -0.3212507     0.0007181    0.0003932     0.0007800    0.0006582     0.0749228   -0.2474041 
   0.057064257     0.8961748   -0.3218024     0.0001837    0.0000975     0.0006811    0.0005093     0.0747727   -0.2459977 
   0.057164282     0.8981320   -0.3237578     0.0005959    0.0009408     0.0008588    0.0005857     0.0738485   -0.2449063 
   0.057264307     0.8934489   -0.3235296     0.0012503   -0.0001415     0.0006375    0.0007730     0.0747424   -0.2465814 
   0.057364332     0.8992332   -0.3233223     0.0010864    0.0011299     0.0010066    0.0008016     0.0744349   -0.2451856 
   0.057464357     0.9051082   -0.3297749     0.0008977    0.0005287     0.0008121    0.0005340     0.0747673   -0.2445812 
   0.057564382     0.8920617   -0.3208542     0.0012314    0.0005838     0.0007977    0.0006359     0.0730718   -0.2459777 
   0.057664407     0.8915627   -0.3214647     0.0006541    0.0004067     0.0007148    0.0005534     0.0736629   -0.2441573 
   0.057764432     0.8943699   -0.3251383     0.0007898    0.0003714     0.0008800    0.0006297     0.0732766   -0.2440281 
   0.057864457     0.9017521   -0.3171663     0.0012805    0.0005422     0.0007621    0.0007744     0.0736332   -0.2444626 
   0.057964482     0.8876138   -0.3240345     0.0006012    0.0008833     0.0007403    0.0006236     0.0726487   -0.2439984 
   0.058064507     0.8961943   -0.3269289     0.0009222    0.0011009     0.0009528    0.0002828     0.0729958   -0.2436429 
   0.058164532     0.8907039   -0.3282640     0.0005796    0.0008726     0.0006587    0.0004443     0.0722948   -0.2436138 
   0.058264557     0.8967879   -0.3298616     0.0009213    0.0004374     0.0011990    0.0006268     0.0716228   -0.2426705 
   0.058364582     0.8932217   -0.3288088     0.0004176    0.0002960     0.0008135    0.0006382     0.0721108   -0.2421276 
   0.058464607     0.8943588   -0.3276646     0.0008118   -0.0002882     0.0008317    0.0005420     0.0723345   -0.2419020 
   0.058564632     0.8995895   -0.3246155     0.0003064    0.0013375     0.0009766    0.0004967     0.0720780   -0.2421978 
   0.058664657     0.8946013   -0.3337750     0.0008063    0.0005657     0.0010750    0.0007697     0.0710675   -0.2411480 
   0.058764682     0.8926717   -0.3276926     0.0013371    0.0008354     0.0010586    0.0004560     0.0718000   -0.2411990 
   0.058864707     0.8982882   -0.3314041     0.0015894    0.0004062     0.0008967    0.0007549     0.0712990   -0.2413211 
   0.058964732     0.8900254   -0.3208404     0.0008221    0.0006770     0.0008472    0.0006727     0.0704588   -0.2409881 
   0.059064757     0.8938182   -0.3274445     0.0012541    0.0006030     0.0008079    0.0005508     0.0720292   -0.2407422 
   0.059164782     0.8942441   -0.3297303     0.0004386    0.0005108     0.0010219    0.0005591     0.0701628   -0.2411270 
   0.059264807     0.8900099   -0.3359816     0.0010938    0.0008055     0.0004924    0.0005768     0.0702581   -0.2397166 
   0.059364832     0.8949655   -0.3384424     0.0009897    0.0009955     0.0009420    0.0006675     0.0707505   -0.2401133 
   0.059464857     0.8906852   -0.3147593     0.0008126   -0.0001359     0.0007856    0.0004374     0.0701072   -0.2394920 
   0.059564882     0.8920301   -0.3322436     0.0013170    0.0008246     0.0010070    0.0004862     0.0705071   -0.2391452 
   0.059664907     0.9020235   -0.3359010     0.0008077    0.0004765     0.0008369    0.0005760     0.0685918   -0.2390558 
   0.059764932     0.8908150   -0.3307076     0.0009462    0.0009519     0.0011536    0.0002723     0.0699738   -0.2396317 
   0.059864957     0.8907235   -0.3302032     0.0010957    0.0012449     0.0010581    0.0006039     0.0693849   -0.2384102 
   0.059964982     0.8954917   -0.3362646     0.0013265    0.0005619     0.0009160    0.0004831     0.0694054   -0.2381281 
   0.060065008     0.8923274   -0.3296504     0.0009700    0.0005647     0.0009855    0.0007085     0.0682972   -0.2378327 
   0.060165033     0.8962476   -0.3408588     0.0014313    0.0010076     0.0007371    0.0005992     0.0688678   -0.2381684 
   0.060265058     0.8900033   -0.3368085     0.0012952    0.0004340     0.0006898    0.0005542     0.0681528   -0.2370131 
   0.060365083     0.8834610   -0.3422669     0.0007753    0.0002434     0.0008784    0.0005786     0.0690647   -0.2365388 
   0.060465108     0.8982232   -0.3369795     0.0015565    0.0003854     0.0010867    0.0006534     0.0684190   -0.2362108 
   0.060565133     0.8851804   -0.3360937     0.0005815    0.0004767     0.0008074    0.0009231     0.0686805   -0.2370172 
   0.060665158     0.8948194   -0.3393854     0.0005914    0.0007342     0.0007753    0.0005339     0.0687381   -0.2362836 
   0.060765183     0.8904130   -0.3334586     0.0007490    0.0008897     0.0007190    0.0005219     0.0680704   -0.2361755 
   0.060865208     0.8902019   -0.3419506     0.0000681    0.0004711     0.0009555    0.0006500     0.0679615   -0.2357164 
   0.060965233     0.8901791   -0.3378440    -0.0000708    0.0011633     0.0009348    0.0005598     0.0670071   -0.2366534 
   0.061065258     0.8890538   -0.3380604     0.0000298    0.0007078     0.0008914    0.0002421     0.0676621   -0.2351044 
   0.061165283     0.8860107   -0.3422236     0.0004794    0.0004069     0.0010155    0.0006343     0.0679459   -0.2355603 
   0.061265308     0.8831680   -0.3446636     0.0007544    0.0011677     0.0009291    0.0004155     0.0670779   -0.2351380 
   0.061365333     0.8917416   -0.3375873     0.0007146    0.0002311     0.0008547    0.0004486     0.0670127   -0.2343388 
   0.061465358     0.8846864   -0.3431113     0.0010967    0.0003436     0.0005271    0.0006244     0.0672780   -0.2345835 
   0.061565383     0.8843789   -0.3416161     0.0004884    0.0003745     0.0006945    0.0005191     0.0670851   -0.2343037 
   0.061665408     0.8850248   -0.3378219     0.0014746    0.0008044     0.0011921    0.0008257     0.0669577   -0.2340162 
   0.061765433     0.8901588   -0.3507426     0.0013685    0.0005516     0.0007173    0.0002570     0.0664408   -0.2342121 
   0.061865458     0.8883377   -0.3370089     0.0012922    0.0007024     0.0009050    0.0003568     0.0658160   -0.2333852 
   0.061965483     0.8881369   -0.3421031     0.0001940    0.0011563     0.0010159    0.0003034     0.0662796   -0.2331956 
   0.062065508     0.8786153   -0.3445583     0.0006927    0.0001092     0.0005382    0.0009015     0.0654534   -0.2325418 
   0.062165533     0.8826720   -0.3415879     0.0013252    0.0012492     0.0010910    0.0001687     0.0657376   -0.2322856 
   0.062265558     0.8858103   -0.3614533     0.0009962    0.0008772     0.0007631    0.0007435     0.0650516   -0.2325941 
   0.062365583     0.8845024   -0.3539150     0.0006408    0.0004269     0.0006841    0.0006039     0.0644151   -0.2321475 
   0.062465608     0.8823399   -0.3564535     0.0013887    0.0000887     0.0006522    0.0006203     0.0656848   -0.2317202 
   0.062565633     0.8882751   -0.3578449     0.0018054    0.0008957     0.0009883    0.0004998     0.0648841   -0.2319766 
   0.062665658     0.8790382   -0.3451961     0.0009595    0.0003649     0.0008934    0.0004226     0.0642982   -0.2319362 
   0.062765683     0.8862370   -0.3542942     0.0007182    0.0007328     0.0007835    0.0004646     0.0639902   -0.2310390 
   0.062865708     0.8819330   -0.3455153     0.0010599    0.0008309     0.0013532    0.0007512     0.0645285   -0.2325505 
   0.062965733     0.8859683   -0.3467772     0.0004555   -0.0000597     0.0009806    0.0004368     0.0648449   -0.2304612 
   0.063065758     0.8829199   -0.3594135     0.0011914    0.0009579     0.0009568    0.0005963     0.0647332   -0.2307516 
   0.063165783     0.8781638   -0.3439561     0.0012103    0.0004452     0.0005715    0.0006851     0.0638940   -0.2309643 
   0.063265808     0.8792999   -0.3428704     0.0006386    0.0006732     0.0011145    0.0007100     0.0633071   -0.2305132 
   0.063365833     0.8877311   -0.3498684     0.0011277    0.0000770     0.0008040    0.0006418     0.0641734   -0.2297841 
   0.063465858     0.8881394   -0.3516258     0.0008233    0.0004220     0.0008379    0.0006545     0.0625495   -0.2291027 
   0.063565883     0.8879722   -0.3553520     0.0015213   -0.0000283     0.0009528    0.0007800     0.0635903   -0.2295346 
   0.063665908     0.8854795   -0.3531247     0.0012640    0.0009311     0.0008766    0.0004584     0.0637072   -0.2283553 
   0.063765933     0.8917143   -0.3567619     0.0007759   -0.0002352     0.0011308    0.0005559     0.0625554   -0.2290093 
   0.063865958     0.8862953   -0.3530551     0.0008665   -0.0001641     0.0009393    0.0007887     0.0626163   -0.2286718 
   0.063965983     0.8787299   -0.3560678     0.0008394   -0.0000664     0.0008306    0.0004134     0.0626680   -0.2288883 
   0.064066008     0.8773160   -0.3614627    -0.0002044    0.0008699     0.0012301    0.0004189     0.0624534   -0.2285208 
   0.064166033     0.8859519   -0.3586302     0.0019129    0.0002177     0.0009114    0.0005924     0.0621254   -0.2281887 
   0.064266058     0.8831899   -0.3558377     0.0008824    0.0009215     0.0008954    0.0007776     0.0613261   -0.2280748 
   0.064366083     0.8737536   -0.3501844     0.0007268    0.0005489     0.0010455    0.0005404     0.0619346   -0.2272603 
   0.064466108     0.8848795   -0.3546997     0.0002167   -0.0000306     0.0012557    0.0004232     0.0609220   -0.2270954 
   0.064566133     0.8826413   -0.3639253     0.0014633    0.0001834     0.0007975    0.0004832     0.0621239   -0.2266062 
   0.064666158     0.8781567   -0.3613440     0.0007412    0.0005669     0.0010123    0.0007413     0.0610156   -0.2266709 
   0.064766183     0.8790928   -0.3597302     0.0005286    0.0003071     0.0006181    0.0008702     0.0608532   -0.2268896 
   0.064866208     0.8846041   -0.3612383     0.0016184    0.0007289     0.0008897    0.0008507     0.0621558   -0.2263965 
   0.064966233     0.8769228   -0.3652515     0.0009346    0.0004365     0.0009210    0.0001603     0.0616113   -0.2259604 
   0.065066258     0.8898432   -0.3648171     0.0010633    0.0003221     0.0008965    0.0004388     0.0612717   -0.2262815 
   0.065166283     0.8743267   -0.3657612     0.0006502   -0.0001951     0.0010013    0.0006162     0.0611003   -0.2262181 
   0.065266308     0.8840634   -0.3652664     0.0008754    0.0003138     0.0009987    0.0004878     0.0610170   -0.2258483 
   0.065366333     0.8783195   -0.3543084     0.0007014    0.0001923     0.0010017    0.0003207     0.0612016   -0.2253998 
   0.065466358     0.8806349   -0.3594452     0.0004257    0.0002970     0.0010210    0.0004167     0.0598416   -0.2256075 
   0.065566383     0.8829362   -0.3650033     0.0004258    0.0004729     0.0007780    0.0003975     0.0599094   -0.2255073 
   0.065666408     0.8801998   -0.3654898     0.0009173    0.0005288     0.0008793    0.0005821     0.0603873   -0.2252003 
   0.065766433     0.8657117   -0.3571582     0.0008483    0.0007702     0.0010342    0.0002251     0.0596655   -0.2245658 
   0.065866458     0.8760411   -0.3633116     0.0006216   -0.0000464     0.0009668    0.0006968     0.0602537   -0.2247120 
   0.065966483     0.8850756   -0.3638107     0.0006144   -0.0006338     0.0006952    0.0005339     0.0599993   -0.2235121 
   0.066066508     0.8763615   -0.3794968     0.0001216    0.0007281     0.0006777    0.0004791     0.0590518   -0.2241386 
   0.066166533     0.8767039   -0.3574669     0.0010112    0.0008749     0.0008483    0.0006185     0.0586093   -0.2239367 
   0.066266558     0.8835380   -0.3756577     0.0003213    0.0003855     0.0009464    0.0004684     0.0605931   -0.2233061 
   0.066366583     0.8641539   -0.3797116     0.0004950    0.0009181     0.0011244    0.0007770     0.0585509   -0.2235214 
   0.066466608     0.8778456   -0.3713757     0.0011359    0.0006196     0.0006724    0.0007982     0.0594012   -0.2233542 
   0.066566633     0.8772882   -0.3738760     0.0003940    0.0001712     0.0007534    0.0006364     0.0578048   -0.2231556 
   0.066666658     0.8690920   -0.3640007     0.0018675    0.0009735     0.0010822    0.0002897     0.0593460   -0.2236581 
   0.066766683     0.8776021   -0.3686308     0.0004757    0.0015145     0.0010207    0.0002956     0.0587324   -0.2227469 
   0.066866708     0.8841587   -0.3701236     0.0008206    0.0009831     0.0007003    0.0005030     0.0583287   -0.2225716 
   0.066966733     0.8769536   -0.3745573     0.0000625    0.0007494     0.0005869    0.0005800     0.0587404   -0.2223665 
   0.067066758     0.8789965   -0.3727769     0.0016805    0.0001757     0.0010846    0.0003088     0.0571127   -0.2218278 
   0.067166783     0.8753335   -0.3766563     0.0006044    0.0008311     0.0011565    0.0007268     0.0579723   -0.2215573 
   0.067266808     0.8778541   -0.3730524     0.0018128    0.0004715     0.0008951    0.0004338     0.0580180   -0.2211623 
   0.067366833     0.8702208   -0.3699818     0.0008682    0.0009808     0.0011418    0.0004110     0.0580212   -0.2210063 
   0.067466858     0.8704015   -0.3690350     0.0013972    0.0002927     0.0008080    0.0005480     0.0573177   -0.2204762 
   0.067566883     0.8735129   -0.3762266     0.0014864    0.0009472     0.0012104    0.0006308     0.0571560   -0.2203797 
   0.067666908     0.8633406   -0.3739108     0.0009697    0.0008474     0.0008709    0.0004644     0.0576663   -0.2218490 
   0.067766933     0.8676183   -0.3750330     0.0018614   -0.0002375     0.0012971    0.0003771     0.0578471   -0.2214720 
   0.067866958     0.8766433   -0.3671520     0.0011343    0.0010019     0.0008819    0.0007488     0.0574873   -0.2195447 
   0.067966983     0.8778673   -0.3703675     0.0019721    0.0002829     0.0008585    0.0006383     0.0564317   -0.2211915 
   0.068067009     0.8751063   -0.3787916     0.0013042    0.0010215     0.0009087    0.0001314     0.0566774   -0.2201793 
   0.068167034     0.8761851   -0.3821673     0.0008902    0.0007019     0.0008814    0.0005858     0.0571208   -0.2205374 
   0.068267059     0.8730656   -0.3700801     0.0011842    0.0004741     0.0009351    0.0004504     0.0571716   -0.2193398 
   0.068367084     0.8634820   -0.3734820     0.0017399    0.0006691     0.0008757    0.0006228     0.0567673   -0.2192479 
   0.068467109     0.8751327   -0.3835955     0.0011214    0.0004047     0.0008311    0.0007253     0.0563182   -0.2197974 
   0.068567134     0.8785314   -0.3829466     0.0015558    0.0002203     0.0010636    0.0005877     0.0556971   -0.2190649 
   0.068667159     0.8801753   -0.3743864     0.0015272    0.0014802     0.0008208    0.0005496     0.0552960   -0.2198947 
   0.068767184     0.8609212   -0.3834003     0.0000741    0.0005251     0.0007449    0.0005344     0.0575281   -0.2187299 
   0.068867209     0.8696404   -0.3835092     0.0008769    0.0011289     0.0007515    0.0007730     0.0556305   -0.2186406 
   0.068967234     0.8685574   -0.3765176     0.0014165   -0.0000079     0.0010891    0.0006070     0.0551134   -0.2182408 
   0.069067259     0.8770573   -0.3855187     0.0013881    0.0003238     0.0012386    0.0005159     0.0555270   -0.2172004 
   0.069167284     0.8758429   -0.3836115     0.0004207    0.0000304     0.0012662    0.0002917     0.0556104   -0.2186644 
   0.069267309     0.8693863   -0.3782154     0.0011119    0.0004811     0.0009401    0.0006249     0.0553047   -0.2177675 
   0.069367334     0.8675928   -0.3914494     0.0005189    0.0000760     0.0009826    0.0009084     0.0554396   -0.2177886 
   0.069467359     0.8651512   -0.3797476     0.0008228    0.0013370     0.0008815    0.0007128     0.0547595   -0.2174332 
   0.069567384     0.8772134   -0.3816214     0.0005977    0.0008133     0.0008110    0.0009243     0.0544660   -0.2171609 
   0.069667409     0.8690685   -0.3828962     0.0009024   -0.0002673     0.0011598    0.0002619     0.0539254   -0.2169385 
   0.069767434     0.8637871   -0.3852844     0.0015076   -0.0008939     0.0005522    0.0002107     0.0544918   -0.2160615 
   0.069867459     0.8744755   -0.3800901     0.0006967    0.0002826     0.0008857    0.0004357     0.0535377   -0.2163798 
   0.069967484     0.8700891   -0.3918509     0.0015499   -0.0001410     0.0008064    0.0005949     0.0546166   -0.2169500 
   0.070067509     0.8711422   -0.3835562     0.0010692    0.0011606     0.0008516    0.0006243     0.0537853   -0.2167580 
   0.070167534     0.8766870   -0.3803589     0.0007701    0.0009183     0.0011027    0.0002787     0.0536342   -0.2155253 
   0.070267559     0.8671483   -0.3971051     0.0012586    0.0007492     0.0010750    0.0007988     0.0545411   -0.2156832 
   0.070367584     0.8634395   -0.3782583     0.0003650    0.0019175     0.0011362    0.0006445     0.0536537   -0.2157837 
   0.070467609     0.8746838   -0.3911327     0.0006818   -0.0001638     0.0010093    0.0002656     0.0530601   -0.2152694 
   0.070567634     0.8698226   -0.3834656     0.0008724   -0.0000011     0.0009776    0.0006844     0.0528439   -0.2145692 
   0.070667659     0.8647364   -0.3928842     0.0008490    0.0006089     0.0008930    0.0002258     0.0532529   -0.2152521 
   0.070767684     0.8675929   -0.3854261     0.0018625    0.0002216     0.0010600    0.0005001     0.0524899   -0.2143615 
   0.070867709     0.8696309   -0.3967642     0.0007274    0.0001270     0.0011997    0.0006666     0.0536509   -0.2147925 
   0.070967734     0.8604794   -0.3852230     0.0012415    0.0007427     0.0009688    0.0004389     0.0532842   -0.2147019 
   0.071067759     0.8706076   -0.4004001     0.0012227    0.0005449     0.0015028    0.0004702     0.0531808   -0.2130691 
   0.071167784     0.8632546   -0.3951871     0.0004944    0.0008810     0.0009504    0.0003224     0.0527756   -0.2141780 
   0.071267809     0.8660315   -0.3913648     0.0009907    0.0011403     0.0011705    0.0005889     0.0523821   -0.2136128 
   0.071367834     0.8600556   -0.4045398     0.0008667    0.0002701     0.0008800    0.0004914     0.0530465   -0.2126832 
   0.071467859     0.8593955   -0.3970968     0.0008212    0.0003511     0.0015088    0.0005479     0.0517590   -0.2133430 
   0.071567884     0.8668085   -0.3924422     0.0007139    0.0008014     0.0011186    0.0003663     0.0520233   -0.2129713 
   0.071667909     0.8652582   -0.4000272     0.0008268    0.0014636     0.0006999    0.0010463     0.0519637   -0.2131514 
   0.071767934     0.8608188   -0.3989059     0.0001028    0.0008893     0.0009504    0.0000909     0.0518367   -0.2135572 
   0.071867959     0.8578584   -0.3947520     0.0007319    0.0009849     0.0012217    0.0002612     0.0515402   -0.2129461 
   0.071967984     0.8636082   -0.3985543     0.0008021   -0.0000679     0.0007168    0.0004763     0.0521430   -0.2125901 
   0.072068009     0.8647154   -0.3973786     0.0016068    0.0001678     0.0010177    0.0003201     0.0512023   -0.2123760 
   0.072168034     0.8750967   -0.4023295     0.0006404    0.0000821     0.0009999    0.0007729     0.0515537   -0.2122426 
   0.072268059     0.8675371   -0.3996018     0.0009312    0.0000503     0.0008127    0.0002346     0.0506340   -0.2114054 
   0.072368084     0.8599666   -0.4037544     0.0003983    0.0010998     0.0009228    0.0005287     0.0513688   -0.2120149 
   0.072468109     0.8559448   -0.3966560     0.0009083    0.0004377     0.0005149    0.0005319     0.0512669   -0.2123173 
   0.072568134     0.8625769   -0.3988689     0.0006585    0.0004714     0.0011228    0.0006232     0.0511128   -0.2113824 
   0.072668159     0.8540850   -0.3940923     0.0009943   -0.0002276     0.0011004    0.0007038     0.0507789   -0.2110726 
   0.072768184     0.8566847   -0.4089289     0.0008881    0.0004717     0.0010477    0.0003203     0.0504933   -0.2113202 
   0.072868209     0.8614927   -0.4057634     0.0006677   -0.0004655     0.0006755    0.0002109     0.0497889   -0.2111782 
   0.072968234     0.8617684   -0.4039200     0.0008003    0.0001992     0.0010026    0.0003604     0.0516212   -0.2111589 
   0.073068259     0.8539999   -0.4097511     0.0009494    0.0003431     0.0009391    0.0005652     0.0508151   -0.2109381 
   0.073168284     0.8595240   -0.3919747     0.0011384   -0.0008826     0.0007824    0.0003624     0.0495572   -0.2103214 
   0.073268309     0.8631209   -0.4045230     0.0007870    0.0008310     0.0009977    0.0006614     0.0496349   -0.2101572 
   0.073368334     0.8599740   -0.3926786     0.0009758    0.0000266     0.0007926    0.0007756     0.0497759   -0.2100379 
   0.073468359     0.8564995   -0.3969704     0.0003442    0.0007836     0.0011777    0.0006027     0.0492887   -0.2089706 
   0.073568384     0.8588998   -0.4057921     0.0007222    0.0011313     0.0011463    0.0003952     0.0493084   -0.2103147 
   0.073668409     0.8503060   -0.3961640     0.0010433    0.0002823     0.0013565    0.0004148     0.0494626   -0.2095889 
   0.073768434     0.8610199   -0.4119278     0.0012658   -0.0000554     0.0009278    0.0005586     0.0495664   -0.2090465 
   0.073868459     0.8623837   -0.4088013     0.0003918    0.0005524     0.0008104    0.0004578     0.0490410   -0.2095860 
   0.073968484     0.8504482   -0.4071818     0.0009295    0.0002128     0.0010941    0.0001529     0.0490932   -0.2093728 
   0.074068509     0.8526054   -0.4075083     0.0004147   -0.0001687     0.0010659    0.0001668     0.0487865   -0.2088452 
   0.074168534     0.8583878   -0.4054544     0.0011253    0.0006881     0.0010918    0.0003632     0.0486087   -0.2089534 
   0.074268559     0.8491358   -0.4191900     0.0001808    0.0005885     0.0011598    0.0005620     0.0486672   -0.2089371 
   0.074368584     0.8614925   -0.4035193     0.0007568    0.0006188     0.0010438    0.0004673     0.0496601   -0.2090525 
   0.074468609     0.8616291   -0.4103982     0.0014405    0.0008603     0.0008043    0.0001108     0.0491504   -0.2079963 
   0.074568634     0.8704141   -0.4169973     0.0008267   -0.0001586     0.0009509    0.0004666     0.0491068   -0.2082331 
   0.074668659     0.8539242   -0.4160008     0.0008289    0.0013329     0.0012748    0.0005142     0.0476342   -0.2085935 
   0.074768684     0.8569751   -0.4015759     0.0008744    0.0006435     0.0013464    0.0007338     0.0485389   -0.2074897 
   0.074868709     0.8519551   -0.4134139     0.0021050   -0.0003781     0.0013418    0.0003407     0.0484760   -0.2077374 
   0.074968734     0.8544868   -0.3914585     0.0008332    0.0008852     0.0010710    0.0005604     0.0481650   -0.2081050 
   0.075068759     0.8597685   -0.4152125     0.0008742   -0.0000109     0.0012302    0.0001059     0.0474198   -0.2073626 
   0.075168784     0.8592242   -0.4154041     0.0017988    0.0011096     0.0009443    0.0000757     0.0477666   -0.2079487 
   0.075268809     0.8617870   -0.4121387     0.0010823    0.0010217     0.0009054    0.0008011     0.0481725   -0.2071279 
   0.075368834     0.8565803   -0.4157780     0.0011435    0.0003507     0.0012039    0.0003001     0.0478737   -0.2067768 
   0.075468859     0.8569685   -0.4115420     0.0004939    0.0012192     0.0011258    0.0005613     0.0467361   -0.2057518 
   0.075568884     0.8470581   -0.4080014     0.0013486    0.0010193     0.0011309    0.0002643     0.0474824   -0.2059447 
   0.075668909     0.8576765   -0.4171352     0.0016118    0.0007867     0.0011830    0.0004678     0.0463217   -0.2067639 
   0.075768934     0.8523408   -0.4229168     0.0016689    0.0008534     0.0011478    0.0003213     0.0473470   -0.2057248 
   0.075868959     0.8469111   -0.4229090     0.0015325    0.0004689     0.0010654    0.0004405     0.0471126   -0.2065081 
   0.075968984     0.8499553   -0.4156073     0.0007164    0.0005357     0.0014310    0.0002695     0.0472040   -0.2055590 
   0.076069010     0.8621024   -0.4145867     0.0005268    0.0000998     0.0008699    0.0000905     0.0477161   -0.2054395 
   0.076169035     0.8567781   -0.4336502     0.0020041    0.0006942     0.0011083    0.0005252     0.0459846   -0.2055561 
   0.076269060     0.8520083   -0.4158575     0.0003278    0.0007070     0.0011379    0.0003928     0.0453247   -0.2052826 
   0.076369085     0.8486686   -0.4204004     0.0010495    0.0003341     0.0012904    0.0008123     0.0478149   -0.2051331 
   0.076469110     0.8552436   -0.4269733     0.0008327   -0.0000728     0.0010239    0.0001315     0.0463660   -0.2059177 
   0.076569135     0.8475108   -0.4204468     0.0008365   -0.0002533     0.0009224    0.0004787     0.0465957   -0.2049275 
   0.076669160     0.8585928   -0.4120969     0.0004052    0.0000081     0.0009705    0.0003015     0.0463081   -0.2057237 
   0.076769185     0.8470240   -0.4093183     0.0007453    0.0005642     0.0012711    0.0006421     0.0459057   -0.2043699 
   0.076869210     0.8560273   -0.4219950     0.0010256    0.0004218     0.0008697    0.0004156     0.0462918   -0.2043049 
   0.076969235     0.8504986   -0.4227170     0.0016506    0.0010334     0.0010177    0.0003493     0.0462358   -0.2044655 
   0.077069260     0.8503920   -0.4234123     0.0009554    0.0012823     0.0009146    0.0003620     0.0461948   -0.2045863 
   0.077169285     0.8422815   -0.4168515     0.0004034    0.0001650     0.0011572    0.0003905     0.0449123   -0.2041945 
   0.077269310     0.8505371   -0.4161440     0.0020188    0.0004606     0.0013400    0.0003803     0.0457763   -0.2048119 
   0.077369335     0.8532162   -0.4289953     0.0014143   -0.0006564     0.0012914    0.0000250     0.0455233   -0.2036358 
   0.077469360     0.8400952   -0.4235350     0.0009758   -0.0000995     0.0004459    0.0004966     0.0443718   -0.2035994 
   0.077569385     0.8551023   -0.4286886     0.0018296    0.0010280     0.0014664    0.0004265     0.0455155   -0.2036890 
   0.077669410     0.8493688   -0.4259856     0.0017116   -0.0004304     0.0011510    0.0005632     0.0445886   -0.2043083 
   0.077769435     0.8419476   -0.4205993     0.0011149    0.0002848     0.0010861    0.0004419     0.0449798   -0.2025433 
   0.077869460     0.8384899   -0.4292635     0.0006631    0.0004779     0.0011306    0.0003789     0.0451748   -0.2029394 
   0.077969485     0.8461654   -0.4307090     0.0022859    0.0004443     0.0012615    0.0005777     0.0445954   -0.2025325 
   0.078069510     0.8392483   -0.4333114     0.0013286   -0.0001756     0.0013047    0.0004459     0.0442534   -0.2029325 
   0.078169535     0.8471256   -0.4207571     0.0009586    0.0001548     0.0008937    0.0005184     0.0437987   -0.2029548 
   0.078269560     0.8451451   -0.4300427     0.0009427   -0.0000145     0.0008324    0.0005439     0.0441093   -0.2025745 
   0.078369585     0.8451099   -0.4157461     0.0007734    0.0003490     0.0009788    0.0001649     0.0437136   -0.2034659 
   0.078469610     0.8419389   -0.4370216     0.0011354    0.0007284     0.0013417    0.0001975     0.0441606   -0.2024552 
   0.078569635     0.8412073   -0.4380339     0.0005969   -0.0000205     0.0011569    0.0002788     0.0435961   -0.2025293 
   0.078669660     0.8487824   -0.4198878     0.0022085    0.0001710     0.0011382    0.0007237     0.0435697   -0.2021230 
   0.078769685     0.8414790   -0.4275776     0.0010903    0.0007432     0.0010678    0.0006003     0.0441501   -0.2016022 
   0.078869710     0.8520445   -0.4303432     0.0015674    0.0005404     0.0012055    0.0004711     0.0433722   -0.2018285 
   0.078969735     0.8469601   -0.4345583     0.0021607    0.0007532     0.0009938    0.0006831     0.0431263   -0.2014105 
   0.079069760     0.8435570   -0.4361592     0.0005232    0.0002769     0.0011709    0.0005141     0.0432886   -0.2014219 
   0.079169785     0.8338565   -0.4303123     0.0011759    0.0001521     0.0008906    0.0004667     0.0431488   -0.2016742 
   0.079269810     0.8357416   -0.4233004     0.0007698    0.0004702     0.0009658    0.0006052     0.0432850   -0.2009210 
   0.079369835     0.8527479   -0.4297539     0.0003058    0.0009224     0.0011782    0.0003119     0.0426040   -0.2006864 
   0.079469860     0.8378453   -0.4336876     0.0008885    0.0005643     0.0010509    0.0004644     0.0438235   -0.2003812 
   0.079569885     0.8402715   -0.4332846     0.0014557    0.0006905     0.0013074    0.0007159     0.0427131   -0.2004608 
   0.079669910     0.8411021   -0.4307176     0.0015112    0.0001812     0.0009051    0.0005323     0.0419497   -0.2004260 
   0.079769935     0.8480313   -0.4348537     0.0009883    0.0000402     0.0013671    0.0005336     0.0423523   -0.2010451 
   0.079869960     0.8364332   -0.4376225     0.0007504    0.0003912     0.0010774    0.0003914     0.0430455   -0.2001308 
   0.079969985     0.8536416   -0.4358777     0.0007225    0.0012253     0.0012028    0.0003165     0.0424308   -0.2002501 
   0.080070010     0.8444170   -0.4357156     0.0023797    0.0003313     0.0009335    0.0005483     0.0422738   -0.2000024 
   0.080170035     0.8351862   -0.4331174     0.0010385    0.0000181     0.0013530    0.0002965     0.0419700   -0.2003946 
   0.080270060     0.8377150   -0.4403975     0.0011003    0.0001619     0.0011331    0.0001250     0.0415334   -0.1991695 
   0.080370085     0.8384036   -0.4384496     0.0011535    0.0009093     0.0017146    0.0003488     0.0412880   -0.1993021 
   0.080470110     0.8452775   -0.4494297     0.0016712   -0.0002130     0.0014027    0.0002692     0.0419500   -0.1997841 
   0.080570135     0.8454623   -0.4352705     0.0020378    0.0005270     0.0013986    0.0005206     0.0417775   -0.1992283 
   0.080670160     0.8373173   -0.4404278     0.0011684    0.0004378     0.0009491    0.0005523     0.0411251   -0.2001284 
   0.080770185     0.8306575   -0.4374268     0.0011403    0.0000077     0.0016178    0.0007321     0.0412221   -0.1998796 
   0.080870210     0.8349904   -0.4402429     0.0008799   -0.0000669     0.0006286   -0.0000693     0.0409474   -0.1995804 
   0.080970235     0.8399822   -0.4382219     0.0009318    0.0006718     0.0009308    0.0007310     0.0413745   -0.1995226 
   0.081070260     0.8330610   -0.4436635     0.0014607    0.0004744     0.0012790    0.0003198     0.0418368   -0.1987010 
   0.081170285     0.8355616   -0.4438017     0.0014197    0.0008085     0.0009919    0.0007616     0.0409228   -0.1983423 
   0.081270310     0.8419471   -0.4450187     0.0019966    0.0007188     0.0012105    0.0002307     0.0408572   -0.1985115 
   0.081370335     0.8359030   -0.4497833     0.0000966    0.0000315     0.0009934    0.0004283     0.0404439   -0.1984294 
   0.081470360     0.8385578   -0.4423594     0.0010399    0.0007866     0.0011781    0.0004598     0.0417667   -0.1976308 
   0.081570385     0.8372566   -0.4469984     0.0012995    0.0002277     0.0010547    0.0004051     0.0401345   -0.1978391 
   0.081670410     0.8449993   -0.4377681     0.0005696    0.0008251     0.0011575    0.0006693     0.0405812   -0.1979603 
   0.081770435     0.8417080   -0.4463762     0.0013796    0.0005422     0.0012543    0.0002352     0.0399079   -0.1974975 
   0.081870460     0.8299684   -0.4488452     0.0011976    0.0000256     0.0011229    0.0003686     0.0402657   -0.1979815 
   0.081970485     0.8358267   -0.4377341     0.0005482    0.0001507     0.0011233    0.0004577     0.0391619   -0.1973896 
   0.082070510     0.8499048   -0.4473259     0.0010734    0.0005130     0.0009625    0.0004051     0.0397115   -0.1979108 
   0.082170535     0.8377467   -0.4461032     0.0010822   -0.0003823     0.0007548    0.0006134     0.0402136   -0.1972992 
   0.082270560     0.8308862   -0.4519273     0.0009969    0.0007933     0.0011171    0.0002697     0.0404809   -0.1972556 
   0.082370585     0.8427104   -0.4561799     0.0011563    0.0004556     0.0015474    0.0004833     0.0392956   -0.1973353 
   0.082470610     0.8356534   -0.4499362     0.0021104    0.0005025     0.0012568    0.0005682     0.0401629   -0.1965203 
   0.082570635     0.8312369   -0.4530698     0.0020284    0.0003872     0.0013184    0.0004016     0.0394249   -0.1967835 
   0.082670660     0.8249849   -0.4502920     0.0012134    0.0002864     0.0011012    0.0005460     0.0392136   -0.1969035 
   0.082770685     0.8241591   -0.4425400     0.0013129   -0.0003947     0.0009461    0.0005706     0.0391031   -0.1953175 
   0.082870710     0.8230868   -0.4547539     0.0005914    0.0006261     0.0010891    0.0003384     0.0395467   -0.1956869 
   0.082970735     0.8355775   -0.4510283     0.0004415    0.0007925     0.0012483    0.0006234     0.0392781   -0.1966879 
   0.083070760     0.8390279   -0.4516979     0.0012855    0.0001867     0.0010590    0.0009571     0.0391988   -0.1956170 
   0.083170785     0.8290213   -0.4518938     0.0010802    0.0005776     0.0013130    0.0003163     0.0383092   -0.1966072 
   0.083270810     0.8272569   -0.4583149     0.0015963    0.0009614     0.0012810    0.0002118     0.0385098   -0.1957863 
   0.083370835     0.8260503   -0.4481049     0.0005572    0.0004021     0.0012292    0.0005620     0.0392717   -0.1964189 
   0.083470860     0.8315880   -0.4593031     0.0012827    0.0007292     0.0011801    0.0003137     0.0375793   -0.1952811 
   0.083570885     0.8378720   -0.4463531     0.0013497    0.0007520     0.0011123    0.0001819     0.0381049   -0.1950873 
   0.083670910     0.8367038   -0.4555257     0.0012422   -0.0001767     0.0013382    0.0004946     0.0381984   -0.1948459 
   0.083770935     0.8198215   -0.4524485     0.0003959    0.0005455     0.0011877    0.0004519     0.0382293   -0.1948052 
   0.083870960     0.8297381   -0.4568224     0.0014757    0.0001588     0.0012983    0.0001084     0.0380669   -0.1953000 
   0.083970985     0.8290516   -0.4544626     0.0018570    0.0001551     0.0013165    0.0004000     0.0374107   -0.1948556 
   0.084071011     0.8362170   -0.4555726     0.0016061    0.0012174     0.0010809    0.0002042     0.0374613   -0.1953887 
   0.084171036     0.8290164   -0.4542600     0.0010100    0.0006177     0.0008904    0.0004885     0.0367425   -0.1947824 
   0.084271061     0.8365484   -0.4617008     0.0017797    0.0007013     0.0005579    0.0005627     0.0378510   -0.1946188 
   0.084371086     0.8274806   -0.4668167     0.0006160    0.0007553     0.0008126    0.0005252     0.0372664   -0.1944302 
   0.084471111     0.8297241   -0.4592751     0.0010163    0.0004879     0.0011200    0.0004497     0.0376732   -0.1949565 
   0.084571136     0.8429516   -0.4576267     0.0010769    0.0001697     0.0010561    0.0003634     0.0369142   -0.1945688 
   0.084671161     0.8234847   -0.4610761     0.0018602   -0.0000830     0.0007420    0.0003403     0.0373768   -0.1944723 
   0.084771186     0.8251951   -0.4542541     0.0016768    0.0002257     0.0010816    0.0006524     0.0367019   -0.1939037 
   0.084871211     0.8338311   -0.4755040     0.0010111    0.0007174     0.0012101    0.0002760     0.0371309   -0.1941118 
   0.084971236     0.8348400   -0.4562674     0.0004528    0.0006220     0.0011535    0.0002338     0.0369864   -0.1939635 
   0.085071261     0.8229058   -0.4615269     0.0013525    0.0005068     0.0011245    0.0004376     0.0367869   -0.1935792 
   0.085171286     0.8317179   -0.4633494     0.0011381    0.0003480     0.0010869    0.0008268     0.0363166   -0.1944112 
   0.085271311     0.8180236   -0.4592353     0.0010655    0.0007079     0.0007808    0.0004382     0.0355871   -0.1934016 
   0.085371336     0.8380586   -0.4634217     0.0010592    0.0009138     0.0013323    0.0003691     0.0367444   -0.1939710 
   0.085471361     0.8239709   -0.4599065     0.0016994   -0.0003241     0.0013788    0.0001685     0.0352595   -0.1936148 
   0.085571386     0.8296313   -0.4737551     0.0017534    0.0008169     0.0013294    0.0005825     0.0365650   -0.1934058 
   0.085671411     0.8282681   -0.4698916     0.0009301    0.0000111     0.0014761    0.0004509     0.0360490   -0.1935211 
   0.085771436     0.8258904   -0.4655058     0.0010764    0.0006156     0.0015114    0.0003466     0.0363045   -0.1935858 
   0.085871461     0.8220793   -0.4679530     0.0014616    0.0010337     0.0012293    0.0004876     0.0362807   -0.1932378 
   0.085971486     0.8166179   -0.4686019     0.0013360    0.0004411     0.0013524    0.0002914     0.0363353   -0.1924370 
   0.086071511     0.8200978   -0.4789730     0.0018454    0.0007714     0.0011392    0.0001408     0.0359539   -0.1927030 
   0.086171536     0.8190410   -0.4663484     0.0001896    0.0011102     0.0011738    0.0001728     0.0357379   -0.1927940 
   0.086271561     0.8162755   -0.4686460     0.0012924   -0.0004694     0.0008246    0.0004845     0.0358153   -0.1920952 
   0.086371586     0.8217244   -0.4764466     0.0015275    0.0000006     0.0013048    0.0003833     0.0367595   -0.1927219 
   0.086471611     0.8171384   -0.4707215     0.0011226    0.0007802     0.0014083    0.0002866     0.0358602   -0.1927271 
   0.086571636     0.8259667   -0.4659404     0.0013643    0.0005967     0.0012359    0.0005258     0.0361435   -0.1921678 
   0.086671661     0.8219064   -0.4634835     0.0009706    0.0004182     0.0015947    0.0005454     0.0351902   -0.1915231 
   0.086771686     0.8234345   -0.4655689     0.0014904    0.0006695     0.0012982    0.0002051     0.0352094   -0.1924302 
   0.086871711     0.8299643   -0.4653033     0.0012862    0.0001654     0.0013776    0.0003225     0.0343724   -0.1920364 
   0.086971736     0.8226520   -0.4705911     0.0018147    0.0001922     0.0012289    0.0001770     0.0353232   -0.1916266 
   0.087071761     0.8205215   -0.4643503     0.0011380    0.0005925     0.0011712    0.0001790     0.0339778   -0.1928658 
   0.087171786     0.8283010   -0.4737826     0.0010997   -0.0003266     0.0011566    0.0005772     0.0341691   -0.1914844 
   0.087271811     0.8302993   -0.4622931     0.0009917    0.0010000     0.0012336    0.0004401     0.0344974   -0.1911186 
   0.087371836     0.8154048   -0.4728894     0.0007958   -0.0002515     0.0016033    0.0003187     0.0345553   -0.1914340 
   0.087471861     0.8204328   -0.4741979     0.0011468    0.0001402     0.0009136    0.0003127     0.0343910   -0.1919188 
   0.087571886     0.8208914   -0.4788783     0.0016240    0.0009156     0.0015476    0.0005253     0.0345950   -0.1915191 
   0.087671911     0.8288466   -0.4687283     0.0009350    0.0003269     0.0011491    0.0004435     0.0350262   -0.1904192 
   0.087771936     0.8126488   -0.4716119     0.0009581    0.0011764     0.0010086    0.0004025     0.0340666   -0.1897528 
   0.087871961     0.8219224   -0.4743550     0.0018400    0.0000991     0.0012476    0.0000486     0.0343201   -0.1907374 
   0.087971986     0.8117779   -0.4709726     0.0012676    0.0000840     0.0010349    0.0003087     0.0336469   -0.1902391 
   0.088072011     0.8088186   -0.4716535     0.0009350    0.0009943     0.0013224    0.0007530     0.0341778   -0.1907126 
   0.088172036     0.8164321   -0.4763979     0.0008803    0.0004863     0.0013669    0.0001666     0.0335072   -0.1907503 
   0.088272061     0.8155776   -0.4854601     0.0017608   -0.0000908     0.0011832    0.0006527     0.0339705   -0.1902111 
   0.088372086     0.8147324   -0.4766861     0.0017342   -0.0002933     0.0010446    0.0005055     0.0326083   -0.1897824 
   0.088472111     0.8119404   -0.4778382     0.0003932    0.0001302     0.0011123    0.0005470     0.0335111   -0.1896117 
   0.088572136     0.8171105   -0.4836968     0.0010582    0.0004371     0.0009916    0.0004701     0.0327420   -0.1898553 
   0.088672161     0.8131630   -0.4830044     0.0019625    0.0006704     0.0012394    0.0004307     0.0336229   -0.1896859 
   0.088772186     0.8197562   -0.4856719     0.0012002    0.0000115     0.0013269    0.0005564     0.0343327   -0.1899567 
   0.088872211     0.8191349   -0.4754337     0.0018551    0.0007423     0.0015137    0.0007290     0.0331482   -0.1894541 
   0.088972236     0.8114120   -0.4719203     0.0013239    0.0000205     0.0011292    0.0003205     0.0337437   -0.1894270 
   0.089072261     0.8130867   -0.4752707     0.0007978    0.0005517     0.0013893    0.0001641     0.0328638   -0.1900130 
   0.089172286     0.8234645   -0.4870201     0.0019724    0.0003576     0.0014856    0.0005108     0.0336033   -0.1897090 
   0.089272311     0.8122470   -0.4806173     0.0012247    0.0002964     0.0011779    0.0003789     0.0321590   -0.1885550 
   0.089372336     0.8123968   -0.4792613     0.0012165    0.0007531     0.0012854    0.0005431     0.0328279   -0.1894679 
   0.089472361     0.8054611   -0.4783251     0.0011006    0.0000874     0.0010080    0.0003452     0.0333657   -0.1899249 
   0.089572386     0.8177636   -0.4816806     0.0010637    0.0001567     0.0014553    0.0005951     0.0329457   -0.1881205 
   0.089672411     0.8098307   -0.4873317     0.0011494    0.0002579     0.0015248    0.0004497     0.0323965   -0.1888842 
   0.089772436     0.8078778   -0.4831613     0.0007813    0.0002773     0.0014450    0.0002238     0.0326667   -0.1886331 
   0.089872461     0.8153839   -0.4865405     0.0010854    0.0005313     0.0011960   -0.0000037     0.0326655   -0.1884367 
   0.089972486     0.8156526   -0.4839692     0.0010094    0.0003650     0.0012154    0.0004223     0.0314031   -0.1883918 
   0.090072511     0.8090889   -0.4789163     0.0015456    0.0004578     0.0017662    0.0003061     0.0320891   -0.1886021 
   0.090172536     0.8088232   -0.4886293     0.0009876   -0.0003874     0.0011222    0.0004088     0.0316389   -0.1878672 
   0.090272561     0.8153179   -0.4936382     0.0016658    0.0003022     0.0012045    0.0004425     0.0319344   -0.1883297 
   0.090372586     0.8147916   -0.4931001     0.0011359   -0.0001499     0.0011822    0.0004626     0.0315879   -0.1882923 
   0.090472611     0.8021047   -0.4848135     0.0014161    0.0005933     0.0012823    0.0004449     0.0316130   -0.1870634 
   0.090572636     0.8154612   -0.4900220     0.0009770    0.0002387     0.0015355    0.0002448     0.0319885   -0.1877027 
   0.090672661     0.8100690   -0.4897344     0.0018552    0.0011488     0.0010792    0.0004140     0.0325695   -0.1881554 
   0.090772686     0.8115269   -0.4922860     0.0013506    0.0001746     0.0010800    0.0002164     0.0309783   -0.1872314 
   0.090872711     0.8043606   -0.4791239     0.0014864    0.0010315     0.0013272    0.0004021     0.0313780   -0.1875712 
   0.090972736     0.8134212   -0.4954528     0.0014612    0.0009159     0.0013400    0.0003512     0.0313653   -0.1871210 
   0.091072761     0.8039894   -0.4892287     0.0011920    0.0005378     0.0011372    0.0003265     0.0300475   -0.1874865 
   0.091172786     0.8144331   -0.4906597     0.0014277    0.0005724     0.0009824    0.0005798     0.0311967   -0.1878615 
   0.091272811     0.8083529   -0.4908586     0.0012046    0.0000169     0.0014028    0.0000354     0.0302326   -0.1876019 
   0.091372836     0.8098188   -0.4886923     0.0010868    0.0008988     0.0014070    0.0001843     0.0307164   -0.1868921 
   0.091472861     0.8118702   -0.5007492     0.0018363    0.0000819     0.0013740    0.0006026     0.0308461   -0.1870247 
   0.091572886     0.8149168   -0.4909916     0.0015926    0.0005201     0.0012598    0.0003148     0.0315489   -0.1873621 
   0.091672911     0.8072293   -0.4913672     0.0015619   -0.0001022     0.0013560    0.0005280     0.0299766   -0.1865093 
   0.091772936     0.8050013   -0.4949365     0.0010945   -0.0000421     0.0013229    0.0004525     0.0305771   -0.1865838 
   0.091872961     0.8165439   -0.5011855     0.0012742    0.0009979     0.0013163    0.0004541     0.0306812   -0.1868699 
   0.091972986     0.8124048   -0.4876175     0.0014105    0.0005854     0.0013502    0.0003450     0.0301218   -0.1859379 
   0.092073012     0.8035169   -0.4995133     0.0012803    0.0003970     0.0013321    0.0001842     0.0298871   -0.1866380 
   0.092173037     0.8104633   -0.4905755     0.0012425    0.0005946     0.0012777    0.0005816     0.0302188   -0.1866873 
   0.092273062     0.8057365   -0.4945773     0.0009541   -0.0001876     0.0013081    0.0005225     0.0298364   -0.1865509 
   0.092373087     0.8109797   -0.4957005     0.0016148    0.0006320     0.0017894    0.0000814     0.0293021   -0.1866788 
   0.092473112     0.8056332   -0.4986199     0.0017342    0.0005174     0.0014334    0.0001583     0.0302003   -0.1865411 
   0.092573137     0.8062674   -0.5010009     0.0010876    0.0001486     0.0011522    0.0001880     0.0294331   -0.1863681 
   0.092673162     0.8100626   -0.5065058     0.0019607    0.0001151     0.0012273    0.0000658     0.0288583   -0.1854243 
   0.092773187     0.8145320   -0.5006592     0.0007189    0.0003221     0.0012796    0.0004626     0.0299104   -0.1846891 
   0.092873212     0.8144017   -0.4965924     0.0015357    0.0010036     0.0015496    0.0003292     0.0301543   -0.1858728 
   0.092973237     0.8042651   -0.4993396     0.0013849    0.0013291     0.0013607    0.0003603     0.0290736   -0.1850743 
   0.093073262     0.8041180   -0.4974857     0.0010620    0.0001190     0.0016245    0.0001226     0.0287731   -0.1855544 
   0.093173287     0.8014852   -0.5010477     0.0015613    0.0003537     0.0013370    0.0005032     0.0287524   -0.1844301 
   0.093273312     0.8062860   -0.4928547     0.0010751    0.0002025     0.0011399    0.0002954     0.0296136   -0.1846964 
   0.093373337     0.7971533   -0.4991408     0.0010124    0.0001202     0.0010791    0.0003536     0.0286133   -0.1854096 
   0.093473362     0.8033721   -0.5004418     0.0009945    0.0005235     0.0012167    0.0005321     0.0290362   -0.1854918 
   0.093573387     0.7996815   -0.5017759     0.0018847    0.0006099     0.0013699    0.0006072     0.0287139   -0.1848574 
   0.093673412     0.7999263   -0.4974675     0.0009548    0.0005049     0.0012220    0.0001292     0.0284213   -0.1851594 
   0.093773437     0.8049787   -0.4970897     0.0006144    0.0004071     0.0011957    0.0002750     0.0286047   -0.1852240 
   0.093873462     0.8056623   -0.5062661     0.0010161    0.0003113     0.0012691    0.0003471     0.0277853   -0.1847646 
   0.093973487     0.7973010   -0.4970387     0.0010517    0.0000253     0.0013238    0.0005847     0.0278841   -0.1848466 
   0.094073512     0.8049453   -0.5055835     0.0018106   -0.0000866     0.0011619    0.0003315     0.0285621   -0.1839994 
   0.094173537     0.7927650   -0.5107009     0.0005916    0.0004963     0.0012025    0.0003671     0.0280052   -0.1840233 
   0.094273562     0.7999576   -0.5058305     0.0016591    0.0001510     0.0012914    0.0001977     0.0275311   -0.1847799 
   0.094373587     0.8026997   -0.5099210     0.0014030   -0.0001793     0.0013611    0.0004088     0.0282796   -0.1846753 
   0.094473612     0.7934271   -0.5047818     0.0016398    0.0005860     0.0014067    0.0006218     0.0277754   -0.1844329 
   0.094573637     0.8006387   -0.5027865     0.0013959    0.0002721     0.0011596    0.0001733     0.0280369   -0.1840699 
   0.094673662     0.8071762   -0.5099441     0.0015523    0.0002085     0.0013546   -0.0000822     0.0276159   -0.1846620 
   0.094773687     0.8046032   -0.5139612     0.0012132    0.0006060     0.0014916    0.0000606     0.0277236   -0.1839885 
   0.094873712     0.7960566   -0.5118987     0.0014149    0.0000429     0.0011608    0.0002406     0.0266996   -0.1839604 
   0.094973737     0.7998574   -0.5038052     0.0015338    0.0002221     0.0012964    0.0005302     0.0275537   -0.1834020 
   0.095073762     0.7993746   -0.5085151     0.0010569    0.0002905     0.0014751    0.0002951     0.0276856   -0.1837914 
   0.095173787     0.7927823   -0.5108675     0.0018226   -0.0001301     0.0014969    0.0002006     0.0275424   -0.1828454 
   0.095273812     0.8013778   -0.5109432     0.0012052    0.0003510     0.0014009    0.0002562     0.0271462   -0.1834409 
   0.095373837     0.7915303   -0.5091056     0.0008213    0.0006038     0.0014168    0.0006966     0.0273261   -0.1831726 
   0.095473862     0.7974177   -0.5108249     0.0013091   -0.0001746     0.0011870    0.0001625     0.0268464   -0.1834505 
   0.095573887     0.7999060   -0.5108458     0.0008791    0.0003210     0.0013471    0.0002300     0.0269619   -0.1828952 
   0.095673912     0.7929211   -0.5095856     0.0014037    0.0001087     0.0013916    0.0004370     0.0264304   -0.1833160 
   0.095773937     0.7895858   -0.5119507     0.0011281    0.0004075     0.0013930    0.0002341     0.0267765   -0.1834934 
   0.095873962     0.7931176   -0.5166540     0.0014904   -0.0000185     0.0015550    0.0001559     0.0267614   -0.1826876 
   0.095973987     0.7922360   -0.5189093     0.0013394    0.0003148     0.0013869    0.0002317     0.0267051   -0.1828858 
   0.096074012     0.7966114   -0.5154096     0.0013246    0.0003658     0.0013238    0.0002159     0.0264888   -0.1824890 
   0.096174037     0.7910239   -0.5144107     0.0014461    0.0004178     0.0012774    0.0003301     0.0267241   -0.1819030 
   0.096274062     0.7931250   -0.5205579     0.0017735    0.0004330     0.0012050    0.0003751     0.0261857   -0.1826530 
   0.096374087     0.7945036   -0.5081985     0.0013399    0.0000058     0.0013246    0.0002399     0.0261948   -0.1831696 
   0.096474112     0.7919682   -0.5184446     0.0011245    0.0004787     0.0013657    0.0000046     0.0262113   -0.1826496 
   0.096574137     0.7992714   -0.5198795     0.0014579    0.0007164     0.0013676    0.0002916     0.0259548   -0.1829011 
   0.096674162     0.7941735   -0.5085340     0.0016674    0.0003373     0.0013537    0.0004656     0.0263973   -0.1824777 
   0.096774187     0.7977747   -0.5117483     0.0017005    0.0005922     0.0014578    0.0003114     0.0262943   -0.1817904 
   0.096874212     0.7906126   -0.5132239     0.0014567    0.0003485     0.0015342    0.0004869     0.0256771   -0.1820190 
   0.096974237     0.7865137   -0.5194055     0.0013513   -0.0002770     0.0015766    0.0000995     0.0259916   -0.1820610 
   0.097074262     0.7849630   -0.5176235     0.0014142    0.0002342     0.0013205    0.0006344     0.0256387   -0.1816006 
   0.097174287     0.7964931   -0.5177469     0.0013442   -0.0002697     0.0013485    0.0003826     0.0252224   -0.1818176 
   0.097274312     0.7904966   -0.5126863     0.0012860   -0.0001230     0.0017727    0.0004067     0.0258750   -0.1817101 
   0.097374337     0.7922930   -0.5157825     0.0013709    0.0004791     0.0011104    0.0002286     0.0250134   -0.1816000 
   0.097474362     0.7877898   -0.5165465     0.0013178    0.0003528     0.0011200    0.0003576     0.0252708   -0.1821591 
   0.097574387     0.7923347   -0.5176467     0.0014673   -0.0001096     0.0014836    0.0003343     0.0246698   -0.1818295 
   0.097674412     0.7865328   -0.5177594     0.0015672    0.0005827     0.0013060    0.0003159     0.0243210   -0.1813453 
   0.097774437     0.7956412   -0.5170091     0.0007483    0.0005932     0.0013969    0.0004479     0.0251527   -0.1812941 
   0.097874462     0.7862621   -0.5175629     0.0010862   -0.0000490     0.0014548    0.0002162     0.0250060   -0.1817235 
   0.097974487     0.7930779   -0.5295348     0.0011154    0.0000597     0.0013533    0.0003086     0.0249256   -0.1809696 
   0.098074512     0.7809522   -0.5225849     0.0013896    0.0001641     0.0015348    0.0004088     0.0246860   -0.1810690 
   0.098174537     0.7858378   -0.5184796     0.0011496    0.0000557     0.0014496    0.0004082     0.0237199   -0.1810257 
   0.098274562     0.7882603   -0.5195230     0.0009874    0.0003055     0.0015029    0.0005795     0.0243446   -0.1811993 
   0.098374587     0.7861311   -0.5216075     0.0015496    0.0003281     0.0014277    0.0003204     0.0247493   -0.1806649 
   0.098474612     0.7908556   -0.5224612     0.0011052    0.0003223     0.0015129    0.0002769     0.0250508   -0.1802386 
   0.098574637     0.7898902   -0.5230938     0.0015933    0.0009896     0.0014969    0.0001771     0.0245960   -0.1809064 
   0.098674662     0.7853211   -0.5251731     0.0020531    0.0001756     0.0012073    0.0001164     0.0239288   -0.1814513 
   0.098774687     0.7812493   -0.5232247     0.0012854   -0.0001584     0.0010091    0.0004918     0.0240473   -0.1804000 
   0.098874712     0.7894780   -0.5269607     0.0014831    0.0001497     0.0012336    0.0001012     0.0249237   -0.1801178 
   0.098974737     0.7807985   -0.5252612     0.0010894    0.0001675     0.0014015    0.0002145     0.0238789   -0.1805410 
   0.099074762     0.7860367   -0.5236088     0.0012578    0.0003075     0.0013986    0.0004138     0.0241434   -0.1802000 
   0.099174787     0.7885570   -0.5264761     0.0017388    0.0003621     0.0012578    0.0001744     0.0244752   -0.1800145 
   0.099274812     0.7813670   -0.5285658     0.0019698   -0.0000904     0.0016092    0.0003707     0.0232573   -0.1804416 
   0.099374837     0.7855970   -0.5212594     0.0016860    0.0005756     0.0011516    0.0003484     0.0235537   -0.1802646 
   0.099474862     0.7838799   -0.5300196     0.0013397    0.0003382     0.0013476    0.0002239     0.0236497   -0.1794943 
   0.099574887     0.7799599   -0.5232546     0.0011185    0.0001981     0.0013542    0.0003129     0.0234872   -0.1796791 
   0.099674912     0.7824500   -0.5282533     0.0014428    0.0002563     0.0012505    0.0004927     0.0227492   -0.1806740 
   0.099774937     0.7817219   -0.5295085     0.0017400    0.0003391     0.0013913    0.0002757     0.0237480   -0.1800635 
   0.099874962     0.7853500   -0.5294318     0.0010773    0.0003737     0.0013256    0.0001715     0.0230027   -0.1803579 
   0.099974987     0.7804335   -0.5323449     0.0013184    0.0003491     0.0014708    0.0002305     0.0234198   -0.1795518 
   0.100075013     0.7879710   -0.5345281     0.0014671    0.0002729     0.0013293    0.0001457     0.0225722   -0.1800068 
   0.100175038     0.7788063   -0.5257201     0.0015904    0.0004602     0.0015594    0.0003717     0.0220341   -0.1798723 
   0.100275063     0.7748656   -0.5373496     0.0016439    0.0002914     0.0013897    0.0003065     0.0227458   -0.1794188 
   0.100375088     0.7759961   -0.5314783     0.0013873   -0.0001322     0.0014048    0.0001394     0.0223589   -0.1797565 
   0.100475113     0.7813820   -0.5331924     0.0015106    0.0001090     0.0013816    0.0002219     0.0223680   -0.1796419 
   0.100575138     0.7873085   -0.5327093     0.0010603    0.0001721     0.0015748    0.0002038     0.0226462   -0.1795421 
   0.100675163     0.7788901   -0.5331689     0.0011755    0.0001556     0.0014768    0.0002350     0.0222408   -0.1788258 
   0.100775188     0.7829651   -0.5333405     0.0013690    0.0006562     0.0015974    0.0003136     0.0220191   -0.1797546 
   0.100875213     0.7821090   -0.5317850     0.0017308    0.0006452     0.0011980    0.0006566     0.0216732   -0.1790171 
   0.100975238     0.7729482   -0.5347849     0.0011864    0.0002977     0.0014669    0.0006757     0.0226332   -0.1793485 
   0.101075263     0.7788453   -0.5350202     0.0016056    0.0000275     0.0015457    0.0005779     0.0224159   -0.1785052 
   0.101175288     0.7783173   -0.5361821     0.0013601    0.0002644     0.0013388    0.0003517     0.0220954   -0.1781366 
   0.101275313     0.7810555   -0.5386637     0.0012035    0.0002240     0.0011418    0.0003997     0.0221228   -0.1783988 
   0.101375338     0.7776226   -0.5386802     0.0014592    0.0000933     0.0014609    0.0004847     0.0218556   -0.1785689 
   0.101475363     0.7754163   -0.5389119     0.0014141   -0.0000136     0.0014018    0.0002656     0.0209890   -0.1788402 
   0.101575388     0.7785836   -0.5427883     0.0016527    0.0002495     0.0013047    0.0002964     0.0210425   -0.1788006 
   0.101675413     0.7820060   -0.5351717     0.0020014    0.0004889     0.0013416    0.0003514     0.0220344   -0.1779124 
   0.101775438     0.7765315   -0.5434351     0.0015446    0.0002922     0.0013763    0.0001495     0.0214506   -0.1780965 
   0.101875463     0.7786388   -0.5380831     0.0013100    0.0007820     0.0015273    0.0002303     0.0214488   -0.1780693 
   0.101975488     0.7678635   -0.5415662     0.0016303    0.0003146     0.0014749    0.0002963     0.0209693   -0.1781076 
   0.102075513     0.7732440   -0.5471407     0.0011865   -0.0000699     0.0014045    0.0002694     0.0209867   -0.1779108 
   0.102175538     0.7729319   -0.5442288     0.0015219   -0.0002853     0.0012613    0.0001515     0.0211189   -0.1787274 
   0.102275563     0.7703850   -0.5427037     0.0014256    0.0004100     0.0016096    0.0000905     0.0207469   -0.1773290 
   0.102375588     0.7696116   -0.5418280     0.0013948   -0.0000194     0.0011757    0.0003768     0.0209267   -0.1779823 
   0.102475613     0.7726375   -0.5375245     0.0015938    0.0002014     0.0014019    0.0004168     0.0214417   -0.1777172 
   0.102575638     0.7759309   -0.5391608     0.0018115   -0.0000171     0.0015234    0.0002173     0.0207249   -0.1780220 
   0.102675663     0.7746745   -0.5431744     0.0014077   -0.0000078     0.0015624    0.0000902     0.0201986   -0.1776962 
   0.102775688     0.7773971   -0.5446698     0.0014845    0.0002387     0.0014075    0.0002508     0.0209773   -0.1780463 
   0.102875713     0.7765940   -0.5378282     0.0012463    0.0002237     0.0014225    0.0002935     0.0204055   -0.1773936 
   0.102975738     0.7731628   -0.5459542     0.0012177    0.0005945     0.0016080    0.0001311     0.0203042   -0.1775830 
   0.103075763     0.7718692   -0.5480140     0.0015018    0.0005561     0.0013900    0.0002594     0.0203692   -0.1772557 
   0.103175788     0.7668627   -0.5514898     0.0015772    0.0006684     0.0014988    0.0001157     0.0200136   -0.1768461 
   0.103275813     0.7674301   -0.5422451     0.0011311    0.0005128     0.0016322    0.0004582     0.0203636   -0.1770231 
   0.103375838     0.7796091   -0.5466439     0.0013371    0.0004341     0.0014631    0.0004359     0.0200019   -0.1770035 
   0.103475863     0.7708300   -0.5467284     0.0015896    0.0004462     0.0013790    0.0002795     0.0198520   -0.1768423 
   0.103575888     0.7709762   -0.5483925     0.0013718    0.0002590     0.0015023    0.0002196     0.0198836   -0.1770810 
   0.103675913     0.7721550   -0.5495944     0.0011700    0.0001226     0.0014075    0.0003676     0.0202498   -0.1773309 
   0.103775938     0.7752322   -0.5508596     0.0016836    0.0004487     0.0014338    0.0001667     0.0192898   -0.1774716 
   0.103875963     0.7691784   -0.5442087     0.0015389    0.0003238     0.0012104    0.0002872     0.0203308   -0.1776083 
   0.103975988     0.7676314   -0.5481630     0.0014823    0.0001610     0.0017866    0.0001656     0.0197800   -0.1767874 
   0.104076013     0.7711837   -0.5418828     0.0015629    0.0000988     0.0014243    0.0003923     0.0191992   -0.1760861 
   0.104176038     0.7670149   -0.5484688     0.0014927    0.0002275     0.0016558    0.0002757     0.0192987   -0.1759180 
   0.104276063     0.7636172   -0.5537086     0.0014284    0.0002613     0.0014534    0.0000376     0.0192891   -0.1767847 
   0.104376088     0.7654352   -0.5500456     0.0014948    0.0002676     0.0012560    0.0004042     0.0203231   -0.1766290 
   0.104476113     0.7680234   -0.5524983     0.0015395    0.0003907     0.0014864    0.0003359     0.0189635   -0.1762230 
   0.104576138     0.7639580   -0.5504705     0.0013202    0.0002241     0.0015743    0.0003013     0.0188805   -0.1767063 
   0.104676163     0.7645794   -0.5524924     0.0016101    0.0004236     0.0012620    0.0003376     0.0190088   -0.1756633 
   0.104776188     0.7753282   -0.5578660     0.0015829    0.0001144     0.0014788    0.0004240     0.0188068   -0.1768267 
   0.104876213     0.7684725   -0.5572602     0.0013947   -0.0000091     0.0012808    0.0001009     0.0193928   -0.1764478 
   0.104976238     0.7627680   -0.5527862     0.0013224   -0.0000770     0.0012986    0.0003640     0.0186254   -0.1756888 
   0.105076263     0.7664966   -0.5565352     0.0017320    0.0004190     0.0015444    0.0001345     0.0185059   -0.1762358 
   0.105176288     0.7648360   -0.5545959     0.0012433   -0.0000126     0.0014655    0.0002064     0.0189103   -0.1764378 
   0.105276313     0.7605734   -0.5572156     0.0014926   -0.0000517     0.0015421    0.0003748     0.0186378   -0.1756572 
   0.105376338     0.7652270   -0.5560102     0.0013034    0.0003557     0.0015490    0.0003268     0.0183223   -0.1755893 
   0.105476363     0.7643840   -0.5612874     0.0013566    0.0004293     0.0012698    0.0002160     0.0185989   -0.1757953 
   0.105576388     0.7630262   -0.5570081     0.0018417    0.0000039     0.0015686    0.0003344     0.0187932   -0.1755706 
   0.105676413     0.7672697   -0.5572286     0.0015749   -0.0000570     0.0015126    0.0003348     0.0182530   -0.1759745 
   0.105776438     0.7655164   -0.5567573     0.0015117    0.0000970     0.0014566    0.0002880     0.0176028   -0.1753104 
   0.105876463     0.7580422   -0.5582831     0.0014511    0.0000662     0.0014426    0.0001737     0.0179799   -0.1749040 
   0.105976488     0.7589012   -0.5608847     0.0012553    0.0001578     0.0014393    0.0000789     0.0185484   -0.1749389 
   0.106076513     0.7652829   -0.5587400     0.0013529    0.0001243     0.0016533    0.0002968     0.0184836   -0.1755221 
   0.106176538     0.7661397   -0.5609074     0.0015328    0.0004670     0.0014736    0.0002278     0.0179502   -0.1751019 
   0.106276563     0.7614667   -0.5633049     0.0013596    0.0002573     0.0014817    0.0002800     0.0172503   -0.1758000 
   0.106376588     0.7609892   -0.5625963     0.0014625    0.0003725     0.0015224    0.0002827     0.0170249   -0.1749181 
   0.106476613     0.7573873   -0.5639783     0.0011738    0.0001649     0.0016406    0.0001948     0.0179811   -0.1744460 
   0.106576638     0.7645952   -0.5583734     0.0011691    0.0001076     0.0015723    0.0002707     0.0176856   -0.1752359 
   0.106676663     0.7650380   -0.5606363     0.0015013    0.0001419     0.0013552    0.0001991     0.0171894   -0.1739259 
   0.106776688     0.7622907   -0.5645947     0.0014344    0.0004311     0.0013684    0.0002358     0.0172999   -0.1743047 
   0.106876713     0.7666363   -0.5686179     0.0012455    0.0002107     0.0014519    0.0002828     0.0173609   -0.1748557 
   0.106976738     0.7627767   -0.5600076     0.0014879    0.0002912     0.0014142    0.0003406     0.0176726   -0.1750422 
   0.107076763     0.7604890   -0.5683295     0.0014657    0.0000831     0.0014476    0.0002192     0.0168125   -0.1745371 
   0.107176788     0.7596793   -0.5673596     0.0014675    0.0000564     0.0013765    0.0002592     0.0178616   -0.1742548 
   0.107276813     0.7642292   -0.5658144     0.0015661    0.0001188     0.0014583    0.0002976     0.0163015   -0.1745117 
   0.107376838     0.7548949   -0.5670030     0.0013110    0.0003243     0.0014553    0.0003730     0.0169903   -0.1750232 
   0.107476863     0.7554860   -0.5682421     0.0016418    0.0000138     0.0015765    0.0002348     0.0169314   -0.1750152 
   0.107576888     0.7596270   -0.5625387     0.0018902    0.0003274     0.0015908    0.0001629     0.0166318   -0.1746670 
   0.107676913     0.7620813   -0.5662431     0.0011290    0.0000162     0.0014283    0.0002415     0.0167896   -0.1739431 
   0.107776938     0.7515999   -0.5687612     0.0014032    0.0002969     0.0015676    0.0001457     0.0167960   -0.1744361 
   0.107876963     0.7567574   -0.5671113     0.0014977    0.0000629     0.0016019    0.0002060     0.0161727   -0.1739274 
   0.107976988     0.7564020   -0.5685288     0.0016487    0.0000558     0.0014715    0.0002392     0.0161861   -0.1743817 
   0.108077014     0.7572154   -0.5701407     0.0014667   -0.0000306     0.0015667    0.0003020     0.0159356   -0.1738684 
   0.108177039     0.7505628   -0.5656129     0.0014978    0.0003173     0.0014341    0.0002780     0.0162478   -0.1736769 
   0.108277064     0.7560931   -0.5657187     0.0015374    0.0002195     0.0015479    0.0000916     0.0166495   -0.1739662 
   0.108377089     0.7538587   -0.5688819     0.0016735    0.0001230     0.0015900    0.0001848     0.0155434   -0.1739815 
   0.108477114     0.7529572   -0.5721136     0.0015463   -0.0000322     0.0014050    0.0001345     0.0151729   -0.1736043 
   0.108577139     0.7514984   -0.5735491     0.0016241    0.0002620     0.0015964    0.0001949     0.0155915   -0.1739525 
   0.108677164     0.7546791   -0.5734487     0.0013030    0.0000864     0.0015907    0.0002111     0.0157073   -0.1732547 
   0.108777189     0.7535455   -0.5703443     0.0015017    0.0002215     0.0014906    0.0001760     0.0154953   -0.1740683 
   0.108877214     0.7567957   -0.5706959     0.0011138    0.0001549     0.0014414    0.0001046     0.0156018   -0.1731971 
   0.108977239     0.7545321   -0.5728654     0.0016009    0.0001377     0.0016678    0.0000864     0.0158671   -0.1731393 
   0.109077264     0.7534459   -0.5704374     0.0013661    0.0000174     0.0013807   -0.0000181     0.0156305   -0.1726249 
   0.109177289     0.7537467   -0.5754343     0.0013976    0.0001941     0.0016429    0.0000448     0.0158633   -0.1740224 
   0.109277314     0.7517070   -0.5718410     0.0015238    0.0001197     0.0015134    0.0002588     0.0147776   -0.1732060 
   0.109377339     0.7497469   -0.5725058     0.0015721    0.0001578     0.0015557    0.0001669     0.0155150   -0.1740356 
   0.109477364     0.7524429   -0.5728223     0.0016069    0.0002177     0.0014426    0.0001847     0.0147468   -0.1726501 
   0.109577389     0.7523484   -0.5758150     0.0015672    0.0000030     0.0015878    0.0002445     0.0153590   -0.1732921 
   0.109677414     0.7500673   -0.5758641     0.0017607    0.0000669     0.0014903    0.0001491     0.0148940   -0.1735916 
   0.109777439     0.7516487   -0.5754380     0.0016509    0.0003879     0.0015408    0.0001139     0.0149086   -0.1727225 
   0.109877464     0.7507248   -0.5797772     0.0014510    0.0003121     0.0014811    0.0001679     0.0147622   -0.1735871 
   0.109977489     0.7512928   -0.5790733     0.0014874    0.0001009     0.0016630    0.0002034     0.0154875   -0.1730382 
   0.110077514     0.7464886   -0.5786735     0.0014918    0.0004061     0.0014923    0.0003005     0.0145784   -0.1730611 
   0.110177539     0.7483318   -0.5798262     0.0013735    0.0001810     0.0014138    0.0000628     0.0146712   -0.1726190 
   0.110277564     0.7509118   -0.5776993     0.0013699   -0.0000217     0.0016295    0.0001146     0.0149015   -0.1728016 
   0.110377589     0.7501643   -0.5788534     0.0015959    0.0001506     0.0015792    0.0000965     0.0139516   -0.1722413 
   0.110477614     0.7496753   -0.5753011     0.0013300   -0.0000181     0.0014917    0.0001077     0.0142134   -0.1725370 
   0.110577639     0.7492657   -0.5828062     0.0016291    0.0000619     0.0014952    0.0000782     0.0138784   -0.1727177 
   0.110677664     0.7480799   -0.5782131     0.0016007    0.0001746     0.0015720    0.0000055     0.0136379   -0.1721697 
   0.110777689     0.7498257   -0.5829172     0.0015724    0.0002942     0.0016006    0.0001691     0.0143296   -0.1719792 
   0.110877714     0.7468541   -0.5777108     0.0013137    0.0001532     0.0016364    0.0001588     0.0135341   -0.1721929 
   0.110977739     0.7482988   -0.5802664     0.0013597    0.0001645     0.0015790    0.0001600     0.0140803   -0.1722492 
   0.111077764     0.7472013   -0.5814412     0.0015744    0.0000440     0.0015116    0.0001511     0.0137306   -0.1726064 
   0.111177789     0.7472208   -0.5820545     0.0015804    0.0001560     0.0015169    0.0001016     0.0131651   -0.1721933 
   0.111277814     0.7453118   -0.5778811     0.0016209    0.0000912     0.0015507    0.0000811     0.0134969   -0.1724038 
   0.111377839     0.7492752   -0.5817543     0.0014236    0.0001621     0.0015352    0.0000922     0.0128518   -0.1720293 
   0.111477864     0.7426944   -0.5861219     0.0015543    0.0002291     0.0015646    0.0001205     0.0139927   -0.1717813 
   0.111577889     0.7440883   -0.5837567     0.0016425    0.0000390     0.0017057    0.0000789     0.0139166   -0.1717405 
   0.111677914     0.7447857   -0.5821926     0.0016621    0.0002155     0.0016026    0.0001762     0.0138822   -0.1715201 
   0.111777939     0.7425703   -0.5883486     0.0015823   -0.0000023     0.0014516    0.0000509     0.0135602   -0.1716258 
   0.111877964     0.7484649   -0.5871627     0.0016440   -0.0000247     0.0015841    0.0001511     0.0130699   -0.1716350 
   0.111977989     0.7422683   -0.5825012     0.0014216    0.0000283     0.0014592    0.0001229     0.0129870   -0.1715818 
   0.112078014     0.7418944   -0.5868192     0.0015265    0.0000973     0.0015223    0.0002034     0.0133384   -0.1718576 
   0.112178039     0.7407734   -0.5850434     0.0014601    0.0001696     0.0015521    0.0001434     0.0133270   -0.1716936 
   0.112278064     0.7435133   -0.5856454     0.0016838    0.0001164     0.0015388   -0.0000027     0.0137428   -0.1710637 
   0.112378089     0.7446078   -0.5841521     0.0015119    0.0000978     0.0015198    0.0000842     0.0119805   -0.1716723 
   0.112478114     0.7443824   -0.5884449     0.0015786    0.0002317     0.0015483    0.0000968     0.0123699   -0.1716811 
   0.112578139     0.7387617   -0.5921115     0.0014061    0.0000921     0.0015373    0.0000508     0.0124512   -0.1712028 
   0.112678164     0.7419295   -0.5907325     0.0014603    0.0001788     0.0015532    0.0000688     0.0127236   -0.1715471 
   0.112778189     0.7431890   -0.5918177     0.0014991   -0.0000127     0.0015542    0.0000234     0.0125032   -0.1709942 
   0.112878214     0.7375605   -0.5885378     0.0016276    0.0002282     0.0015463    0.0001599     0.0124263   -0.1712949 
   0.112978239     0.7379719   -0.5891929     0.0015240    0.0002192     0.0016145    0.0001423     0.0125696   -0.1706685 
   0.113078264     0.7395324   -0.5906425     0.0016973    0.0001547     0.0016387    0.0000670     0.0124842   -0.1710531 
   0.113178289     0.7404231   -0.5889913     0.0014771   -0.0000328     0.0015806    0.0001056     0.0124577   -0.1711044 
   0.113278314     0.7394276   -0.5923983     0.0015370    0.0000440     0.0014671    0.0001441     0.0112572   -0.1710837 
   0.113378339     0.7414128   -0.5935312     0.0014792    0.0001321     0.0015396    0.0001258     0.0122386   -0.1708611 
   0.113478364     0.7402658   -0.5931785     0.0014141    0.0001940     0.0015573    0.0001175     0.0114011   -0.1708168 
   0.113578389     0.7390110   -0.5902313     0.0016954    0.0000658     0.0014846    0.0001738     0.0114736   -0.1706285 
   0.113678414     0.7370685   -0.5911534     0.0017315    0.0000372     0.0014716    0.0000799     0.0120658   -0.1709736 
   0.113778439     0.7410677   -0.5960602     0.0015174    0.0000470     0.0015441    0.0000648     0.0116950   -0.1702629 
   0.113878464     0.7349713   -0.5922344     0.0016778    0.0001522     0.0016293    0.0000315     0.0111894   -0.1706368 
   0.113978489     0.7365892   -0.5927119     0.0015872    0.0001739     0.0014822    0.0000873     0.0118997   -0.1708620 
   0.114078514     0.7360848   -0.5929493     0.0016565    0.0001925     0.0016326   -0.0000409     0.0119243   -0.1703593 
   0.114178539     0.7358419   -0.5971466     0.0016529    0.0003022     0.0015312    0.0001479     0.0107531   -0.1707468 
   0.114278564     0.7340018   -0.5936502     0.0017094    0.0000659     0.0016166    0.0000569     0.0109069   -0.1709712 
   0.114378589     0.7366667   -0.5971818     0.0015609    0.0001640     0.0016619    0.0001221     0.0113258   -0.1702704 
   0.114478614     0.7349448   -0.5967269     0.0015659    0.0001845     0.0015662    0.0000594     0.0105842   -0.1700108 
   0.114578639     0.7377636   -0.5945343     0.0016824    0.0001294     0.0016968    0.0000636     0.0106955   -0.1703508 
   0.114678664     0.7308827   -0.5974272     0.0015384   -0.0000256     0.0015923    0.0000160     0.0105965   -0.1709701 
   0.114778689     0.7361675   -0.6022738     0.0017028    0.0001036     0.0016368    0.0000371     0.0106134   -0.1700746 
   0.114878714     0.7370155   -0.6009566     0.0015533   -0.0002048     0.0016569    0.0000316     0.0106123   -0.1699984 
   0.114978739     0.7341713   -0.5980272     0.0014408    0.0001313     0.0016130    0.0000617     0.0109313   -0.1694038 
   0.115078764     0.7342296   -0.6027246     0.0016268    0.0000601     0.0015773    0.0000495     0.0108474   -0.1698048 
   0.115178789     0.7316115   -0.6036949     0.0016880    0.0001140     0.0015321    0.0001144     0.0103830   -0.1699314 
   0.115278814     0.7323533   -0.6005482     0.0015385    0.0000913     0.0015315    0.0000062     0.0101274   -0.1694065 
   0.115378839     0.7305927   -0.5980267     0.0014087   -0.0000807     0.0015523    0.0001571     0.0103975   -0.1696467 
   0.115478864     0.7335936   -0.5981427     0.0015820    0.0000831     0.0015770    0.0000660     0.0101565   -0.1699312 
   0.115578889     0.7306174   -0.5981064     0.0017749    0.0000360     0.0016181    0.0001232     0.0099282   -0.1694812 
   0.115678914     0.7291778   -0.5994415     0.0014833    0.0000431     0.0016319    0.0000459     0.0100013   -0.1695279 
   0.115778939     0.7292815   -0.5990563     0.0015576    0.0001528     0.0015256    0.0000457     0.0097364   -0.1696145 
   0.115878964     0.7297191   -0.6000052     0.0016652    0.0000842     0.0015051    0.0001064     0.0100818   -0.1699181 
   0.115978989     0.7304699   -0.6037960     0.0015646    0.0000852     0.0016372    0.0000089     0.0103046   -0.1692521 
   0.116079015     0.7296057   -0.6010903     0.0016057    0.0000105     0.0015759    0.0000451     0.0100059   -0.1693779 
   0.116179040     0.7291840   -0.6047148     0.0016323    0.0000503     0.0015999    0.0000187     0.0094449   -0.1695263 
   0.116279065     0.7281008   -0.6022123     0.0016224    0.0001652     0.0015822    0.0000442     0.0100601   -0.1692969 
   0.116379090     0.7307753   -0.6026716     0.0015148    0.0000504     0.0015715    0.0001040     0.0097181   -0.1695095 
   0.116479115     0.7311518   -0.6068137     0.0016677    0.0001408     0.0015664    0.0000371     0.0097679   -0.1690222 
   0.116579140     0.7274022   -0.6062561     0.0017054    0.0001389     0.0014976    0.0000161     0.0094450   -0.1688375 
   0.116679165     0.7261737   -0.6042629     0.0016866    0.0002382     0.0015805   -0.0000601     0.0087442   -0.1695922 
   0.116779190     0.7282073   -0.6058255     0.0017148    0.0000577     0.0016673    0.0001180     0.0089537   -0.1697859 
   0.116879215     0.7260898   -0.6065102     0.0015407    0.0000293     0.0015822    0.0000806     0.0086484   -0.1687762 
   0.116979240     0.7259409   -0.6045928     0.0016550    0.0002489     0.0016530   -0.0000165     0.0095207   -0.1691037 
   0.117079265     0.7267877   -0.6051885     0.0015870    0.0000596     0.0015362    0.0000466     0.0088341   -0.1690938 
   0.117179290     0.7273828   -0.6055888     0.0014885    0.0000467     0.0015767    0.0000441     0.0090530   -0.1691824 
   0.117279315     0.7253528   -0.6054546     0.0015653   -0.0000004     0.0016100    0.0000295     0.0093466   -0.1681918 
   0.117379340     0.7226017   -0.6071530     0.0014384   -0.0000411     0.0015851    0.0000885     0.0083854   -0.1687949 
   0.117479365     0.7255371   -0.6088969     0.0017239    0.0000255     0.0016151   -0.0000218     0.0090055   -0.1685869 
   0.117579390     0.7214261   -0.6084167     0.0015341    0.0000708     0.0016387    0.0000508     0.0083820   -0.1684631 
   0.117679415     0.7256892   -0.6110313     0.0016308    0.0001596     0.0015600    0.0000491     0.0082518   -0.1680103 
   0.117779440     0.7213709   -0.6074358     0.0016102    0.0001533     0.0016029    0.0000481     0.0085711   -0.1688755 
   0.117879465     0.7223876   -0.6108158     0.0017331    0.0000483     0.0015436   -0.0000019     0.0080674   -0.1691065 
   0.117979490     0.7230814   -0.6096580     0.0017815    0.0000299     0.0015311    0.0000815     0.0085389   -0.1690210 
   0.118079515     0.7233850   -0.6092141     0.0015112    0.0000044     0.0015880    0.0000322     0.0083262   -0.1684624 
   0.118179540     0.7254572   -0.6129744     0.0015401    0.0001318     0.0015873    0.0000588     0.0079470   -0.1681360 
   0.118279565     0.7232598   -0.6089019     0.0015138   -0.0000102     0.0016637   -0.0001155     0.0080968   -0.1688222 
   0.118379590     0.7177262   -0.6108215     0.0015526    0.0001659     0.0015625   -0.0000479     0.0076829   -0.1685575 
   0.118479615     0.7233287   -0.6128665     0.0016122    0.0000553     0.0015669   -0.0000178     0.0078830   -0.1683385 
   0.118579640     0.7239755   -0.6120716     0.0015802    0.0000165     0.0015873   -0.0000554     0.0078412   -0.1674835 
   0.118679665     0.7188746   -0.6125936     0.0016334    0.0000410     0.0016424   -0.0000233     0.0078946   -0.1680005 
   0.118779690     0.7202727   -0.6114391     0.0014325    0.0001560     0.0016323    0.0000139     0.0078097   -0.1683213 
   0.118879715     0.7180546   -0.6147360     0.0015970   -0.0000617     0.0016600    0.0000297     0.0075900   -0.1682591 
   0.118979740     0.7180014   -0.6140643     0.0016657   -0.0000141     0.0015556   -0.0000324     0.0079973   -0.1680094 
   0.119079765     0.7188355   -0.6143790     0.0016275   -0.0000033     0.0016763   -0.0000406     0.0069607   -0.1673379 
   0.119179790     0.7175871   -0.6145228     0.0016542    0.0000820     0.0015861    0.0000957     0.0078269   -0.1678693 
   0.119279815     0.7200089   -0.6154136     0.0016158   -0.0000385     0.0015953   -0.0000702     0.0072335   -0.1674375 
   0.119379840     0.7155763   -0.6140638     0.0016278    0.0000073     0.0015658   -0.0000200     0.0070734   -0.1680191 
   0.119479865     0.7179996   -0.6166767     0.0015937    0.0000243     0.0016066   -0.0000956     0.0073944   -0.1683004 
   0.119579890     0.7136496   -0.6170970     0.0015851   -0.0000338     0.0015484   -0.0000153     0.0072444   -0.1676819 
   0.119679915     0.7156419   -0.6179972     0.0016040   -0.0000662     0.0016037   -0.0000292     0.0065625   -0.1678861 
   0.119779940     0.7138797   -0.6174299     0.0015670   -0.0001099     0.0016586   -0.0000712     0.0071262   -0.1674224 
   0.119879965     0.7142103   -0.6173310     0.0016516    0.0000212     0.0016050   -0.0000641     0.0067897   -0.1671360 
   0.119979990     0.7151369   -0.6175229     0.0015569    0.0001288     0.0016609   -0.0000440     0.0068424   -0.1674494 
   0.120080015     0.7128145   -0.6179546     0.0017272    0.0000609     0.0015283    0.0000209     0.0064009   -0.1667208 
   0.120180040     0.7166682   -0.6186832     0.0014774   -0.0000054     0.0016024   -0.0000318     0.0067067   -0.1672120 
   0.120280065     0.7126107   -0.6189644     0.0016498    0.0000518     0.0016039    0.0000476     0.0068809   -0.1676127 
   0.120380090     0.7118250   -0.6166924     0.0016732    0.0000318     0.0015719   -0.0000691     0.0064813   -0.1674334 
   0.120480115     0.7132149   -0.6169297     0.0017056   -0.0000685     0.0014932    0.0001091     0.0065278   -0.1666327 
   0.120580140     0.7116044   -0.6192365     0.0016316   -0.0000046     0.0017068   -0.0000502     0.0058652   -0.1672769 
   0.120680165     0.7104512   -0.6192782     0.0014621   -0.0000184     0.0015856   -0.0000225     0.0058346   -0.1675975 
   0.120780190     0.7148412   -0.6211162     0.0016601   -0.0000127     0.0015936   -0.0000168     0.0060422   -0.1674316 
   0.120880215     0.7082729   -0.6190696     0.0016145    0.0000345     0.0015932   -0.0000565     0.0060540   -0.1675249 
   0.120980240     0.7100765   -0.6212657     0.0015211    0.0000089     0.0016420    0.0000579     0.0057546   -0.1669928 
   0.121080265     0.7102529   -0.6211188     0.0016716   -0.0000809     0.0015621   -0.0000828     0.0055205   -0.1673471 
   0.121180290     0.7090449   -0.6230803     0.0016950    0.0001324     0.0016037   -0.0000184     0.0054440   -0.1663747 
   0.121280315     0.7107967   -0.6201544     0.0015961    0.0001865     0.0015599   -0.0000245     0.0058168   -0.1669775 
   0.121380340     0.7095489   -0.6241723     0.0016606    0.0000673     0.0015701   -0.0000647     0.0059821   -0.1666147 
   0.121480365     0.7100497   -0.6238954     0.0015773    0.0000688     0.0016577   -0.0000395     0.0052145   -0.1664556 
   0.121580390     0.7078241   -0.6234052     0.0014973   -0.0000551     0.0016328   -0.0000888     0.0053201   -0.1664963 
   0.121680415     0.7069196   -0.6247720     0.0016738   -0.0000417     0.0017066   -0.0000029     0.0053058   -0.1672852 
   0.121780440     0.7088941   -0.6235477     0.0016972    0.0001404     0.0016360   -0.0000951     0.0054169   -0.1662327 
   0.121880465     0.7068179   -0.6244255     0.0016684   -0.0001629     0.0016097   -0.0000739     0.0056916   -0.1659845 
   0.121980490     0.7064182   -0.6261025     0.0017108    0.0001041     0.0015517   -0.0000470     0.0048943   -0.1667429 
   0.122080515     0.7044827   -0.6241114     0.0016346    0.0001216     0.0016456   -0.0000038     0.0051945   -0.1665299 
   0.122180540     0.7081056   -0.6270977     0.0016903   -0.0000087     0.0016195   -0.0000344     0.0053414   -0.1664110 
   0.122280565     0.7084955   -0.6248496     0.0016260   -0.0001684     0.0016764    0.0000317     0.0050739   -0.1667935 
   0.122380590     0.7051173   -0.6257565     0.0016095    0.0000407     0.0016421   -0.0000576     0.0050863   -0.1659754 
   0.122480615     0.7061917   -0.6293231     0.0016399   -0.0001096     0.0015523   -0.0000191     0.0049331   -0.1661271 
   0.122580640     0.7049053   -0.6279454     0.0016176   -0.0001142     0.0016015   -0.0000156     0.0045873   -0.1665822 
   0.122680665     0.7048280   -0.6293367     0.0014690    0.0000710     0.0015706   -0.0000843     0.0045044   -0.1656990 
   0.122780690     0.7050976   -0.6278783     0.0017552    0.0001025     0.0016135   -0.0000593     0.0043057   -0.1660609 
   0.122880715     0.7015963   -0.6295733     0.0015331   -0.0000961     0.0016671   -0.0000581     0.0044539   -0.1663104 
   0.122980740     0.7012678   -0.6296536     0.0017487   -0.0000646     0.0016129   -0.0001051     0.0049304   -0.1660173 
   0.123080765     0.7018155   -0.6285887     0.0017112   -0.0000351     0.0015622   -0.0001008     0.0046019   -0.1659761 
   0.123180790     0.7039189   -0.6312415     0.0015634    0.0000836     0.0016121   -0.0000021     0.0042935   -0.1654567 
   0.123280815     0.7012907   -0.6330705     0.0017082   -0.0001259     0.0015906   -0.0000961     0.0043107   -0.1660608 
   0.123380840     0.7032970   -0.6296073     0.0015620    0.0001191     0.0014893   -0.0000527     0.0038646   -0.1657965 
   0.123480865     0.7005970   -0.6280676     0.0014492    0.0000085     0.0014827   -0.0000852     0.0034359   -0.1654927 
   0.123580890     0.6989562   -0.6313402     0.0016346   -0.0002165     0.0016620    0.0000417     0.0034364   -0.1659909 
   0.123680915     0.7019591   -0.6292427     0.0015717    0.0000436     0.0015703   -0.0000263     0.0038518   -0.1653948 
   0.123780940     0.7016689   -0.6321576     0.0015438   -0.0000097     0.0016934   -0.0000161     0.0036832   -0.1659367 
   0.123880965     0.7020531   -0.6326045     0.0015372   -0.0001088     0.0016284   -0.0000676     0.0035087   -0.1663500 
   0.123980990     0.6973631   -0.6338051     0.0015983   -0.0000332     0.0016357   -0.0000795     0.0035408   -0.1654339 
   0.124081016     0.6956026   -0.6344604     0.0018694   -0.0001264     0.0016021    0.0000780     0.0033596   -0.1656704 
   0.124181041     0.6967672   -0.6339054     0.0016419   -0.0000839     0.0016585   -0.0001099     0.0031466   -0.1654459 
   0.124281066     0.7008094   -0.6324559     0.0015826    0.0000130     0.0016607   -0.0001324     0.0034910   -0.1653323 
   0.124381091     0.6967081   -0.6313067     0.0015908    0.0000034     0.0016387   -0.0000085     0.0034614   -0.1651277 
   0.124481116     0.6949832   -0.6318759     0.0017093   -0.0000471     0.0015666    0.0000405     0.0029011   -0.1650130 
   0.124581141     0.6937361   -0.6368891     0.0017642   -0.0002482     0.0017299    0.0000033     0.0029524   -0.1653991 
   0.124681166     0.6959811   -0.6339391     0.0014500    0.0000552     0.0017063   -0.0001995     0.0026853   -0.1651180 
   0.124781191     0.6938158   -0.6365754     0.0017616   -0.0002221     0.0015421   -0.0000971     0.0027596   -0.1652042 
   0.124881216     0.6945875   -0.6353098     0.0017757   -0.0001236     0.0016247   -0.0001602     0.0029743   -0.1650416 
   0.124981241     0.6974369   -0.6380802     0.0017402    0.0000074     0.0018162   -0.0000566     0.0027477   -0.1646375 
   0.125081266     0.6921065   -0.6369244     0.0016536   -0.0000457     0.0016572   -0.0000610     0.0030074   -0.1641052 
   0.125181291     0.6934826   -0.6377459     0.0016780   -0.0001712     0.0016195   -0.0000964     0.0029325   -0.1646034 
   0.125281316     0.6933116   -0.6389526     0.0016086    0.0000650     0.0016436   -0.0001020     0.0032146   -0.1649073 
   0.125381341     0.6901209   -0.6380653     0.0017346   -0.0000141     0.0016528   -0.0001306     0.0027103   -0.1652310 
   0.125481366     0.6911784   -0.6382989     0.0016731    0.0000371     0.0017124   -0.0001802     0.0028102   -0.1654835 
   0.125581391     0.6925003   -0.6390033     0.0014642   -0.0000890     0.0015229   -0.0001014     0.0026376   -0.1648557 
   0.125681416     0.6918495   -0.6401316     0.0017118   -0.0001088     0.0016343   -0.0000703     0.0024806   -0.1647413 
   0.125781441     0.6924402   -0.6385075     0.0015998   -0.0000710     0.0016014    0.0000302     0.0018310   -0.1645330 
   0.125881466     0.6906451   -0.6388409     0.0017809   -0.0000565     0.0016398   -0.0001608     0.0021224   -0.1646736 
   0.125981491     0.6879016   -0.6426880     0.0014691    0.0000285     0.0017003   -0.0000308     0.0015218   -0.1641098 
   0.126081516     0.6878839   -0.6390757     0.0018272   -0.0001153     0.0015854    0.0000070     0.0015819   -0.1641708 
   0.126181541     0.6867940   -0.6395811     0.0016102   -0.0001079     0.0016185   -0.0001041     0.0015966   -0.1646097 
   0.126281566     0.6873850   -0.6449499     0.0016930   -0.0000030     0.0015851   -0.0001508     0.0020485   -0.1646390 
   0.126381591     0.6914642   -0.6392652     0.0016699   -0.0002420     0.0017045   -0.0000171     0.0012264   -0.1644105 
   0.126481616     0.6872444   -0.6424130     0.0019154   -0.0001366     0.0016227   -0.0001154     0.0018130   -0.1645263 
   0.126581641     0.6869819   -0.6407614     0.0016595    0.0001797     0.0016343   -0.0000209     0.0016279   -0.1645040 
   0.126681666     0.6860933   -0.6434071     0.0014270   -0.0002745     0.0016816   -0.0001580     0.0014092   -0.1644179 
   0.126781691     0.6888552   -0.6421707     0.0017068   -0.0000261     0.0017968   -0.0000900     0.0020064   -0.1645528 
   0.126881716     0.6873445   -0.6424872     0.0017703    0.0000075     0.0017489    0.0000009     0.0013945   -0.1640729 
   0.126981741     0.6875376   -0.6416334     0.0017954   -0.0000193     0.0017274    0.0000973     0.0011300   -0.1643934 
   0.127081766     0.6863099   -0.6441512     0.0018328   -0.0002085     0.0017327   -0.0000602     0.0006383   -0.1640155 
   0.127181791     0.6846595   -0.6442465     0.0015557   -0.0001124     0.0016810   -0.0001010     0.0007503   -0.1642917 
   0.127281816     0.6847046   -0.6429672     0.0019280   -0.0002891     0.0016778   -0.0000667     0.0014438   -0.1643306 
   0.127381841     0.6832178   -0.6462929     0.0016450   -0.0000640     0.0016174   -0.0000501     0.0005616   -0.1641765 
   0.127481866     0.6841475   -0.6439900     0.0016989   -0.0000506     0.0016803   -0.0000911     0.0008953   -0.1640073 
   0.127581891     0.6829717   -0.6440354     0.0016068    0.0000054     0.0016646    0.0000057     0.0008896   -0.1637713 
   0.127681916     0.6846288   -0.6457722     0.0016844   -0.0002123     0.0016044    0.0000199     0.0005132   -0.1642902 
   0.127781941     0.6834074   -0.6441340     0.0015720   -0.0001123     0.0017243   -0.0000618     0.0007427   -0.1638947 
   0.127881966     0.6833782   -0.6462654     0.0015401   -0.0000441     0.0016768   -0.0001729     0.0004171   -0.1634689 
   0.127981991     0.6859542   -0.6492957     0.0017360   -0.0000071     0.0017004    0.0001186     0.0004363   -0.1636049 
   0.128082016     0.6844964   -0.6466887     0.0014408   -0.0002733     0.0017342   -0.0000461     0.0005501   -0.1634019 
   0.128182041     0.6834547   -0.6460547     0.0018127    0.0000652     0.0016628   -0.0001067     0.0004550   -0.1639604 
   0.128282066     0.6783470   -0.6462715     0.0015465   -0.0001300     0.0016515   -0.0000759     0.0003018   -0.1634327 
   0.128382091     0.6810266   -0.6465175     0.0016242   -0.0002535     0.0016801   -0.0001657    -0.0000382   -0.1637501 
   0.128482116     0.6769497   -0.6493270     0.0018738   -0.0001993     0.0016832   -0.0002559    -0.0004658   -0.1635812 
   0.128582141     0.6803036   -0.6506146     0.0015971   -0.0001812     0.0017116   -0.0002071     0.0004076   -0.1632848 
   0.128682166     0.6799589   -0.6531985     0.0017626   -0.0002094     0.0017538    0.0000084    -0.0000360   -0.1635828 
   0.128782191     0.6800148   -0.6503651     0.0018045   -0.0002479     0.0015630   -0.0001876    -0.0000481   -0.1634627 
   0.128882216     0.6783738   -0.6518279     0.0018486   -0.0001261     0.0018029   -0.0002236    -0.0003522   -0.1635448 
   0.128982241     0.6779154   -0.6508008     0.0017343   -0.0002182     0.0017582   -0.0002483    -0.0007122   -0.1631285 
   0.129082266     0.6771492   -0.6515458     0.0016354    0.0001521     0.0016259   -0.0001682    -0.0000693   -0.1634838 
   0.129182291     0.6783121   -0.6481485     0.0015212   -0.0001344     0.0016670   -0.0002421    -0.0004301   -0.1634344 
   0.129282316     0.6756683   -0.6534306     0.0017020   -0.0001220     0.0017721   -0.0000654    -0.0002938   -0.1633949 
   0.129382341     0.6738455   -0.6534914     0.0015374   -0.0003159     0.0017078   -0.0001342    -0.0009067   -0.1631979 
   0.129482366     0.6762677   -0.6572739     0.0020280   -0.0001509     0.0016633   -0.0001250    -0.0003252   -0.1629449 
   0.129582391     0.6768630   -0.6533465     0.0016075    0.0000330     0.0018166    0.0000470    -0.0005030   -0.1631580 
   0.129682416     0.6739661   -0.6562970     0.0017669   -0.0001993     0.0017083   -0.0002237    -0.0009650   -0.1623940 
   0.129782441     0.6740273   -0.6556186     0.0015188   -0.0002099     0.0017861    0.0000118    -0.0007388   -0.1628088 
   0.129882466     0.6747026   -0.6540872     0.0019934   -0.0000292     0.0016586   -0.0002242    -0.0015677   -0.1628692 
   0.129982491     0.6750550   -0.6551008     0.0019357   -0.0002613     0.0017593   -0.0000432    -0.0005743   -0.1625697 
   0.130082516     0.6758249   -0.6562178     0.0016513   -0.0000140     0.0016712   -0.0001486    -0.0010079   -0.1627750 
   0.130182541     0.6719578   -0.6551067     0.0017215   -0.0000626     0.0018267   -0.0001347    -0.0012425   -0.1629588 
   0.130282566     0.6711833   -0.6576813     0.0016092    0.0001010     0.0018627   -0.0000732    -0.0013292   -0.1634507 
   0.130382591     0.6709452   -0.6557784     0.0014494    0.0000219     0.0015916   -0.0001016    -0.0015322   -0.1622878 
   0.130482616     0.6702188   -0.6562851     0.0021705   -0.0000549     0.0017495   -0.0002002    -0.0018862   -0.1624869 
   0.130582641     0.6712072   -0.6575834     0.0016836   -0.0004358     0.0018393   -0.0000573    -0.0016964   -0.1622960 
   0.130682666     0.6725262   -0.6574790     0.0017464   -0.0000959     0.0016650    0.0000206    -0.0017942   -0.1622698 
   0.130782691     0.6723580   -0.6573785     0.0019127   -0.0002416     0.0016769   -0.0002274    -0.0019893   -0.1621286 
   0.130882716     0.6700233   -0.6558706     0.0015543   -0.0004858     0.0016659   -0.0001644    -0.0021009   -0.1618711 
   0.130982741     0.6690455   -0.6534125     0.0016009   -0.0000866     0.0018105   -0.0000496    -0.0020785   -0.1624127 
   0.131082766     0.6672937   -0.6570731     0.0020830    0.0002415     0.0017844   -0.0001752    -0.0016388   -0.1622169 
   0.131182791     0.6663770   -0.6591926     0.0016274    0.0001594     0.0018013   -0.0000382    -0.0017962   -0.1621394 
   0.131282816     0.6687278   -0.6588852     0.0016522   -0.0002008     0.0016753   -0.0003549    -0.0018758   -0.1614438 
   0.131382841     0.6687412   -0.6641588     0.0018468   -0.0000767     0.0016255   -0.0001132    -0.0020406   -0.1625325 
   0.131482866     0.6665035   -0.6588053     0.0017330   -0.0001976     0.0016653   -0.0002623    -0.0019601   -0.1622052 
   0.131582891     0.6703333   -0.6608055     0.0017725   -0.0004975     0.0017798   -0.0001919    -0.0027966   -0.1621127 
   0.131682916     0.6697006   -0.6625770     0.0016515   -0.0003284     0.0016274   -0.0001246    -0.0026274   -0.1617762 
   0.131782941     0.6691366   -0.6612086     0.0018661   -0.0001329     0.0016878   -0.0002202    -0.0027568   -0.1622687 
   0.131882966     0.6648878   -0.6590807     0.0016741   -0.0000638     0.0016619   -0.0001098    -0.0024019   -0.1617531 
   0.131982991     0.6673309   -0.6596065     0.0014605    0.0001240     0.0016787   -0.0000558    -0.0029132   -0.1617781 
   0.132083017     0.6634502   -0.6611013     0.0016840   -0.0003554     0.0017933   -0.0001299    -0.0029425   -0.1613676 
   0.132183042     0.6650155   -0.6611578     0.0017084   -0.0004190     0.0017997    0.0000824    -0.0036313   -0.1615158 
   0.132283067     0.6620963   -0.6643446     0.0017162   -0.0000178     0.0016985   -0.0000514    -0.0029624   -0.1615626 
   0.132383092     0.6627879   -0.6646734     0.0017692   -0.0003007     0.0017419   -0.0001224    -0.0031085   -0.1621186 
   0.132483117     0.6639943   -0.6614087     0.0016093   -0.0002812     0.0015727   -0.0000186    -0.0031518   -0.1613995 
   0.132583142     0.6621229   -0.6657965     0.0014393    0.0001610     0.0015976   -0.0002432    -0.0036320   -0.1614354 
   0.132683167     0.6624020   -0.6660545     0.0014273   -0.0001521     0.0016051   -0.0000541    -0.0033033   -0.1616775 
   0.132783192     0.6616888   -0.6610954     0.0016164   -0.0002199     0.0014812   -0.0000170    -0.0035180   -0.1615554 
   0.132883217     0.6637522   -0.6666026     0.0017771   -0.0004113     0.0018638   -0.0002125    -0.0031199   -0.1612677 
   0.132983242     0.6637061   -0.6650195     0.0017985    0.0001244     0.0015540   -0.0000242    -0.0030269   -0.1616316 
   0.133083267     0.6644639   -0.6676025     0.0018227    0.0000143     0.0017117   -0.0002231    -0.0034396   -0.1616987 
   0.133183292     0.6571852   -0.6655207     0.0018596   -0.0003212     0.0017604   -0.0000699    -0.0033851   -0.1611502 
   0.133283317     0.6608747   -0.6637598     0.0018851   -0.0004390     0.0017776   -0.0001119    -0.0038146   -0.1608165 
   0.133383342     0.6630270   -0.6680454     0.0019398    0.0000293     0.0016606   -0.0001817    -0.0039312   -0.1617669 
   0.133483367     0.6598663   -0.6677034     0.0017607   -0.0003312     0.0018169   -0.0001567    -0.0040949   -0.1617292 
   0.133583392     0.6577542   -0.6678876     0.0019121   -0.0003561     0.0016573   -0.0001480    -0.0039913   -0.1613926 
   0.133683417     0.6620768   -0.6711166     0.0017859   -0.0002417     0.0018026   -0.0002569    -0.0042985   -0.1614037 
   0.133783442     0.6601523   -0.6647649     0.0019457   -0.0002108     0.0016560   -0.0000367    -0.0041870   -0.1611220 
   0.133883467     0.6595107   -0.6690825     0.0017828   -0.0001758     0.0017360   -0.0002052    -0.0039173   -0.1613181 
   0.133983492     0.6579955   -0.6682369     0.0016406    0.0001172     0.0016503   -0.0001408    -0.0044074   -0.1605074 
   0.134083517     0.6573508   -0.6677430     0.0019046   -0.0003307     0.0016473   -0.0001893    -0.0046088   -0.1605143 
   0.134183542     0.6538430   -0.6730194     0.0018751   -0.0002224     0.0015997   -0.0003290    -0.0041097   -0.1607743 
   0.134283567     0.6558092   -0.6711226     0.0017835   -0.0000175     0.0016817   -0.0000946    -0.0041479   -0.1610677 
   0.134383592     0.6588751   -0.6697267     0.0019313   -0.0000823     0.0017884   -0.0000479    -0.0043736   -0.1604489 
   0.134483617     0.6541529   -0.6694120     0.0019936   -0.0002199     0.0016346   -0.0003032    -0.0047356   -0.1607475 
   0.134583642     0.6579740   -0.6760758     0.0019458   -0.0003601     0.0016149   -0.0002384    -0.0044537   -0.1607606 
   0.134683667     0.6549931   -0.6739163     0.0013406   -0.0003783     0.0018050   -0.0000635    -0.0044663   -0.1605638 
   0.134783692     0.6542732   -0.6734377     0.0019541   -0.0003649     0.0019919   -0.0001140    -0.0045105   -0.1603278 
   0.134883717     0.6582990   -0.6773578     0.0016727   -0.0005352     0.0017988   -0.0002895    -0.0049330   -0.1603961 
   0.134983742     0.6493241   -0.6710361     0.0018335    0.0000929     0.0017364    0.0000377    -0.0054339   -0.1600356 
   0.135083767     0.6522434   -0.6781529     0.0018359   -0.0001656     0.0016618   -0.0002292    -0.0050898   -0.1606377 
   0.135183792     0.6544992   -0.6741039     0.0018179   -0.0002933     0.0017501   -0.0002282    -0.0053590   -0.1601547 
   0.135283817     0.6533212   -0.6763875     0.0020391   -0.0002552     0.0019670   -0.0000919    -0.0054173   -0.1604049 
   0.135383842     0.6468745   -0.6757370     0.0013870   -0.0005166     0.0018597   -0.0003398    -0.0060152   -0.1603574 
   0.135483867     0.6467144   -0.6753572     0.0021914    0.0000216     0.0018518   -0.0002419    -0.0051294   -0.1605404 
   0.135583892     0.6510510   -0.6726789     0.0016876   -0.0000880     0.0016476   -0.0002996    -0.0047114   -0.1605126 
   0.135683917     0.6520064   -0.6764364     0.0014451   -0.0006955     0.0015764   -0.0000597    -0.0056991   -0.1604915 
   0.135783942     0.6492873   -0.6734142     0.0017501   -0.0003621     0.0017472   -0.0000535    -0.0057176   -0.1601891 
   0.135883967     0.6506705   -0.6752014     0.0013974   -0.0001114     0.0018020   -0.0002522    -0.0057325   -0.1602401 
   0.135983992     0.6525427   -0.6767564     0.0017320   -0.0003382     0.0018314   -0.0001939    -0.0057633   -0.1605918 
   0.136084017     0.6506538   -0.6806813     0.0017691   -0.0002912     0.0016983   -0.0001359    -0.0058710   -0.1606276 
   0.136184042     0.6507906   -0.6763376     0.0018804   -0.0001414     0.0017996   -0.0002741    -0.0059718   -0.1603066 
   0.136284067     0.6492118   -0.6782489     0.0017727   -0.0001638     0.0017445   -0.0000333    -0.0060880   -0.1597539 
   0.136384092     0.6481581   -0.6767505     0.0019277   -0.0002640     0.0019596   -0.0003939    -0.0064078   -0.1599717 
   0.136484117     0.6457320   -0.6798595     0.0021400    0.0000277     0.0017841   -0.0001957    -0.0060886   -0.1601715 
   0.136584142     0.6449100   -0.6832833     0.0017457    0.0001909     0.0016378   -0.0002351    -0.0062284   -0.1598082 
   0.136684167     0.6508386   -0.6766539     0.0020277   -0.0004364     0.0017558   -0.0005190    -0.0063786   -0.1599684 
   0.136784192     0.6429279   -0.6796866     0.0018842    0.0004377     0.0018046    0.0000161    -0.0064323   -0.1596528 
   0.136884217     0.6461205   -0.6807187     0.0020621    0.0000377     0.0017105   -0.0004740    -0.0070736   -0.1597786 
   0.136984242     0.6461245   -0.6834614     0.0017702   -0.0001159     0.0018601   -0.0001263    -0.0068955   -0.1596729 
   0.137084267     0.6484980   -0.6788157     0.0014117   -0.0003000     0.0017112   -0.0002889    -0.0071144   -0.1598445 
   0.137184292     0.6457500   -0.6838894     0.0020905   -0.0007641     0.0015622   -0.0003451    -0.0072772   -0.1598839 
   0.137284317     0.6419318   -0.6805203     0.0016999   -0.0006215     0.0018759   -0.0001705    -0.0068592   -0.1592669 
   0.137384342     0.6435572   -0.6847090     0.0013213   -0.0000098     0.0016792   -0.0003436    -0.0066346   -0.1594848 
   0.137484367     0.6418757   -0.6851178     0.0017278   -0.0002968     0.0020297   -0.0003325    -0.0070853   -0.1598682 
   0.137584392     0.6442578   -0.6803271     0.0019558   -0.0000505     0.0017550   -0.0004735    -0.0068941   -0.1595975 
   0.137684417     0.6408406   -0.6834227     0.0016926   -0.0007027     0.0017558   -0.0002075    -0.0065608   -0.1593755 
   0.137784442     0.6415204   -0.6880891     0.0020122   -0.0002012     0.0017308    0.0001014    -0.0072531   -0.1589942 
   0.137884467     0.6411794   -0.6799189     0.0018698   -0.0005774     0.0016295   -0.0003960    -0.0074381   -0.1601559 
   0.137984492     0.6438074   -0.6876534     0.0016518   -0.0004897     0.0017372   -0.0003112    -0.0075555   -0.1591387 
   0.138084517     0.6392537   -0.6885661     0.0017052   -0.0005676     0.0017276   -0.0001879    -0.0071864   -0.1593815 
   0.138184542     0.6391702   -0.6829182     0.0019518   -0.0003607     0.0016049   -0.0002126    -0.0074610   -0.1595041 
   0.138284567     0.6386192   -0.6886640     0.0014581   -0.0004538     0.0019229   -0.0002942    -0.0075158   -0.1589951 
   0.138384592     0.6380199   -0.6829756     0.0019794   -0.0003794     0.0016438   -0.0001700    -0.0077547   -0.1590773 
   0.138484617     0.6373165   -0.6870064     0.0017995   -0.0004952     0.0017148   -0.0003993    -0.0073653   -0.1589652 
   0.138584642     0.6362835   -0.6865892     0.0019173   -0.0002576     0.0017913   -0.0003624    -0.0076902   -0.1591932 
   0.138684667     0.6422115   -0.6895679     0.0020721    0.0001696     0.0015772   -0.0004818    -0.0078876   -0.1589327 
   0.138784692     0.6415588   -0.6825438     0.0018372   -0.0001868     0.0018851   -0.0002143    -0.0082027   -0.1595987 
   0.138884717     0.6399453   -0.6900696     0.0017415    0.0000548     0.0017398   -0.0001124    -0.0079277   -0.1590917 
   0.138984742     0.6418772   -0.6902698     0.0017476   -0.0006332     0.0018664   -0.0002953    -0.0078244   -0.1586730 
   0.139084767     0.6383650   -0.6928409     0.0019123   -0.0004114     0.0016780   -0.0001310    -0.0083616   -0.1586374 
   0.139184792     0.6373530   -0.6923594     0.0019029   -0.0003965     0.0018257   -0.0003349    -0.0083600   -0.1591250 
   0.139284817     0.6355830   -0.6939561     0.0018317   -0.0004463     0.0018373   -0.0002311    -0.0081467   -0.1586394 
   0.139384842     0.6370433   -0.6916341     0.0015759    0.0000366     0.0017963   -0.0002095    -0.0088817   -0.1588249 
   0.139484867     0.6387109   -0.6900713     0.0017392    0.0000490     0.0018202   -0.0003559    -0.0087933   -0.1588313 
   0.139584892     0.6339284   -0.6861142     0.0020108   -0.0008146     0.0017252   -0.0000078    -0.0077252   -0.1582443 
   0.139684917     0.6386499   -0.6887671     0.0015133   -0.0006570     0.0015180   -0.0001841    -0.0089779   -0.1590977 
   0.139784942     0.6358635   -0.6916034     0.0017676   -0.0002820     0.0018918   -0.0000809    -0.0087665   -0.1593186 
   0.139884967     0.6331428   -0.6930103     0.0013953   -0.0007439     0.0019642   -0.0001194    -0.0088508   -0.1584859 
   0.139984992     0.6346664   -0.6941616     0.0020229   -0.0006557     0.0017074   -0.0002347    -0.0087694   -0.1582104 
   0.140085018     0.6357910   -0.6940126     0.0018369   -0.0001253     0.0016336   -0.0002684    -0.0084356   -0.1582182 
   0.140185043     0.6384377   -0.6956885     0.0016733   -0.0000325     0.0019082   -0.0002039    -0.0094096   -0.1579989 
   0.140285068     0.6271679   -0.6946111     0.0014388   -0.0004707     0.0020622   -0.0004583    -0.0086938   -0.1584441 
   0.140385093     0.6326838   -0.6906593     0.0018529    0.0002091     0.0017984   -0.0002817    -0.0087570   -0.1581927 
   0.140485118     0.6324808   -0.6928563     0.0016862   -0.0001066     0.0018319   -0.0001377    -0.0093722   -0.1577941 
   0.140585143     0.6322342   -0.6963960     0.0017997    0.0000765     0.0017006   -0.0003042    -0.0090468   -0.1585145 
   0.140685168     0.6305733   -0.6950277     0.0021839    0.0002186     0.0017816   -0.0001349    -0.0094890   -0.1583271 
   0.140785193     0.6306056   -0.6929858     0.0015094   -0.0000676     0.0017600   -0.0004099    -0.0094385   -0.1577478 
   0.140885218     0.6298233   -0.6915404     0.0021100   -0.0003651     0.0019989   -0.0003872    -0.0093020   -0.1578298 
   0.140985243     0.6270415   -0.6978009     0.0016733   -0.0003562     0.0018881   -0.0003435    -0.0094176   -0.1583947 
   0.141085268     0.6299863   -0.6968340     0.0016852   -0.0002192     0.0018718   -0.0002114    -0.0094329   -0.1582086 
   0.141185293     0.6264800   -0.6979824     0.0016580   -0.0003368     0.0016708   -0.0003261    -0.0095747   -0.1575999 
   0.141285318     0.6272038   -0.6994739     0.0015595   -0.0001164     0.0017683   -0.0002405    -0.0099982   -0.1577490 
   0.141385343     0.6302430   -0.7015222     0.0018793   -0.0002236     0.0017074   -0.0001793    -0.0104050   -0.1579017 
   0.141485368     0.6231382   -0.6994193     0.0016150   -0.0007866     0.0017378   -0.0001739    -0.0099352   -0.1580108 
   0.141585393     0.6267102   -0.6981004     0.0014458   -0.0000612     0.0018727   -0.0004564    -0.0100582   -0.1577052 
   0.141685418     0.6272163   -0.6953481     0.0021292   -0.0001628     0.0021166   -0.0002429    -0.0104429   -0.1575721 
   0.141785443     0.6288845   -0.7022458     0.0017668   -0.0001313     0.0016970   -0.0002733    -0.0102373   -0.1574651 
   0.141885468     0.6264734   -0.6987733     0.0022988   -0.0003193     0.0017586   -0.0001803    -0.0097341   -0.1574700 
   0.141985493     0.6228575   -0.7010969     0.0020870   -0.0003229     0.0017236   -0.0003470    -0.0107534   -0.1576654 
   0.142085518     0.6288419   -0.7030305     0.0017045   -0.0004479     0.0020818   -0.0003286    -0.0111220   -0.1577013 
   0.142185543     0.6232751   -0.7045028     0.0016152    0.0003133     0.0017225   -0.0003360    -0.0109822   -0.1579553 
   0.142285568     0.6256340   -0.7015547     0.0013725   -0.0004625     0.0018129   -0.0003367    -0.0112323   -0.1577532 
   0.142385593     0.6246283   -0.7014308     0.0015358   -0.0000693     0.0017248   -0.0002009    -0.0108026   -0.1575024 
   0.142485618     0.6236578   -0.7036447     0.0019884   -0.0006970     0.0019482   -0.0005467    -0.0114393   -0.1576460 
   0.142585643     0.6238582   -0.7023445     0.0019829   -0.0001801     0.0015791   -0.0003736    -0.0110049   -0.1574657 
   0.142685668     0.6219760   -0.7014278     0.0019986   -0.0005273     0.0018555   -0.0003540    -0.0110183   -0.1573620 
   0.142785693     0.6218581   -0.7024811     0.0018779    0.0000060     0.0019120   -0.0005418    -0.0112051   -0.1569642 
   0.142885718     0.6232319   -0.7036232     0.0015270   -0.0002263     0.0014877   -0.0003870    -0.0114252   -0.1571648 
   0.142985743     0.6184254   -0.7000624     0.0020203   -0.0004116     0.0018885   -0.0003657    -0.0113722   -0.1574927 
   0.143085768     0.6215675   -0.7039810     0.0015235   -0.0006589     0.0019094   -0.0002358    -0.0116562   -0.1574938 
   0.143185793     0.6228719   -0.7047258     0.0018892   -0.0006859     0.0017221   -0.0005814    -0.0119799   -0.1572398 
   0.143285818     0.6231536   -0.7058018     0.0022068   -0.0001350     0.0019632   -0.0005911    -0.0117800   -0.1568231 
   0.143385843     0.6240129   -0.7077634     0.0017967    0.0000246     0.0022587   -0.0003933    -0.0115595   -0.1570939 
   0.143485868     0.6221431   -0.7055979     0.0017655   -0.0003126     0.0018548   -0.0002875    -0.0113575   -0.1565379 
   0.143585893     0.6207148   -0.7115110     0.0016006   -0.0005697     0.0017177   -0.0004348    -0.0120879   -0.1568100 
   0.143685918     0.6184539   -0.7084624     0.0014618   -0.0001917     0.0019655   -0.0001596    -0.0121845   -0.1571164 
   0.143785943     0.6187195   -0.7021286     0.0017533   -0.0006522     0.0018931   -0.0004788    -0.0121872   -0.1573056 
   0.143885968     0.6186509   -0.7075235     0.0014566   -0.0003624     0.0019009   -0.0003474    -0.0115884   -0.1572038 
   0.143985993     0.6164016   -0.7061704     0.0021169   -0.0002203     0.0018531   -0.0000751    -0.0119637   -0.1573167 
   0.144086018     0.6241995   -0.7072003     0.0015312   -0.0003556     0.0018496   -0.0003232    -0.0120516   -0.1568810 
   0.144186043     0.6201712   -0.7076498     0.0021157   -0.0003057     0.0017930   -0.0003603    -0.0130324   -0.1566867 
   0.144286068     0.6185623   -0.7108966     0.0018059    0.0000141     0.0019474   -0.0004717    -0.0121948   -0.1567560 
   0.144386093     0.6167099   -0.7080256     0.0017786   -0.0003054     0.0019245   -0.0004348    -0.0120508   -0.1570296 
   0.144486118     0.6139307   -0.7095568     0.0013303   -0.0002383     0.0018788   -0.0004340    -0.0125048   -0.1571595 
   0.144586143     0.6096166   -0.7073260     0.0017828   -0.0004663     0.0019410   -0.0003487    -0.0127101   -0.1565236 
   0.144686168     0.6110157   -0.7055935     0.0020317   -0.0002393     0.0016678   -0.0003404    -0.0124027   -0.1560983 
   0.144786193     0.6126279   -0.7085950     0.0021418   -0.0007291     0.0018600   -0.0005450    -0.0129468   -0.1563904 
   0.144886218     0.6108434   -0.7141699     0.0020894   -0.0003138     0.0018613   -0.0004292    -0.0122911   -0.1563305 
   0.144986243     0.6111280   -0.7084322     0.0015282   -0.0003125     0.0017635   -0.0003188    -0.0127499   -0.1564130 
   0.145086268     0.6156862   -0.7087660     0.0017257   -0.0005190     0.0019087   -0.0004189    -0.0126567   -0.1564955 
   0.145186293     0.6119476   -0.7144597     0.0020626   -0.0007388     0.0020488   -0.0005369    -0.0133317   -0.1569419 
   0.145286318     0.6155311   -0.7121989     0.0017264   -0.0002309     0.0019092   -0.0005360    -0.0126622   -0.1564115 
   0.145386343     0.6122850   -0.7125338     0.0018488   -0.0008969     0.0017737   -0.0006532    -0.0132705   -0.1561082 
   0.145486368     0.6098148   -0.7159328     0.0020437   -0.0000160     0.0019258   -0.0004890    -0.0128578   -0.1556430 
   0.145586393     0.6092452   -0.7111342     0.0018689   -0.0004193     0.0016926   -0.0002791    -0.0134229   -0.1561987 
   0.145686418     0.6131613   -0.7117738     0.0014334   -0.0006402     0.0016980   -0.0004086    -0.0134394   -0.1565672 
   0.145786443     0.6130092   -0.7091340     0.0014947   -0.0005506     0.0018708   -0.0002662    -0.0134050   -0.1554342 
   0.145886468     0.6087313   -0.7124784     0.0017590   -0.0005639     0.0015885   -0.0006079    -0.0134104   -0.1562736 
   0.145986493     0.6116597   -0.7122111     0.0019489   -0.0008914     0.0019339   -0.0004662    -0.0138547   -0.1555446 
   0.146086518     0.6117339   -0.7146556     0.0018524   -0.0003918     0.0017754   -0.0005602    -0.0137880   -0.1560925 
   0.146186543     0.6086025   -0.7148314     0.0019348   -0.0005536     0.0017836   -0.0003233    -0.0137078   -0.1558629 
   0.146286568     0.6014475   -0.7191662     0.0018698   -0.0005917     0.0018464   -0.0003373    -0.0140233   -0.1558730 
   0.146386593     0.6102642   -0.7181075     0.0019272   -0.0003614     0.0019194   -0.0004878    -0.0142120   -0.1559636 
   0.146486618     0.6069259   -0.7180796     0.0019301   -0.0005119     0.0020548   -0.0004609    -0.0142666   -0.1564820 
   0.146586643     0.6027344   -0.7191975     0.0021348    0.0000063     0.0020876   -0.0005804    -0.0142954   -0.1556187 
   0.146686668     0.6062553   -0.7219678     0.0014536   -0.0010026     0.0019683   -0.0002938    -0.0143903   -0.1557296 
   0.146786693     0.6088201   -0.7184937     0.0021586    0.0001926     0.0018416   -0.0002698    -0.0142693   -0.1554235 
   0.146886718     0.6038184   -0.7215187     0.0021899   -0.0002630     0.0017999   -0.0004229    -0.0141020   -0.1551282 
   0.146986743     0.6076254   -0.7138415     0.0018924   -0.0004347     0.0018741   -0.0005558    -0.0144756   -0.1558385 
   0.147086768     0.6031918   -0.7161548     0.0023435   -0.0006370     0.0018857   -0.0002947    -0.0148006   -0.1557005 
   0.147186793     0.6050858   -0.7179711     0.0016939   -0.0003490     0.0016649   -0.0004492    -0.0151755   -0.1554409 
   0.147286818     0.6034920   -0.7198573     0.0016842   -0.0001700     0.0018785   -0.0004703    -0.0149659   -0.1552011 
   0.147386843     0.6056911   -0.7136271     0.0020494   -0.0007582     0.0022217   -0.0004591    -0.0153331   -0.1557674 
   0.147486868     0.6023681   -0.7247381     0.0020545   -0.0001288     0.0019396   -0.0002038    -0.0147138   -0.1557164 
   0.147586893     0.6012884   -0.7237264     0.0021751   -0.0008603     0.0018611   -0.0003530    -0.0152206   -0.1554325 
   0.147686918     0.5973589   -0.7208211     0.0020158   -0.0001590     0.0017857   -0.0006350    -0.0148755   -0.1554004 
   0.147786943     0.6000995   -0.7209189     0.0025111   -0.0009517     0.0015169   -0.0005769    -0.0145861   -0.1548999 
   0.147886968     0.5990260   -0.7252108     0.0016289   -0.0001371     0.0019476   -0.0004059    -0.0151821   -0.1552703 
   0.147986993     0.6021442   -0.7254212     0.0018320   -0.0001024     0.0019826   -0.0003195    -0.0156680   -0.1547599 
   0.148087019     0.5991865   -0.7254183     0.0019630   -0.0002852     0.0020176   -0.0002456    -0.0149249   -0.1553197 
   0.148187044     0.6039004   -0.7232254     0.0023452   -0.0001685     0.0022849   -0.0002206    -0.0155829   -0.1552253 
   0.148287069     0.6036829   -0.7244484     0.0018761   -0.0003096     0.0019578   -0.0004428    -0.0157762   -0.1549418 
   0.148387094     0.5969740   -0.7248068     0.0015929    0.0001364     0.0019024   -0.0003461    -0.0155001   -0.1548053 
   0.148487119     0.5968984   -0.7257559     0.0014937   -0.0002579     0.0019158   -0.0002401    -0.0159643   -0.1551192 
   0.148587144     0.5999272   -0.7246795     0.0019279   -0.0008985     0.0018524   -0.0007411    -0.0154367   -0.1555196 
   0.148687169     0.6008962   -0.7245492     0.0016155   -0.0006729     0.0021884   -0.0003106    -0.0162176   -0.1546859 
   0.148787194     0.5957366   -0.7248552     0.0019938   -0.0005348     0.0019344   -0.0004861    -0.0158490   -0.1547823 
   0.148887219     0.5947686   -0.7268137     0.0015344    0.0000461     0.0016189   -0.0003937    -0.0159538   -0.1547441 
   0.148987244     0.5966178   -0.7267871     0.0018986   -0.0002990     0.0020276   -0.0005200    -0.0156761   -0.1553215 
   0.149087269     0.5932453   -0.7260224     0.0017895   -0.0006223     0.0019920   -0.0005551    -0.0159524   -0.1546639 
   0.149187294     0.5962200   -0.7249001     0.0020236   -0.0003224     0.0019874   -0.0004915    -0.0162834   -0.1552876 
   0.149287319     0.5939277   -0.7259517     0.0016041   -0.0004175     0.0018813   -0.0004467    -0.0162199   -0.1552273 
   0.149387344     0.5907420   -0.7312609     0.0015931   -0.0004827     0.0017210   -0.0008386    -0.0166472   -0.1548260 
   0.149487369     0.5937410   -0.7275938     0.0013736   -0.0000281     0.0019635   -0.0004138    -0.0160797   -0.1548330 
   0.149587394     0.5953244   -0.7277384     0.0012217   -0.0003486     0.0021453   -0.0004832    -0.0165250   -0.1553799 
   0.149687419     0.5929288   -0.7219283     0.0018735   -0.0004065     0.0020996   -0.0007405    -0.0165383   -0.1550127 
   0.149787444     0.5923902   -0.7291567     0.0017290   -0.0003827     0.0021055   -0.0003970    -0.0163895   -0.1542816 
   0.149887469     0.5918218   -0.7278609     0.0027042   -0.0010463     0.0019967   -0.0001661    -0.0165862   -0.1546184 
   0.149987494     0.5986437   -0.7296394     0.0018321   -0.0000370     0.0019180   -0.0005827    -0.0166536   -0.1542623 
   0.150087519     0.5905350   -0.7356220     0.0014442   -0.0007215     0.0020765   -0.0002786    -0.0169140   -0.1543840 
   0.150187544     0.5920071   -0.7291610     0.0021549   -0.0002280     0.0020113   -0.0007389    -0.0171191   -0.1545097 
   0.150287569     0.5965780   -0.7327333     0.0019075   -0.0001317     0.0019022   -0.0007070    -0.0167349   -0.1540343 
   0.150387594     0.5844756   -0.7280880     0.0019960    0.0000322     0.0019091   -0.0006038    -0.0167858   -0.1545515 
   0.150487619     0.5865509   -0.7273381     0.0018873   -0.0004111     0.0021274   -0.0004361    -0.0170229   -0.1545762 
   0.150587644     0.5884900   -0.7325589     0.0011512   -0.0005470     0.0015957   -0.0001864    -0.0170920   -0.1542940 
   0.150687669     0.5937098   -0.7304219     0.0015259   -0.0003115     0.0021523   -0.0004250    -0.0173154   -0.1545159 
   0.150787694     0.5911576   -0.7284006     0.0020246   -0.0010244     0.0019154   -0.0007119    -0.0174131   -0.1545420 
   0.150887719     0.5881482   -0.7321783     0.0016508    0.0000581     0.0019084   -0.0005837    -0.0172335   -0.1541755 
   0.150987744     0.5939797   -0.7277070     0.0020912   -0.0003172     0.0020068   -0.0004699    -0.0175598   -0.1543553 
   0.151087769     0.5808042   -0.7318977     0.0018938   -0.0006444     0.0020569   -0.0006379    -0.0179941   -0.1538441 
   0.151187794     0.5836791   -0.7304761     0.0018753   -0.0002611     0.0018908   -0.0003286    -0.0176155   -0.1539687 
   0.151287819     0.5911983   -0.7327785     0.0019072   -0.0004365     0.0020584   -0.0004320    -0.0172680   -0.1539176 
   0.151387844     0.5893365   -0.7309510     0.0024292   -0.0003025     0.0018468   -0.0003226    -0.0174979   -0.1535475 
   0.151487869     0.5840295   -0.7341868     0.0017193    0.0001378     0.0020292   -0.0007034    -0.0177344   -0.1536012 
   0.151587894     0.5876007   -0.7390878     0.0016069   -0.0006626     0.0019181   -0.0001889    -0.0176946   -0.1540240 
   0.151687919     0.5812347   -0.7369763     0.0021845   -0.0006292     0.0018513   -0.0004272    -0.0173063   -0.1535840 
   0.151787944     0.5806392   -0.7330431     0.0020011   -0.0005874     0.0019345   -0.0004287    -0.0179584   -0.1536089 
   0.151887969     0.5837120   -0.7333763     0.0013184   -0.0005509     0.0020544   -0.0005237    -0.0179321   -0.1536616 
   0.151987994     0.5795465   -0.7367081     0.0021520   -0.0007603     0.0018889   -0.0005364    -0.0182015   -0.1533325 
   0.152088019     0.5851505   -0.7377688     0.0018818   -0.0003871     0.0018454   -0.0008450    -0.0183785   -0.1537110 
   0.152188044     0.5796596   -0.7319319     0.0016163   -0.0007972     0.0018912   -0.0001050    -0.0180052   -0.1536265 
   0.152288069     0.5836498   -0.7368172     0.0018762   -0.0003119     0.0015323   -0.0005399    -0.0181444   -0.1535374 
   0.152388094     0.5835118   -0.7373410     0.0018330   -0.0003665     0.0019464   -0.0006185    -0.0187304   -0.1534070 
   0.152488119     0.5843477   -0.7367693     0.0012942   -0.0001101     0.0017423   -0.0004439    -0.0192827   -0.1536188 
   0.152588144     0.5794647   -0.7412086     0.0015474    0.0001618     0.0022168   -0.0005056    -0.0183698   -0.1533753 
   0.152688169     0.5798327   -0.7364339     0.0025270   -0.0008474     0.0017474   -0.0004862    -0.0189842   -0.1535804 
   0.152788194     0.5803253   -0.7384127     0.0017552   -0.0004912     0.0020548   -0.0002918    -0.0184794   -0.1530420 
   0.152888219     0.5821409   -0.7402071     0.0023380   -0.0006808     0.0018506   -0.0007028    -0.0191827   -0.1530783 
   0.152988244     0.5762897   -0.7349139     0.0022530   -0.0002578     0.0015922   -0.0006348    -0.0189984   -0.1536255 
   0.153088269     0.5765329   -0.7408070     0.0019967   -0.0005606     0.0020917   -0.0004963    -0.0182579   -0.1529638 
   0.153188294     0.5783687   -0.7422583     0.0025589   -0.0005408     0.0018592   -0.0003660    -0.0191564   -0.1530111 
   0.153288319     0.5784605   -0.7397962     0.0020868   -0.0006930     0.0013091   -0.0005922    -0.0187243   -0.1531548 
   0.153388344     0.5824072   -0.7333462     0.0017637   -0.0003985     0.0015068   -0.0005627    -0.0189264   -0.1526006 
   0.153488369     0.5786696   -0.7372664     0.0020385   -0.0003696     0.0020084   -0.0004664    -0.0192299   -0.1526384 
   0.153588394     0.5782737   -0.7500386     0.0025440   -0.0003802     0.0018293   -0.0004902    -0.0192237   -0.1527367 
   0.153688419     0.5772269   -0.7390016     0.0014004   -0.0005411     0.0018567   -0.0004511    -0.0198965   -0.1525343 
   0.153788444     0.5749215   -0.7452506     0.0020920   -0.0005210     0.0019890   -0.0004942    -0.0200750   -0.1533275 
   0.153888469     0.5800907   -0.7437465     0.0014962   -0.0005228     0.0018596   -0.0003901    -0.0196670   -0.1526871 
   0.153988494     0.5763987   -0.7435776     0.0019197   -0.0007735     0.0018760   -0.0005893    -0.0199328   -0.1525766 
   0.154088519     0.5769273   -0.7422490     0.0025818   -0.0006671     0.0018284   -0.0007711    -0.0201816   -0.1527540 
   0.154188544     0.5752293   -0.7385441     0.0016831   -0.0001562     0.0015674   -0.0008787    -0.0198723   -0.1528106 
   0.154288569     0.5758575   -0.7457530     0.0015660   -0.0000215     0.0016697   -0.0004118    -0.0201564   -0.1528439 
   0.154388594     0.5703347   -0.7443757     0.0017696   -0.0005600     0.0022315   -0.0003724    -0.0200705   -0.1525617 
   0.154488619     0.5732771   -0.7406300     0.0023776   -0.0003332     0.0023343   -0.0005979    -0.0202706   -0.1528442 
   0.154588644     0.5690976   -0.7476988     0.0021754   -0.0005421     0.0020332   -0.0006072    -0.0198868   -0.1522905 
   0.154688669     0.5664488   -0.7479405     0.0015171   -0.0007526     0.0017662   -0.0002381    -0.0199880   -0.1529061 
   0.154788694     0.5746863   -0.7522169     0.0018362    0.0000325     0.0019879   -0.0005715    -0.0203640   -0.1524590 
   0.154888719     0.5698647   -0.7443387     0.0017914   -0.0006925     0.0020031   -0.0005034    -0.0199689   -0.1524882 
   0.154988744     0.5709366   -0.7431733     0.0022938   -0.0003791     0.0018058   -0.0006497    -0.0206414   -0.1522406 
   0.155088769     0.5713205   -0.7434951     0.0023494   -0.0007430     0.0021147   -0.0003823    -0.0203094   -0.1524126 
   0.155188794     0.5707867   -0.7424478     0.0015546   -0.0004828     0.0019209   -0.0006155    -0.0204578   -0.1521190 
   0.155288819     0.5685317   -0.7517167     0.0019084   -0.0003074     0.0018705   -0.0006663    -0.0206953   -0.1522861 
   0.155388844     0.5737480   -0.7463659     0.0023198   -0.0005840     0.0020723   -0.0003151    -0.0209703   -0.1523507 
   0.155488869     0.5669168   -0.7476580     0.0024996   -0.0008690     0.0019438   -0.0001344    -0.0209767   -0.1522644 
   0.155588894     0.5689812   -0.7510738     0.0014458   -0.0006487     0.0016687   -0.0006102    -0.0210360   -0.1525596 
   0.155688919     0.5665611   -0.7467922     0.0019520   -0.0007174     0.0019099   -0.0005407    -0.0207559   -0.1520759 
   0.155788944     0.5667898   -0.7523524     0.0020858    0.0000026     0.0019956   -0.0004596    -0.0205078   -0.1519818 
   0.155888969     0.5674460   -0.7506332     0.0021118   -0.0007245     0.0020612   -0.0000751    -0.0210243   -0.1520172 
   0.155988994     0.5630533   -0.7515437     0.0021617   -0.0002459     0.0017409   -0.0005323    -0.0214827   -0.1522793 
   0.156089020     0.5639701   -0.7494932     0.0024561   -0.0007155     0.0019757   -0.0006792    -0.0216893   -0.1519917 
   0.156189045     0.5639097   -0.7498434     0.0013242   -0.0009836     0.0020642   -0.0004764    -0.0217579   -0.1522516 
   0.156289070     0.5617222   -0.7544431     0.0022616   -0.0010005     0.0020641   -0.0005479    -0.0217469   -0.1516247 
   0.156389095     0.5646484   -0.7473090     0.0022058   -0.0005287     0.0020190   -0.0008265    -0.0214799   -0.1522174 
   0.156489120     0.5639998   -0.7501209     0.0020220   -0.0011239     0.0021783   -0.0004226    -0.0214630   -0.1512632 
   0.156589145     0.5595927   -0.7525829     0.0016494   -0.0006508     0.0015431   -0.0007565    -0.0211207   -0.1521566 
   0.156689170     0.5640096   -0.7473066     0.0019242   -0.0007117     0.0019606   -0.0004023    -0.0222854   -0.1511510 
   0.156789195     0.5675254   -0.7504089     0.0020758   -0.0006567     0.0022353   -0.0006867    -0.0215335   -0.1517738 
   0.156889220     0.5653412   -0.7470681     0.0019328   -0.0006040     0.0017575   -0.0005981    -0.0213029   -0.1520765 
   0.156989245     0.5640463   -0.7507676     0.0017830   -0.0004135     0.0020819   -0.0006866    -0.0218324   -0.1516706 
   0.157089270     0.5609725   -0.7544959     0.0019068   -0.0009256     0.0021675   -0.0007772    -0.0222028   -0.1520330 
   0.157189295     0.5621977   -0.7545036     0.0014202   -0.0007495     0.0020094   -0.0008833    -0.0222835   -0.1516532 
   0.157289320     0.5612072   -0.7535964     0.0020390   -0.0004088     0.0018023   -0.0011703    -0.0222227   -0.1519042 
   0.157389345     0.5563049   -0.7526853     0.0015437   -0.0002109     0.0019915   -0.0007866    -0.0222266   -0.1512341 
   0.157489370     0.5569465   -0.7492350     0.0019703   -0.0003647     0.0022696   -0.0004513    -0.0217085   -0.1507259 
   0.157589395     0.5534061   -0.7544963     0.0022707   -0.0009302     0.0020997   -0.0005317    -0.0219021   -0.1517686 
   0.157689420     0.5589323   -0.7577497     0.0018591   -0.0008281     0.0020667   -0.0007531    -0.0224065   -0.1519051 
   0.157789445     0.5599960   -0.7587481     0.0017426   -0.0011049     0.0019999   -0.0008042    -0.0222839   -0.1513163 
   0.157889470     0.5582489   -0.7552482     0.0019425   -0.0003938     0.0021409   -0.0006322    -0.0231407   -0.1514510 
   0.157989495     0.5585729   -0.7548931     0.0018475   -0.0001267     0.0021968   -0.0007216    -0.0230441   -0.1511000 
   0.158089520     0.5567352   -0.7558152     0.0019837   -0.0002621     0.0018421   -0.0004374    -0.0222452   -0.1511690 
   0.158189545     0.5594822   -0.7488530     0.0016546   -0.0008430     0.0017181   -0.0007121    -0.0227820   -0.1509536 
   0.158289570     0.5558699   -0.7556887     0.0022345   -0.0006183     0.0021072   -0.0007197    -0.0224819   -0.1515249 
   0.158389595     0.5603578   -0.7520518     0.0021730   -0.0012810     0.0020841   -0.0006281    -0.0222772   -0.1509484 
   0.158489620     0.5479731   -0.7541467     0.0015244   -0.0000810     0.0018396   -0.0004370    -0.0234008   -0.1509921 
   0.158589645     0.5553115   -0.7610942     0.0020766   -0.0010118     0.0021778   -0.0006683    -0.0232417   -0.1512057 
   0.158689670     0.5517908   -0.7609638     0.0022497   -0.0003801     0.0020782   -0.0006580    -0.0233188   -0.1509274 
   0.158789695     0.5567260   -0.7533470     0.0016141   -0.0008356     0.0021470   -0.0007165    -0.0229871   -0.1505507 
   0.158889720     0.5544112   -0.7540465     0.0018354   -0.0008359     0.0020013   -0.0005181    -0.0229576   -0.1509867 
   0.158989745     0.5535218   -0.7566904     0.0017938   -0.0006619     0.0020493   -0.0009292    -0.0234180   -0.1504787 
   0.159089770     0.5571685   -0.7581589     0.0021396   -0.0008565     0.0019975   -0.0007495    -0.0234190   -0.1499982 
   0.159189795     0.5436075   -0.7593275     0.0014296   -0.0007467     0.0018987   -0.0007207    -0.0236011   -0.1505941 
   0.159289820     0.5465769   -0.7601659     0.0015242   -0.0009077     0.0018462   -0.0005753    -0.0237091   -0.1506180 
   0.159389845     0.5454972   -0.7599269     0.0013540   -0.0003771     0.0021433   -0.0009344    -0.0234307   -0.1505919 
   0.159489870     0.5521989   -0.7623723     0.0024279   -0.0006889     0.0018460   -0.0007303    -0.0237357   -0.1508857 
   0.159589895     0.5500622   -0.7590716     0.0020375   -0.0007678     0.0018354   -0.0006533    -0.0238292   -0.1506292 
   0.159689920     0.5497245   -0.7571433     0.0022777   -0.0008401     0.0017713   -0.0006443    -0.0236366   -0.1506256 
   0.159789945     0.5509837   -0.7621249     0.0018911   -0.0006025     0.0018742   -0.0005586    -0.0239186   -0.1504739 
   0.159889970     0.5464992   -0.7672148     0.0017417   -0.0005328     0.0021215   -0.0006637    -0.0238208   -0.1503005 
   0.159989995     0.5439520   -0.7607605     0.0014925   -0.0006502     0.0017859   -0.0007573    -0.0246263   -0.1502594 
   0.160090020     0.5474388   -0.7614195     0.0024942   -0.0002100     0.0017808   -0.0006430    -0.0244114   -0.1502795 
   0.160190045     0.5486326   -0.7621847     0.0022825   -0.0011939     0.0018418   -0.0006207    -0.0243807   -0.1502034 
   0.160290070     0.5412591   -0.7642368     0.0018057   -0.0010647     0.0021931   -0.0009837    -0.0246157   -0.1502172 
   0.160390095     0.5487965   -0.7648982     0.0017657    0.0001321     0.0016903   -0.0007751    -0.0238430   -0.1502082 
   0.160490120     0.5450728   -0.7557639     0.0022100   -0.0012864     0.0021162   -0.0005551    -0.0249230   -0.1501420 
   0.160590145     0.5414147   -0.7602888     0.0025775   -0.0008920     0.0021515   -0.0005095    -0.0241685   -0.1496772 
   0.160690170     0.5420095   -0.7600617     0.0014474   -0.0008534     0.0018978   -0.0009873    -0.0251511   -0.1502695 
   0.160790195     0.5375416   -0.7639461     0.0020122   -0.0011904     0.0020488   -0.0006499    -0.0243686   -0.1496975 
   0.160890220     0.5431162   -0.7629077     0.0017968   -0.0011702     0.0017132   -0.0005720    -0.0250982   -0.1497724 
   0.160990245     0.5412518   -0.7664802     0.0018859   -0.0006459     0.0020213   -0.0003232    -0.0247982   -0.1495644 
   0.161090270     0.5446033   -0.7663429     0.0019888   -0.0009214     0.0019807   -0.0007244    -0.0248985   -0.1492434 
   0.161190295     0.5371343   -0.7649795     0.0021158   -0.0005858     0.0019150   -0.0008266    -0.0257852   -0.1493384 
   0.161290320     0.5367562   -0.7619306     0.0016498   -0.0005965     0.0021015   -0.0001596    -0.0253646   -0.1499013 
   0.161390345     0.5388429   -0.7645914     0.0019243   -0.0007454     0.0021500   -0.0009423    -0.0252053   -0.1500368 
   0.161490370     0.5429024   -0.7636417     0.0019999   -0.0008778     0.0018964   -0.0007599    -0.0252527   -0.1501671 
   0.161590395     0.5381444   -0.7684671     0.0019770   -0.0011320     0.0017793   -0.0005167    -0.0248574   -0.1496604 
   0.161690420     0.5368173   -0.7632875     0.0013888   -0.0006996     0.0019687   -0.0004922    -0.0254944   -0.1495223 
   0.161790445     0.5376827   -0.7638944     0.0019807   -0.0007627     0.0019974   -0.0006963    -0.0251938   -0.1495413 
   0.161890470     0.5335455   -0.7721261     0.0017330   -0.0010098     0.0016667   -0.0006878    -0.0251682   -0.1490855 
   0.161990495     0.5411997   -0.7670711     0.0025298   -0.0010777     0.0022152   -0.0007872    -0.0254814   -0.1489705 
   0.162090520     0.5386595   -0.7683000     0.0019445   -0.0005525     0.0018834   -0.0007922    -0.0256099   -0.1490357 
   0.162190545     0.5347155   -0.7697363     0.0017324   -0.0005607     0.0020607   -0.0007070    -0.0261666   -0.1487285 
   0.162290570     0.5377118   -0.7713818     0.0024907   -0.0009591     0.0019104   -0.0008724    -0.0256359   -0.1494605 
   0.162390595     0.5367869   -0.7675236     0.0015550   -0.0006377     0.0021119   -0.0008213    -0.0262558   -0.1494053 
   0.162490620     0.5342552   -0.7687713     0.0016051   -0.0008842     0.0020769   -0.0006758    -0.0266099   -0.1488784 
   0.162590645     0.5356346   -0.7674196     0.0022748   -0.0008936     0.0023853   -0.0006016    -0.0256626   -0.1496604 
   0.162690670     0.5332604   -0.7744877     0.0023500   -0.0014202     0.0020483   -0.0007119    -0.0262673   -0.1494731 
   0.162790695     0.5289046   -0.7670658     0.0019615   -0.0008657     0.0019144   -0.0006489    -0.0263032   -0.1496983 
   0.162890720     0.5394578   -0.7721400     0.0019674   -0.0009126     0.0020407   -0.0006742    -0.0261946   -0.1491753 
   0.162990745     0.5378335   -0.7697744     0.0023355   -0.0006368     0.0015072   -0.0006404    -0.0264331   -0.1484589 
   0.163090770     0.5350833   -0.7715461     0.0021911   -0.0011248     0.0016987   -0.0006973    -0.0265050   -0.1494729 
   0.163190795     0.5359603   -0.7689735     0.0019475   -0.0010520     0.0020638   -0.0007436    -0.0262249   -0.1492171 
   0.163290820     0.5259913   -0.7754163     0.0020103   -0.0002130     0.0019657   -0.0009697    -0.0266516   -0.1486782 
   0.163390845     0.5237362   -0.7743030     0.0018596   -0.0008334     0.0016488   -0.0004256    -0.0269405   -0.1491296 
   0.163490870     0.5249950   -0.7763674     0.0020178   -0.0007569     0.0021183   -0.0004056    -0.0267744   -0.1482473 
   0.163590895     0.5360230   -0.7738726     0.0016097   -0.0008260     0.0020067   -0.0007409    -0.0267354   -0.1485586 
   0.163690920     0.5316585   -0.7762433     0.0017690   -0.0004418     0.0018224   -0.0009913    -0.0269392   -0.1488725 
   0.163790945     0.5273510   -0.7744930     0.0023002   -0.0008864     0.0014815   -0.0008596    -0.0265850   -0.1481214 
   0.163890970     0.5319966   -0.7717403     0.0014642   -0.0004333     0.0017677   -0.0004810    -0.0271874   -0.1489307 
   0.163990995     0.5288483   -0.7742555     0.0019929   -0.0008420     0.0020067   -0.0008249    -0.0270430   -0.1485320 
   0.164091021     0.5306284   -0.7739813     0.0019990   -0.0013357     0.0017493   -0.0010802    -0.0272612   -0.1489812 
   0.164191046     0.5341020   -0.7735784     0.0020372   -0.0006721     0.0018199   -0.0007626    -0.0275591   -0.1488155 
   0.164291071     0.5309662   -0.7696056     0.0014081   -0.0010814     0.0018679   -0.0007061    -0.0273828   -0.1481449 
   0.164391096     0.5249138   -0.7773945     0.0016893   -0.0005594     0.0018763   -0.0009625    -0.0275766   -0.1479469 
   0.164491121     0.5256265   -0.7750524     0.0018399   -0.0012068     0.0019684   -0.0006511    -0.0275939   -0.1483199 
   0.164591146     0.5272925   -0.7773485     0.0022133   -0.0014125     0.0019173   -0.0011148    -0.0281562   -0.1483053 
   0.164691171     0.5271294   -0.7791027     0.0020014   -0.0007791     0.0018631   -0.0012085    -0.0275621   -0.1487053 
   0.164791196     0.5267181   -0.7697811     0.0023727   -0.0005677     0.0019551   -0.0009216    -0.0277902   -0.1482525 
   0.164891221     0.5253264   -0.7791820     0.0017570   -0.0008173     0.0020936   -0.0010848    -0.0276894   -0.1485309 
   0.164991246     0.5223588   -0.7760741     0.0018089   -0.0004893     0.0015756   -0.0007851    -0.0283174   -0.1480554 
   0.165091271     0.5296112   -0.7752156     0.0023289   -0.0007338     0.0023623   -0.0005864    -0.0281524   -0.1480189 
   0.165191296     0.5244129   -0.7764363     0.0018908   -0.0007106     0.0019471   -0.0005902    -0.0280481   -0.1480353 
   0.165291321     0.5217162   -0.7812666     0.0013973   -0.0012778     0.0022651   -0.0007894    -0.0275991   -0.1478979 
   0.165391346     0.5231784   -0.7710807     0.0016605   -0.0008879     0.0020238   -0.0008013    -0.0283788   -0.1476629 
   0.165491371     0.5224977   -0.7751688     0.0024748   -0.0006201     0.0020208   -0.0006335    -0.0283276   -0.1477707 
   0.165591396     0.5235388   -0.7825210     0.0020117   -0.0007846     0.0023481   -0.0008574    -0.0282671   -0.1478216 
   0.165691421     0.5196549   -0.7813597     0.0024034   -0.0006439     0.0017080   -0.0007397    -0.0283895   -0.1482398 
   0.165791446     0.5182196   -0.7740504     0.0018043   -0.0006701     0.0019121   -0.0007371    -0.0284559   -0.1481566 
   0.165891471     0.5239159   -0.7869210     0.0015917   -0.0009693     0.0020476   -0.0006504    -0.0276209   -0.1477069 
   0.165991496     0.5179713   -0.7818545     0.0018026   -0.0007669     0.0016226   -0.0008165    -0.0287177   -0.1472044 
   0.166091521     0.5168626   -0.7770840     0.0015242   -0.0008826     0.0021029   -0.0005982    -0.0292924   -0.1477374 
   0.166191546     0.5176938   -0.7772673     0.0020698   -0.0003740     0.0018795   -0.0008389    -0.0287020   -0.1476446 
   0.166291571     0.5114709   -0.7799375     0.0018022   -0.0004154     0.0019080   -0.0009887    -0.0289152   -0.1477297 
   0.166391596     0.5167669   -0.7858888     0.0019334   -0.0010201     0.0021176   -0.0006716    -0.0289722   -0.1475036 
   0.166491621     0.5154079   -0.7834646     0.0016878   -0.0006104     0.0016675   -0.0010291    -0.0284191   -0.1474883 
   0.166591646     0.5132973   -0.7787638     0.0020090   -0.0007752     0.0019575   -0.0010251    -0.0289135   -0.1470732 
   0.166691671     0.5117002   -0.7818487     0.0018186   -0.0006862     0.0020823   -0.0006861    -0.0296470   -0.1473980 
   0.166791696     0.5130315   -0.7818732     0.0017743   -0.0007928     0.0019194   -0.0010193    -0.0295812   -0.1473297 
   0.166891721     0.5109056   -0.7860250     0.0022610   -0.0010281     0.0018985   -0.0007693    -0.0292397   -0.1474053 
   0.166991746     0.5142288   -0.7804934     0.0019104   -0.0011143     0.0017875   -0.0005069    -0.0290812   -0.1474679 
   0.167091771     0.5157743   -0.7860104     0.0023473   -0.0008530     0.0019795   -0.0011018    -0.0298739   -0.1473357 
   0.167191796     0.5111746   -0.7821708     0.0018871   -0.0009731     0.0020995   -0.0008373    -0.0299310   -0.1469558 
   0.167291821     0.5149619   -0.7823627     0.0017338   -0.0009212     0.0020594   -0.0010176    -0.0298615   -0.1470399 
   0.167391846     0.5110021   -0.7783796     0.0019576   -0.0006439     0.0018535   -0.0008739    -0.0295738   -0.1471373 
   0.167491871     0.5079929   -0.7846944     0.0020197   -0.0005441     0.0019363   -0.0006468    -0.0294313   -0.1472142 
   0.167591896     0.5106012   -0.7807773     0.0018141   -0.0005813     0.0018455   -0.0007007    -0.0305047   -0.1465285 
   0.167691921     0.5083497   -0.7845193     0.0018689   -0.0008963     0.0017811   -0.0010249    -0.0303637   -0.1475499 
   0.167791946     0.5158619   -0.7830049     0.0020154   -0.0008141     0.0018119   -0.0010574    -0.0304209   -0.1469412 
   0.167891971     0.5064009   -0.7854065     0.0020233   -0.0009927     0.0021274   -0.0009585    -0.0300310   -0.1470993 
   0.167991996     0.5123379   -0.7843447     0.0016398   -0.0009347     0.0019221   -0.0008393    -0.0303620   -0.1462298 
   0.168092021     0.5099037   -0.7872068     0.0020716   -0.0011164     0.0021887   -0.0010059    -0.0302362   -0.1461478 
   0.168192046     0.5122992   -0.7919585     0.0020914   -0.0011679     0.0016558   -0.0009508    -0.0296853   -0.1464660 
   0.168292071     0.5114827   -0.7840919     0.0022904   -0.0011122     0.0019338   -0.0009689    -0.0304563   -0.1469351 
   0.168392096     0.5054055   -0.7861712     0.0016213   -0.0005891     0.0019952   -0.0008239    -0.0306023   -0.1472178 
   0.168492121     0.5058842   -0.7859901     0.0019658   -0.0009022     0.0020715   -0.0007316    -0.0306551   -0.1469714 
   0.168592146     0.5031524   -0.7872591     0.0018276   -0.0007241     0.0019598   -0.0009257    -0.0298010   -0.1468848 
   0.168692171     0.5057866   -0.7865946     0.0019335   -0.0008690     0.0019857   -0.0009811    -0.0312466   -0.1463570 
   0.168792196     0.5022228   -0.7852101     0.0018971   -0.0009039     0.0018979   -0.0008210    -0.0302620   -0.1461596 
   0.168892221     0.5022957   -0.7832227     0.0021585   -0.0007271     0.0021809   -0.0007568    -0.0301858   -0.1465728 
   0.168992246     0.5021442   -0.7921647     0.0020396   -0.0006121     0.0021172   -0.0009043    -0.0310261   -0.1462043 
   0.169092271     0.5017482   -0.7885464     0.0022066   -0.0009470     0.0018753   -0.0010945    -0.0309152   -0.1460460 
   0.169192296     0.5019445   -0.7876346     0.0022829   -0.0008753     0.0018805   -0.0010977    -0.0311536   -0.1461400 
   0.169292321     0.4985703   -0.7882578     0.0016596   -0.0010656     0.0019094   -0.0007468    -0.0307344   -0.1455699 
   0.169392346     0.4998080   -0.7902684     0.0019397   -0.0010432     0.0020032   -0.0008073    -0.0306566   -0.1462072 
   0.169492371     0.4998988   -0.7897734     0.0022707   -0.0010680     0.0017478   -0.0008781    -0.0311045   -0.1458216 
   0.169592396     0.5071669   -0.7882171     0.0019524   -0.0011840     0.0020377   -0.0010501    -0.0308632   -0.1455056 
   0.169692421     0.5029140   -0.7884284     0.0017044   -0.0008568     0.0019660   -0.0010077    -0.0319128   -0.1464200 
   0.169792446     0.4985053   -0.7925781     0.0021671   -0.0009982     0.0021037   -0.0009530    -0.0311745   -0.1458847 
   0.169892471     0.4938759   -0.7901289     0.0018285   -0.0007280     0.0020075   -0.0009414    -0.0316970   -0.1449425 
   0.169992496     0.4980096   -0.7997718     0.0018120   -0.0011057     0.0020177   -0.0008036    -0.0311964   -0.1458685 
   0.170092521     0.5010133   -0.7906032     0.0016178   -0.0007722     0.0020817   -0.0009889    -0.0316969   -0.1455641 
   0.170192546     0.4994931   -0.7935551     0.0022128   -0.0009867     0.0016318   -0.0008190    -0.0324386   -0.1457214 
   0.170292571     0.4979096   -0.7902398     0.0017176   -0.0006275     0.0019974   -0.0011319    -0.0314654   -0.1456621 
   0.170392596     0.4998831   -0.7960923     0.0016506   -0.0004846     0.0017389   -0.0010979    -0.0313438   -0.1451723 
   0.170492621     0.5016599   -0.7933725     0.0018576   -0.0007174     0.0018911   -0.0008083    -0.0324168   -0.1455923 
   0.170592646     0.4972287   -0.7984154     0.0018430   -0.0010095     0.0020176   -0.0007298    -0.0322762   -0.1459359 
   0.170692671     0.4915773   -0.7902856     0.0023491   -0.0005346     0.0018576   -0.0008813    -0.0324656   -0.1452713 
   0.170792696     0.4944491   -0.7979465     0.0020525   -0.0006089     0.0020273   -0.0010774    -0.0315733   -0.1452979 
   0.170892721     0.4924582   -0.7942522     0.0019272   -0.0005429     0.0020015   -0.0006365    -0.0321264   -0.1450004 
   0.170992746     0.4928391   -0.7935076     0.0015968   -0.0007576     0.0020239   -0.0007460    -0.0325251   -0.1451571 
   0.171092771     0.4999227   -0.7927376     0.0022068   -0.0005734     0.0018295   -0.0008980    -0.0328683   -0.1455272 
   0.171192796     0.4895415   -0.7930284     0.0024278   -0.0008345     0.0019750   -0.0007042    -0.0324761   -0.1451133 
   0.171292821     0.4950099   -0.7983482     0.0018923   -0.0009389     0.0020104   -0.0011245    -0.0328553   -0.1446579 
   0.171392846     0.4925200   -0.7940007     0.0021464   -0.0007358     0.0021216   -0.0009763    -0.0324109   -0.1451569 
   0.171492871     0.4917390   -0.7941808     0.0018539   -0.0008185     0.0017928   -0.0006601    -0.0327461   -0.1455039 
   0.171592896     0.4956179   -0.7952869     0.0019445   -0.0005475     0.0018205   -0.0009422    -0.0332963   -0.1450948 
   0.171692921     0.4876206   -0.7953329     0.0022498   -0.0007507     0.0019155   -0.0010746    -0.0322893   -0.1453977 
   0.171792946     0.4914608   -0.7963948     0.0017801   -0.0006072     0.0019214   -0.0007321    -0.0335975   -0.1449817 
   0.171892971     0.4931454   -0.7968533     0.0015433   -0.0006439     0.0019809   -0.0010403    -0.0328632   -0.1455213 
   0.171992996     0.4924801   -0.7934893     0.0022054   -0.0009478     0.0019994   -0.0009942    -0.0330913   -0.1449628 
   0.172093022     0.4928170   -0.7970867     0.0019868   -0.0011567     0.0019754   -0.0010287    -0.0334822   -0.1448843 
   0.172193047     0.4920138   -0.8008415     0.0017128   -0.0013216     0.0021019   -0.0011760    -0.0337069   -0.1449402 
   0.172293072     0.4863468   -0.7949218     0.0020180   -0.0007504     0.0018313   -0.0009213    -0.0335633   -0.1445645 
   0.172393097     0.4902310   -0.7958861     0.0019554   -0.0009565     0.0023215   -0.0007382    -0.0338987   -0.1451528 
   0.172493122     0.4852413   -0.8031195     0.0016429   -0.0007192     0.0020169   -0.0011113    -0.0334752   -0.1445394 
   0.172593147     0.4873365   -0.8030218     0.0020221   -0.0009085     0.0022086   -0.0009418    -0.0337535   -0.1449646 
   0.172693172     0.4884327   -0.7987130     0.0017615   -0.0008841     0.0018586   -0.0010438    -0.0334550   -0.1443280 
   0.172793197     0.4863451   -0.8010659     0.0021056   -0.0011993     0.0019658   -0.0009993    -0.0339721   -0.1441858 
   0.172893222     0.4815681   -0.7965587     0.0020759   -0.0011119     0.0018040   -0.0011645    -0.0336326   -0.1442977 
   0.172993247     0.4819565   -0.8019627     0.0018984   -0.0007831     0.0020239   -0.0009143    -0.0343658   -0.1449326 
   0.173093272     0.4851508   -0.8024426     0.0021604   -0.0006603     0.0021277   -0.0008870    -0.0338349   -0.1442896 
   0.173193297     0.4838091   -0.7999554     0.0015956   -0.0015632     0.0020195   -0.0007727    -0.0337532   -0.1445777 
   0.173293322     0.4837785   -0.8010204     0.0020953   -0.0008901     0.0018997   -0.0010003    -0.0344164   -0.1446356 
   0.173393347     0.4842972   -0.7998613     0.0019260   -0.0011073     0.0019066   -0.0007687    -0.0341281   -0.1445554 
   0.173493372     0.4851333   -0.8010378     0.0020123   -0.0011283     0.0020219   -0.0009869    -0.0344874   -0.1448559 
   0.173593397     0.4850636   -0.7996954     0.0023237   -0.0006377     0.0017661   -0.0011472    -0.0348023   -0.1438322 
   0.173693422     0.4839028   -0.8009329     0.0018147   -0.0009134     0.0022039   -0.0011950    -0.0346315   -0.1443630 
   0.173793447     0.4873661   -0.7994483     0.0018498   -0.0011570     0.0019018   -0.0008609    -0.0342260   -0.1442100 
   0.173893472     0.4795665   -0.8005162     0.0022848   -0.0008631     0.0019295   -0.0011234    -0.0349348   -0.1439352 
   0.173993497     0.4832569   -0.8005311     0.0015942   -0.0012280     0.0020867   -0.0010247    -0.0351164   -0.1437896 
   0.174093522     0.4787284   -0.8070113     0.0016493   -0.0010631     0.0018983   -0.0009687    -0.0351430   -0.1442716 
   0.174193547     0.4782814   -0.8008710     0.0019523   -0.0010852     0.0019658   -0.0010728    -0.0351545   -0.1438641 
   0.174293572     0.4764960   -0.8030998     0.0017773   -0.0010111     0.0019971   -0.0010406    -0.0346324   -0.1430006 
   0.174393597     0.4773589   -0.8029927     0.0021372   -0.0006555     0.0021496   -0.0010333    -0.0350767   -0.1436007 
   0.174493622     0.4776508   -0.8015662     0.0026586   -0.0011300     0.0019861   -0.0010094    -0.0352213   -0.1436982 
   0.174593647     0.4805932   -0.8052320     0.0020828   -0.0009352     0.0017181   -0.0010225    -0.0359099   -0.1440262 
   0.174693672     0.4767950   -0.8014285     0.0021613   -0.0007159     0.0019726   -0.0012145    -0.0361152   -0.1431134 
   0.174793697     0.4718296   -0.8109075     0.0020458   -0.0013518     0.0018952   -0.0008603    -0.0351302   -0.1437719 
   0.174893722     0.4799797   -0.8053860     0.0024610   -0.0009731     0.0020636   -0.0011924    -0.0354388   -0.1439965 
   0.174993747     0.4757173   -0.8031638     0.0021400   -0.0012932     0.0020773   -0.0009470    -0.0352855   -0.1430712 
   0.175093772     0.4722275   -0.8082015     0.0019278   -0.0009245     0.0019729   -0.0009662    -0.0352824   -0.1437386 
   0.175193797     0.4720765   -0.8033950     0.0017481   -0.0009204     0.0021018   -0.0009122    -0.0357106   -0.1435372 
   0.175293822     0.4728028   -0.8048166     0.0020251   -0.0012016     0.0020990   -0.0009887    -0.0354039   -0.1430063 
   0.175393847     0.4732135   -0.8004413     0.0021333   -0.0010257     0.0020688   -0.0012418    -0.0352328   -0.1432952 
   0.175493872     0.4757621   -0.8061453     0.0015745   -0.0005993     0.0020282   -0.0013333    -0.0362571   -0.1428878 
   0.175593897     0.4745083   -0.8059705     0.0019935   -0.0007896     0.0022177   -0.0011577    -0.0354667   -0.1430448 
   0.175693922     0.4776501   -0.8091487     0.0015879   -0.0010317     0.0020158   -0.0011211    -0.0358500   -0.1433448 
   0.175793947     0.4763713   -0.8081971     0.0020110   -0.0012298     0.0019546   -0.0010418    -0.0360035   -0.1430173 
   0.175893972     0.4767530   -0.8096557     0.0021506   -0.0009993     0.0019936   -0.0009811    -0.0362045   -0.1433912 
   0.175993997     0.4737701   -0.8101357     0.0018873   -0.0012689     0.0020463   -0.0010316    -0.0360921   -0.1432893 
   0.176094022     0.4695942   -0.8124033     0.0020687   -0.0015132     0.0018999   -0.0012090    -0.0367561   -0.1426398 
   0.176194047     0.4686172   -0.8056740     0.0022242   -0.0011364     0.0021246   -0.0012922    -0.0360769   -0.1430080 
   0.176294072     0.4728205   -0.8121367     0.0019021   -0.0010680     0.0019800   -0.0008963    -0.0368412   -0.1430488 
   0.176394097     0.4697624   -0.8114342     0.0018187   -0.0010957     0.0020091   -0.0009949    -0.0371113   -0.1428229 
   0.176494122     0.4741098   -0.8084477     0.0019618   -0.0009558     0.0020556   -0.0010463    -0.0369709   -0.1426974 
   0.176594147     0.4694729   -0.8112395     0.0023419   -0.0011348     0.0020958   -0.0009962    -0.0359172   -0.1425330 
   0.176694172     0.4696646   -0.8116477     0.0018633   -0.0009072     0.0014578   -0.0012176    -0.0368412   -0.1425188 
   0.176794197     0.4665550   -0.8093116     0.0019398   -0.0007918     0.0018660   -0.0008934    -0.0368948   -0.1423411 
   0.176894222     0.4697840   -0.8165568     0.0017906   -0.0011365     0.0020659   -0.0010522    -0.0372318   -0.1423250 
   0.176994247     0.4686348   -0.8097472     0.0020252   -0.0011428     0.0017950   -0.0012657    -0.0364898   -0.1428011 
   0.177094272     0.4651610   -0.8081073     0.0021244   -0.0007455     0.0019353   -0.0011746    -0.0368564   -0.1418193 
   0.177194297     0.4671323   -0.8116070     0.0019691   -0.0011363     0.0019931   -0.0011460    -0.0379682   -0.1431735 
   0.177294322     0.4661555   -0.8079915     0.0018330   -0.0012696     0.0018620   -0.0011639    -0.0376203   -0.1431241 
   0.177394347     0.4623505   -0.8104865     0.0020342   -0.0012736     0.0019821   -0.0011398    -0.0371939   -0.1415806 
   0.177494372     0.4660881   -0.8157551     0.0017358   -0.0009069     0.0019382   -0.0009941    -0.0378824   -0.1424139 
   0.177594397     0.4639331   -0.8130181     0.0018732   -0.0011432     0.0021605   -0.0012874    -0.0371702   -0.1429051 
   0.177694422     0.4665519   -0.8137286     0.0018015   -0.0012837     0.0019892   -0.0011923    -0.0374701   -0.1423079 
   0.177794447     0.4638551   -0.8111294     0.0022394   -0.0014355     0.0018865   -0.0009430    -0.0377454   -0.1424549 
   0.177894472     0.4632634   -0.8133200     0.0017179   -0.0016556     0.0018833   -0.0012004    -0.0376589   -0.1413789 
   0.177994497     0.4627276   -0.8126334     0.0016738   -0.0012644     0.0017771   -0.0008388    -0.0379696   -0.1412677 
   0.178094522     0.4620682   -0.8100647     0.0021592   -0.0011145     0.0019874   -0.0009025    -0.0376420   -0.1412162 
   0.178194547     0.4611826   -0.8111949     0.0018410   -0.0009549     0.0020438   -0.0010886    -0.0378046   -0.1424862 
   0.178294572     0.4618636   -0.8132920     0.0019725   -0.0013695     0.0019137   -0.0011492    -0.0378090   -0.1424852 
   0.178394597     0.4641259   -0.8170407     0.0021303   -0.0011593     0.0020921   -0.0011176    -0.0384803   -0.1422152 
   0.178494622     0.4573977   -0.8136907     0.0022522   -0.0011307     0.0017485   -0.0012053    -0.0377080   -0.1420811 
   0.178594647     0.4599907   -0.8157677     0.0016807   -0.0010972     0.0018834   -0.0011289    -0.0378501   -0.1421555 
   0.178694672     0.4590556   -0.8181592     0.0019178   -0.0014786     0.0022228   -0.0013565    -0.0378842   -0.1414794 
   0.178794697     0.4599518   -0.8152840     0.0019334   -0.0012033     0.0019418   -0.0010097    -0.0386677   -0.1415804 
   0.178894722     0.4595468   -0.8156055     0.0018139   -0.0009379     0.0021284   -0.0010474    -0.0388703   -0.1412652 
   0.178994747     0.4587579   -0.8143303     0.0018522   -0.0009760     0.0023215   -0.0011521    -0.0383515   -0.1408269 
   0.179094772     0.4550376   -0.8145978     0.0017113   -0.0011486     0.0018745   -0.0011776    -0.0392669   -0.1417304 
   0.179194797     0.4558194   -0.8152999     0.0019290   -0.0012133     0.0018159   -0.0011442    -0.0387150   -0.1417155 
   0.179294822     0.4569879   -0.8153409     0.0023426   -0.0010690     0.0018316   -0.0009292    -0.0387244   -0.1413173 
   0.179394847     0.4498640   -0.8144407     0.0016864   -0.0010034     0.0021464   -0.0009620    -0.0389164   -0.1414817 
   0.179494872     0.4544787   -0.8187367     0.0020149   -0.0011937     0.0018970   -0.0012915    -0.0390294   -0.1411138 
   0.179594897     0.4563782   -0.8201106     0.0021455   -0.0009882     0.0020019   -0.0012548    -0.0386164   -0.1412189 
   0.179694922     0.4556720   -0.8195267     0.0016026   -0.0012471     0.0020284   -0.0008891    -0.0393529   -0.1406552 
   0.179794947     0.4556370   -0.8161971     0.0020007   -0.0009315     0.0021118   -0.0010681    -0.0387704   -0.1415561 
   0.179894972     0.4559248   -0.8227587     0.0022730   -0.0010099     0.0021916   -0.0011564    -0.0392768   -0.1411519 
   0.179994997     0.4496231   -0.8187176     0.0017728   -0.0011722     0.0019499   -0.0010381    -0.0390905   -0.1414504 
   0.180095023     0.4547679   -0.8190168     0.0018262   -0.0011631     0.0020937   -0.0010267    -0.0396709   -0.1414275 
   0.180195048     0.4537597   -0.8196765     0.0020212   -0.0010075     0.0021104   -0.0011958    -0.0393365   -0.1411173 
   0.180295073     0.4480570   -0.8199802     0.0021969   -0.0011484     0.0020626   -0.0011698    -0.0396136   -0.1401134 
   0.180395098     0.4565896   -0.8164549     0.0022036   -0.0011670     0.0019399   -0.0011918    -0.0401064   -0.1407183 
   0.180495123     0.4490588   -0.8177472     0.0021361   -0.0012293     0.0020552   -0.0008348    -0.0400307   -0.1412247 
   0.180595148     0.4499377   -0.8247364     0.0018897   -0.0011398     0.0019855   -0.0012384    -0.0401980   -0.1404013 
   0.180695173     0.4508081   -0.8172616     0.0018290   -0.0008124     0.0021266   -0.0013478    -0.0405691   -0.1412261 
   0.180795198     0.4528849   -0.8170567     0.0018903   -0.0010247     0.0019865   -0.0012735    -0.0401698   -0.1410586 
   0.180895223     0.4471274   -0.8195198     0.0018751   -0.0011704     0.0020453   -0.0012943    -0.0397441   -0.1401921 
   0.180995248     0.4510107   -0.8242933     0.0019272   -0.0012757     0.0019808   -0.0010840    -0.0405191   -0.1409777 
   0.181095273     0.4470755   -0.8247222     0.0018332   -0.0014388     0.0017593   -0.0011458    -0.0406215   -0.1406042 
   0.181195298     0.4483869   -0.8225277     0.0019671   -0.0012263     0.0017722   -0.0011945    -0.0404352   -0.1405270 
   0.181295323     0.4461752   -0.8230472     0.0019813   -0.0013488     0.0020484   -0.0011293    -0.0410024   -0.1404504 
   0.181395348     0.4418513   -0.8236150     0.0019731   -0.0012515     0.0019802   -0.0012795    -0.0405414   -0.1406763 
   0.181495373     0.4476172   -0.8220716     0.0019187   -0.0012264     0.0017640   -0.0011360    -0.0403199   -0.1405971 
   0.181595398     0.4437661   -0.8255321     0.0021676   -0.0010472     0.0019765   -0.0013214    -0.0414675   -0.1402755 
   0.181695423     0.4449126   -0.8240185     0.0020148   -0.0010403     0.0019408   -0.0011436    -0.0408269   -0.1398480 
   0.181795448     0.4422389   -0.8250135     0.0018649   -0.0010077     0.0020656   -0.0013508    -0.0410037   -0.1401348 
   0.181895473     0.4437704   -0.8245519     0.0019382   -0.0009795     0.0018863   -0.0010931    -0.0406607   -0.1403696 
   0.181995498     0.4461499   -0.8258876     0.0017894   -0.0011891     0.0022972   -0.0014562    -0.0404118   -0.1394970 
   0.182095523     0.4430077   -0.8267525     0.0020393   -0.0012315     0.0021107   -0.0011964    -0.0406798   -0.1396772 
   0.182195548     0.4398105   -0.8262638     0.0020860   -0.0010571     0.0018685   -0.0012738    -0.0411501   -0.1394069 
   0.182295573     0.4404126   -0.8253999     0.0022482   -0.0013183     0.0018971   -0.0012323    -0.0412242   -0.1396728 
   0.182395598     0.4429331   -0.8238766     0.0018948   -0.0011680     0.0021436   -0.0014509    -0.0413448   -0.1406789 
   0.182495623     0.4430006   -0.8256375     0.0019722   -0.0014225     0.0020143   -0.0012701    -0.0422868   -0.1395174 
   0.182595648     0.4415765   -0.8209249     0.0019610   -0.0011213     0.0018480   -0.0014344    -0.0415688   -0.1403904 
   0.182695673     0.4374225   -0.8281337     0.0018707   -0.0011509     0.0020270   -0.0011785    -0.0422616   -0.1398524 
   0.182795698     0.4372401   -0.8252911     0.0019216   -0.0010203     0.0019844   -0.0013200    -0.0416401   -0.1392519 
   0.182895723     0.4364668   -0.8273434     0.0019378   -0.0009830     0.0020913   -0.0011439    -0.0415658   -0.1397114 
   0.182995748     0.4405801   -0.8251229     0.0017908   -0.0010626     0.0019763   -0.0011507    -0.0417994   -0.1398485 
   0.183095773     0.4377958   -0.8269153     0.0020139   -0.0012771     0.0021106   -0.0012545    -0.0420603   -0.1401111 
   0.183195798     0.4363360   -0.8267953     0.0017871   -0.0012669     0.0020297   -0.0012380    -0.0416344   -0.1389328 
   0.183295823     0.4400400   -0.8251390     0.0017639   -0.0011607     0.0019176   -0.0012589    -0.0420580   -0.1409637 
   0.183395848     0.4411708   -0.8274441     0.0019991   -0.0011271     0.0018849   -0.0011755    -0.0419660   -0.1392756 
   0.183495873     0.4380535   -0.8322718     0.0020928   -0.0015251     0.0018848   -0.0014330    -0.0424072   -0.1389327 
   0.183595898     0.4343951   -0.8311816     0.0019094   -0.0010765     0.0018915   -0.0011812    -0.0427491   -0.1395262 
   0.183695923     0.4313904   -0.8282253     0.0019541   -0.0011773     0.0019441   -0.0012001    -0.0422922   -0.1394359 
   0.183795948     0.4357871   -0.8284963     0.0020329   -0.0009949     0.0018541   -0.0015961    -0.0424479   -0.1388080 
   0.183895973     0.4364722   -0.8299554     0.0018940   -0.0010959     0.0019573   -0.0012088    -0.0422215   -0.1393760 
   0.183995998     0.4340888   -0.8311532     0.0020311   -0.0014270     0.0018325   -0.0013425    -0.0426884   -0.1392452 
   0.184096023     0.4363689   -0.8269867     0.0021343   -0.0011470     0.0020495   -0.0013816    -0.0425276   -0.1390242 
   0.184196048     0.4344237   -0.8263377     0.0020001   -0.0012886     0.0019186   -0.0013350    -0.0428164   -0.1377124 
   0.184296073     0.4329681   -0.8309273     0.0018427   -0.0012427     0.0021281   -0.0012838    -0.0431270   -0.1390457 
   0.184396098     0.4305785   -0.8316640     0.0021343   -0.0011994     0.0021223   -0.0011894    -0.0425638   -0.1388727 
   0.184496123     0.4302348   -0.8285895     0.0019947   -0.0011872     0.0017768   -0.0012778    -0.0430461   -0.1391056 
   0.184596148     0.4298128   -0.8300412     0.0019652   -0.0010893     0.0020905   -0.0012405    -0.0430840   -0.1388053 
   0.184696173     0.4317653   -0.8310311     0.0019711   -0.0011077     0.0017919   -0.0011653    -0.0440006   -0.1384406 
   0.184796198     0.4294702   -0.8310730     0.0020456   -0.0010377     0.0020783   -0.0013562    -0.0423129   -0.1383683 
   0.184896223     0.4295761   -0.8374293     0.0021026   -0.0013249     0.0018604   -0.0013107    -0.0431326   -0.1382359 
   0.184996248     0.4268868   -0.8377652     0.0020698   -0.0012761     0.0021294   -0.0012032    -0.0437744   -0.1383724 
   0.185096273     0.4254818   -0.8299958     0.0018540   -0.0009568     0.0019376   -0.0012958    -0.0433253   -0.1383425 
   0.185196298     0.4271405   -0.8351311     0.0018112   -0.0013739     0.0019460   -0.0012294    -0.0433144   -0.1385234 
   0.185296323     0.4290697   -0.8343580     0.0018555   -0.0011193     0.0020088   -0.0011109    -0.0435815   -0.1385115 
   0.185396348     0.4281190   -0.8324055     0.0018111   -0.0013676     0.0019326   -0.0013420    -0.0437645   -0.1385688 
   0.185496373     0.4281878   -0.8313774     0.0019343   -0.0012134     0.0018948   -0.0013627    -0.0432808   -0.1374568 
   0.185596398     0.4270796   -0.8329540     0.0020953   -0.0013318     0.0020644   -0.0014538    -0.0442263   -0.1382400 
   0.185696423     0.4243709   -0.8343982     0.0019521   -0.0012673     0.0020108   -0.0013720    -0.0437719   -0.1383317 
   0.185796448     0.4237230   -0.8344486     0.0017903   -0.0011113     0.0017977   -0.0013049    -0.0437769   -0.1375325 
   0.185896473     0.4245543   -0.8349826     0.0022128   -0.0012736     0.0020271   -0.0013309    -0.0438994   -0.1380322 
   0.185996498     0.4232751   -0.8351189     0.0017819   -0.0012198     0.0019544   -0.0013682    -0.0445690   -0.1383837 
   0.186096523     0.4241720   -0.8353907     0.0018572   -0.0013241     0.0019771   -0.0012768    -0.0442719   -0.1377149 
   0.186196548     0.4193479   -0.8337287     0.0017842   -0.0014103     0.0020902   -0.0014564    -0.0446606   -0.1376717 
   0.186296573     0.4282050   -0.8377220     0.0020302   -0.0013169     0.0018884   -0.0014221    -0.0443331   -0.1374195 
   0.186396598     0.4187230   -0.8395447     0.0017122   -0.0014444     0.0019653   -0.0014299    -0.0438822   -0.1383467 
   0.186496623     0.4221887   -0.8357915     0.0018951   -0.0011557     0.0019708   -0.0015360    -0.0446961   -0.1372839 
   0.186596648     0.4162755   -0.8396086     0.0019817   -0.0013746     0.0019316   -0.0014255    -0.0448634   -0.1375761 
   0.186696673     0.4241843   -0.8389088     0.0019717   -0.0012662     0.0020123   -0.0013311    -0.0440045   -0.1375518 
   0.186796698     0.4180478   -0.8398441     0.0017500   -0.0012702     0.0019467   -0.0015142    -0.0445852   -0.1373420 
   0.186896723     0.4199365   -0.8379806     0.0018949   -0.0012548     0.0017635   -0.0016207    -0.0448518   -0.1372082 
   0.186996748     0.4204866   -0.8373734     0.0019850   -0.0012690     0.0020864   -0.0013866    -0.0450366   -0.1379272 
   0.187096773     0.4148487   -0.8378605     0.0020034   -0.0014334     0.0019900   -0.0014142    -0.0456609   -0.1378440 
   0.187196798     0.4151116   -0.8368036     0.0020118   -0.0013845     0.0020988   -0.0014084    -0.0449369   -0.1374440 
   0.187296823     0.4197508   -0.8379133     0.0020691   -0.0013545     0.0019519   -0.0013245    -0.0457979   -0.1375707 
   0.187396848     0.4192544   -0.8385509     0.0020860   -0.0012509     0.0019071   -0.0013628    -0.0448563   -0.1378549 
   0.187496873     0.4169184   -0.8427837     0.0019188   -0.0012956     0.0018836   -0.0013393    -0.0455932   -0.1370522 
   0.187596898     0.4185079   -0.8423978     0.0020450   -0.0015459     0.0018675   -0.0013985    -0.0452628   -0.1366603 
   0.187696923     0.4171140   -0.8409741     0.0019069   -0.0012824     0.0020460   -0.0014845    -0.0458390   -0.1369260 
   0.187796948     0.4142993   -0.8389941     0.0018937   -0.0011903     0.0019928   -0.0013626    -0.0454401   -0.1376248 
   0.187896973     0.4159231   -0.8374744     0.0019917   -0.0013263     0.0020218   -0.0014141    -0.0461611   -0.1374684 
   0.187996998     0.4125467   -0.8402790     0.0018889   -0.0012335     0.0020239   -0.0014980    -0.0455170   -0.1366004 
   0.188097024     0.4103656   -0.8398664     0.0019531   -0.0013531     0.0020440   -0.0014357    -0.0457913   -0.1370808 
   0.188197049     0.4155858   -0.8392848     0.0019244   -0.0013795     0.0019847   -0.0014617    -0.0455466   -0.1364243 
   0.188297074     0.4127958   -0.8403195     0.0017092   -0.0013612     0.0019098   -0.0012456    -0.0455974   -0.1368324 
   0.188397099     0.4094799   -0.8427267     0.0018385   -0.0014369     0.0018509   -0.0013726    -0.0464301   -0.1364109 
   0.188497124     0.4129116   -0.8422235     0.0017881   -0.0013383     0.0020033   -0.0014485    -0.0456373   -0.1373495 
   0.188597149     0.4147835   -0.8402735     0.0020133   -0.0012303     0.0018753   -0.0015338    -0.0462518   -0.1370097 
   0.188697174     0.4118931   -0.8425643     0.0019074   -0.0014210     0.0020066   -0.0014374    -0.0458187   -0.1368328 
   0.188797199     0.4111123   -0.8448417     0.0020045   -0.0012128     0.0019346   -0.0013184    -0.0469398   -0.1367285 
   0.188897224     0.4108823   -0.8442098     0.0017808   -0.0014692     0.0019463   -0.0014353    -0.0464618   -0.1368556 
   0.188997249     0.4122505   -0.8450632     0.0019500   -0.0013679     0.0019630   -0.0013641    -0.0470828   -0.1366371 
   0.189097274     0.4112248   -0.8442954     0.0020012   -0.0014830     0.0020178   -0.0013809    -0.0472434   -0.1364286 
   0.189197299     0.4113900   -0.8465117     0.0019260   -0.0012904     0.0019494   -0.0014330    -0.0467307   -0.1360310 
   0.189297324     0.4082847   -0.8399407     0.0018414   -0.0012299     0.0020582   -0.0014945    -0.0465053   -0.1362740 
   0.189397349     0.4067148   -0.8440763     0.0019556   -0.0014502     0.0020639   -0.0013716    -0.0465784   -0.1358137 
   0.189497374     0.4086724   -0.8445047     0.0020139   -0.0014250     0.0019050   -0.0014263    -0.0467620   -0.1367300 
   0.189597399     0.4081258   -0.8471057     0.0019120   -0.0013483     0.0019901   -0.0013732    -0.0467724   -0.1361961 
   0.189697424     0.4060995   -0.8438680     0.0020001   -0.0014366     0.0019039   -0.0014787    -0.0475456   -0.1361547 
   0.189797449     0.4086004   -0.8441236     0.0020303   -0.0014529     0.0019260   -0.0013649    -0.0465661   -0.1364843 
   0.189897474     0.4029077   -0.8484979     0.0018295   -0.0015026     0.0018488   -0.0015728    -0.0470451   -0.1365564 
   0.189997499     0.4074841   -0.8441848     0.0018584   -0.0013595     0.0019636   -0.0014432    -0.0472407   -0.1359672 
   0.190097524     0.4015108   -0.8452454     0.0020134   -0.0015162     0.0018553   -0.0015088    -0.0478061   -0.1365231 
   0.190197549     0.4027296   -0.8446119     0.0018938   -0.0014411     0.0019651   -0.0015197    -0.0469872   -0.1355462 
   0.190297574     0.4051634   -0.8470597     0.0020231   -0.0014539     0.0018526   -0.0014009    -0.0471474   -0.1360732 
   0.190397599     0.4046603   -0.8467854     0.0019230   -0.0014420     0.0018938   -0.0014398    -0.0475279   -0.1355810 
   0.190497624     0.3996008   -0.8489233     0.0019854   -0.0015114     0.0018476   -0.0015714    -0.0482616   -0.1351905 
   0.190597649     0.4033050   -0.8460845     0.0020526   -0.0014506     0.0018586   -0.0015769    -0.0480228   -0.1359763 
   0.190697674     0.4040615   -0.8489298     0.0019004   -0.0014222     0.0019136   -0.0015137    -0.0472453   -0.1354732 
   0.190797699     0.4046475   -0.8447675     0.0018093   -0.0012442     0.0020309   -0.0015005    -0.0482640   -0.1349090 
   0.190897724     0.3996761   -0.8441293     0.0019954   -0.0014776     0.0018543   -0.0014510    -0.0477797   -0.1349171 
   0.190997749     0.4010938   -0.8490605     0.0020141   -0.0014274     0.0019022   -0.0014444    -0.0481502   -0.1351990 
   0.191097774     0.3998403   -0.8516289     0.0019043   -0.0015338     0.0018586   -0.0016138    -0.0478786   -0.1363257 
   0.191197799     0.3992578   -0.8493121     0.0018007   -0.0013285     0.0020235   -0.0015419    -0.0473685   -0.1353651 
   0.191297824     0.3980929   -0.8488529     0.0019807   -0.0014554     0.0018673   -0.0015965    -0.0487593   -0.1350973 
   0.191397849     0.3976078   -0.8515459     0.0019174   -0.0013623     0.0018832   -0.0014907    -0.0480410   -0.1347694 
   0.191497874     0.3973207   -0.8511783     0.0018763   -0.0015058     0.0019988   -0.0014899    -0.0486106   -0.1348528 
   0.191597899     0.3962082   -0.8520560     0.0019297   -0.0014999     0.0018848   -0.0015715    -0.0487243   -0.1353526 
   0.191697924     0.3972750   -0.8522461     0.0021430   -0.0014873     0.0018947   -0.0015111    -0.0491617   -0.1352093 
   0.191797949     0.3974276   -0.8489792     0.0018642   -0.0015135     0.0019157   -0.0014522    -0.0486996   -0.1345803 
   0.191897974     0.3966280   -0.8531855     0.0019005   -0.0013304     0.0017956   -0.0015183    -0.0483347   -0.1350456 
   0.191997999     0.3913747   -0.8519470     0.0018226   -0.0014798     0.0018109   -0.0014552    -0.0497419   -0.1350323 
   0.192098024     0.3956192   -0.8502121     0.0018917   -0.0014484     0.0017824   -0.0015353    -0.0486374   -0.1353972 
   0.192198049     0.3926307   -0.8480321     0.0019579   -0.0014744     0.0019604   -0.0014349    -0.0486395   -0.1353526 
   0.192298074     0.3931993   -0.8490066     0.0019283   -0.0013618     0.0018783   -0.0014871    -0.0492290   -0.1341006 
   0.192398099     0.3927976   -0.8516217     0.0019879   -0.0015311     0.0018281   -0.0015364    -0.0497328   -0.1350813 
   0.192498124     0.3927588   -0.8484246     0.0017909   -0.0014420     0.0018978   -0.0015826    -0.0492783   -0.1345015 
   0.192598149     0.3904137   -0.8510233     0.0018448   -0.0015169     0.0018928   -0.0015658    -0.0497030   -0.1348265 
   0.192698174     0.3899528   -0.8477167     0.0018850   -0.0013521     0.0018630   -0.0015533    -0.0494566   -0.1346026 
   0.192798199     0.3892021   -0.8488039     0.0021031   -0.0014724     0.0019650   -0.0015578    -0.0501149   -0.1349357 
   0.192898224     0.3933584   -0.8513967     0.0018254   -0.0016990     0.0018265   -0.0015529    -0.0498981   -0.1336029 
   0.192998249     0.3886129   -0.8547640     0.0020780   -0.0013134     0.0019060   -0.0015307    -0.0497972   -0.1344739 
   0.193098274     0.3891782   -0.8547023     0.0019086   -0.0016109     0.0017909   -0.0015429    -0.0499898   -0.1347829 
   0.193198299     0.3869489   -0.8551106     0.0018623   -0.0014129     0.0018464   -0.0015784    -0.0497970   -0.1343568 
   0.193298324     0.3890440   -0.8518351     0.0019284   -0.0014240     0.0018842   -0.0015859    -0.0499902   -0.1340792 
   0.193398349     0.3835672   -0.8557556     0.0017479   -0.0014782     0.0018544   -0.0016002    -0.0499556   -0.1344821 
   0.193498374     0.3902258   -0.8543024     0.0018352   -0.0013859     0.0019135   -0.0015759    -0.0500535   -0.1343376 
   0.193598399     0.3866552   -0.8555819     0.0021130   -0.0016612     0.0018929   -0.0015417    -0.0501841   -0.1340930 
   0.193698424     0.3904561   -0.8507889     0.0019290   -0.0015560     0.0018439   -0.0015373    -0.0503830   -0.1339504 
   0.193798449     0.3848254   -0.8564026     0.0019679   -0.0014104     0.0018780   -0.0016005    -0.0504269   -0.1350920 
   0.193898474     0.3835481   -0.8543865     0.0017873   -0.0014346     0.0018473   -0.0016528    -0.0496585   -0.1340429 
   0.193998499     0.3824687   -0.8554105     0.0018691   -0.0016111     0.0019935   -0.0015421    -0.0509644   -0.1339952 
   0.194098524     0.3861217   -0.8574487     0.0018984   -0.0015120     0.0018727   -0.0016295    -0.0507400   -0.1333325 
   0.194198549     0.3848052   -0.8563713     0.0018907   -0.0016046     0.0018038   -0.0016301    -0.0508028   -0.1330647 
   0.194298574     0.3846039   -0.8534913     0.0019250   -0.0015045     0.0019209   -0.0015963    -0.0509653   -0.1337757 
   0.194398599     0.3814580   -0.8557795     0.0017714   -0.0015312     0.0017867   -0.0016621    -0.0502157   -0.1336855 
   0.194498624     0.3789325   -0.8514450     0.0019324   -0.0013594     0.0018984   -0.0016266    -0.0503114   -0.1334350 
   0.194598649     0.3786511   -0.8546956     0.0018829   -0.0016226     0.0018477   -0.0015471    -0.0508361   -0.1330668 
   0.194698674     0.3793585   -0.8559324     0.0018953   -0.0015796     0.0019027   -0.0015477    -0.0511568   -0.1331576 
   0.194798699     0.3838156   -0.8543881     0.0019563   -0.0016544     0.0018995   -0.0015431    -0.0515070   -0.1331206 
   0.194898724     0.3801314   -0.8578466     0.0018853   -0.0015999     0.0018876   -0.0016072    -0.0508263   -0.1338741 
   0.194998749     0.3800648   -0.8584450     0.0018623   -0.0016194     0.0018153   -0.0015709    -0.0513880   -0.1331089 
   0.195098774     0.3777643   -0.8581344     0.0019136   -0.0015741     0.0018006   -0.0016343    -0.0515825   -0.1332451 
   0.195198799     0.3808658   -0.8587025     0.0019744   -0.0016738     0.0017270   -0.0015574    -0.0508552   -0.1322108 
   0.195298824     0.3768474   -0.8578846     0.0020417   -0.0015526     0.0018011   -0.0016531    -0.0513961   -0.1328327 
   0.195398849     0.3782659   -0.8589660     0.0019686   -0.0015571     0.0019095   -0.0016039    -0.0521380   -0.1335341 
   0.195498874     0.3773383   -0.8587737     0.0019625   -0.0014260     0.0017906   -0.0015770    -0.0513981   -0.1328532 
   0.195598899     0.3772807   -0.8547925     0.0018693   -0.0015785     0.0018225   -0.0016672    -0.0519978   -0.1328824 
   0.195698924     0.3734427   -0.8599861     0.0019563   -0.0015033     0.0017850   -0.0015508    -0.0517762   -0.1333528 
   0.195798949     0.3782257   -0.8609226     0.0018211   -0.0014926     0.0018130   -0.0016498    -0.0516704   -0.1325545 
   0.195898974     0.3737105   -0.8572536     0.0017945   -0.0015778     0.0018120   -0.0015854    -0.0524080   -0.1318298 
   0.195998999     0.3763071   -0.8568820     0.0018370   -0.0015022     0.0017464   -0.0015643    -0.0519333   -0.1329121 
   0.196099025     0.3736619   -0.8586726     0.0019290   -0.0015503     0.0017723   -0.0016088    -0.0523348   -0.1323945 
   0.196199050     0.3737080   -0.8577781     0.0018574   -0.0016132     0.0018688   -0.0016282    -0.0521140   -0.1327991 
   0.196299075     0.3749394   -0.8573309     0.0017331   -0.0015685     0.0017388   -0.0016568    -0.0523229   -0.1324029 
   0.196399100     0.3744094   -0.8614254     0.0018709   -0.0016609     0.0018419   -0.0016433    -0.0524022   -0.1323549 
   0.196499125     0.3742052   -0.8592475     0.0019290   -0.0015178     0.0018065   -0.0016507    -0.0526057   -0.1325492 
   0.196599150     0.3726759   -0.8598194     0.0019046   -0.0013410     0.0018037   -0.0016237    -0.0526343   -0.1326893 
   0.196699175     0.3741705   -0.8596298     0.0019081   -0.0015670     0.0018572   -0.0016858    -0.0528355   -0.1327282 
   0.196799200     0.3728073   -0.8571572     0.0020346   -0.0014492     0.0018644   -0.0016605    -0.0529625   -0.1322953 
   0.196899225     0.3682794   -0.8614743     0.0017875   -0.0015531     0.0017868   -0.0015781    -0.0525935   -0.1325163 
   0.196999250     0.3677676   -0.8603495     0.0019092   -0.0016661     0.0017877   -0.0017156    -0.0530062   -0.1320573 
   0.197099275     0.3717094   -0.8586332     0.0019024   -0.0016164     0.0018951   -0.0016008    -0.0532613   -0.1328690 
   0.197199300     0.3702340   -0.8608764     0.0018264   -0.0016184     0.0017707   -0.0015652    -0.0535584   -0.1321134 
   0.197299325     0.3675997   -0.8614064     0.0019365   -0.0014750     0.0018142   -0.0015934    -0.0536860   -0.1322583 
   0.197399350     0.3685642   -0.8611458     0.0019553   -0.0014728     0.0018065   -0.0016390    -0.0536920   -0.1323090 
   0.197499375     0.3697705   -0.8620614     0.0019299   -0.0015015     0.0017624   -0.0016514    -0.0528979   -0.1321637 
   0.197599400     0.3664717   -0.8629887     0.0018885   -0.0015882     0.0018076   -0.0015935    -0.0533818   -0.1321820 
   0.197699425     0.3655167   -0.8599068     0.0018394   -0.0015741     0.0017871   -0.0015797    -0.0532576   -0.1310826 
   0.197799450     0.3659160   -0.8632677     0.0019698   -0.0015736     0.0017818   -0.0016409    -0.0537477   -0.1316616 
   0.197899475     0.3649475   -0.8634933     0.0019475   -0.0016316     0.0018046   -0.0016091    -0.0536471   -0.1311899 
   0.197999500     0.3672829   -0.8607971     0.0018675   -0.0016313     0.0016716   -0.0016309    -0.0540147   -0.1318620 
   0.198099525     0.3627551   -0.8654125     0.0018938   -0.0016819     0.0017729   -0.0016656    -0.0537891   -0.1313585 
   0.198199550     0.3656825   -0.8611703     0.0020330   -0.0017017     0.0017202   -0.0017007    -0.0539886   -0.1313106 
   0.198299575     0.3657570   -0.8639562     0.0019311   -0.0017470     0.0017915   -0.0015960    -0.0538919   -0.1311583 
   0.198399600     0.3642454   -0.8622384     0.0018716   -0.0015568     0.0018534   -0.0016689    -0.0541136   -0.1314703 
   0.198499625     0.3620602   -0.8649404     0.0019324   -0.0015723     0.0018173   -0.0016281    -0.0547104   -0.1309089 
   0.198599650     0.3621685   -0.8615439     0.0019002   -0.0017816     0.0017492   -0.0016613    -0.0538351   -0.1317419 
   0.198699675     0.3626219   -0.8625365     0.0018848   -0.0015605     0.0017557   -0.0016033    -0.0546104   -0.1309599 
   0.198799700     0.3604692   -0.8639585     0.0018061   -0.0015192     0.0017450   -0.0015936    -0.0545407   -0.1310263 
   0.198899725     0.3616380   -0.8640057     0.0019259   -0.0016673     0.0017182   -0.0016583    -0.0546299   -0.1315677 
   0.198999750     0.3580103   -0.8679668     0.0019593   -0.0015395     0.0016996   -0.0015898    -0.0553153   -0.1310864 
   0.199099775     0.3620954   -0.8657601     0.0018738   -0.0016608     0.0017223   -0.0016534    -0.0546390   -0.1309698 
   0.199199800     0.3596355   -0.8669053     0.0021334   -0.0016266     0.0017631   -0.0017008    -0.0546589   -0.1310700 
   0.199299825     0.3593737   -0.8656029     0.0018017   -0.0015994     0.0018242   -0.0016061    -0.0550046   -0.1312253 
   0.199399850     0.3585273   -0.8621888     0.0018952   -0.0015936     0.0016935   -0.0017087    -0.0556230   -0.1310795 
   0.199499875     0.3576955   -0.8636559     0.0017688   -0.0016895     0.0018288   -0.0016244    -0.0548057   -0.1318733 
   0.199599900     0.3579603   -0.8658856     0.0019715   -0.0017016     0.0018123   -0.0015931    -0.0555941   -0.1311208 
   0.199699925     0.3610054   -0.8646694     0.0019464   -0.0016393     0.0018049   -0.0016101    -0.0554528   -0.1309417 
   0.199799950     0.3598409   -0.8660600     0.0018766   -0.0016312     0.0017745   -0.0016315    -0.0555510   -0.1314052 
   0.199899975     0.3565161   -0.8656952     0.0018279   -0.0016589     0.0018250   -0.0015880    -0.0552737   -0.1298827 
   0.200000000     0.3560913   -0.8658823     0.0019318   -0.0015429     0.0017277   -0.0016148    -0.0557209   -0.1301297 
