! 27-Aug-26 2:32:34 PM
! E:\20260827_VNA\T1T1E3_LONGOPEN_2.S2P
! CHANNEL.1
! TR.MEASUREMENT
! CORRECTED.DATA
# GHZ S RI R 50.0
! FREQ.GHZ         S11RE         S11IM         S21RE         S21IM         S12RE         S12IM         S22RE         S22IM         
!; PortSelection: Port_12
   0.000050000     0.0460561    0.4955734    -0.0668707    0.0108187     0.0067315   -0.0024795     0.9784197   -0.0717459 
   0.000150025    -0.2909149    0.0021034    -0.0647819   -0.6100925     0.0004244   -0.0000932     1.0144580   -0.0060051 
   0.000250050    -0.5161547   -0.1502842     0.0014712    0.0031706     0.0001856    0.0004800     0.9998571   -0.0083831 
   0.000350075     1.0416340   -0.0363799    -0.0002535   -0.0137940     0.0003830    0.0006447     1.0005680   -0.0351218 
   0.000450100     0.9975331    0.0180993    -0.0053896   -0.0098433    -0.0000161   -0.0005702     0.9972699   -0.0303713 
   0.000550125     0.9892673   -0.0487447    -0.0061259   -0.0066480     0.0002206   -0.0013168     0.9979811   -0.0382224 
   0.000650150     0.9649203   -0.0348390    -0.0044757   -0.0102015     0.0000711    0.0003729     1.0030740   -0.0493135 
   0.000750175     0.9975880   -0.0546175    -0.0125765   -0.0089831     0.0002459   -0.0007582     0.9924951   -0.0581617 
   0.000850200     1.0134960   -0.1044372    -0.0131096   -0.0110545    -0.0005498    0.0012888     0.9989401   -0.0548139 
   0.000950225     0.9509353   -0.0608321    -0.0072869   -0.0068306    -0.0001151   -0.0001603     0.9924173   -0.0709151 
   0.001050250     0.9718469   -0.0158246    -0.0104041   -0.0069083    -0.0014805   -0.0010309     1.0054280   -0.0712428 
   0.001150275     1.0166970   -0.0160648    -0.0150717   -0.0063655     0.0001755   -0.0001907     0.9867604   -0.0741932 
   0.001250300     0.9405035   -0.0725940    -0.0082091   -0.0039647    -0.0003754    0.0003569     0.9879032   -0.0921012 
   0.001350325     1.0189810   -0.0249417    -0.0109395   -0.0032227     0.0003117    0.0008405     0.9885401   -0.0953121 
   0.001450350     1.0126940   -0.0700370    -0.0109939    0.0008085    -0.0002115    0.0002042     0.9859115   -0.1044008 
   0.001550375     0.9560623   -0.0654835    -0.0098960   -0.0001873    -0.0003605    0.0011136     0.9928933   -0.1060841 
   0.001650400     1.0128190   -0.0604288    -0.0105293    0.0023668     0.0000582    0.0001984     0.9828579   -0.1077704 
   0.001750425     0.9951831   -0.0789822    -0.0115558    0.0034971     0.0005845   -0.0007060     0.9891916   -0.1210239 
   0.001850450     0.9817474   -0.1044546    -0.0111420   -0.0000496     0.0000846   -0.0007820     0.9743797   -0.1276285 
   0.001950475     1.0177200   -0.0234147    -0.0051647    0.0052638     0.0000443   -0.0006425     0.9848882   -0.1356322 
   0.002050500     0.9536188   -0.0607625    -0.0067606    0.0044526     0.0009756    0.0003751     0.9829977   -0.1559421 
   0.002150525     0.9627085   -0.0829625    -0.0037252    0.0035051    -0.0000289    0.0000771     0.9764456   -0.1583748 
   0.002250550     0.9363487   -0.0502396    -0.0072050    0.0030962    -0.0001027   -0.0000807     0.9787070   -0.1605906 
   0.002350575     0.9310891   -0.0968537    -0.0072943    0.0071072    -0.0001493   -0.0006443     0.9714884   -0.1695543 
   0.002450600     0.9944370   -0.0930927    -0.0035976    0.0017937     0.0008804   -0.0001828     0.9761552   -0.1760071 
   0.002550625     0.9891765   -0.0828454    -0.0051048    0.0026215    -0.0001472   -0.0006759     0.9722212   -0.1805805 
   0.002650650     1.0097330   -0.0549581    -0.0060632    0.0044196     0.0005076   -0.0006640     0.9636098   -0.1896142 
   0.002750675     0.9706942   -0.0238742    -0.0054070    0.0023877    -0.0001692   -0.0005654     0.9629976   -0.1958664 
   0.002850700     0.9815021   -0.0864853    -0.0045793    0.0015803    -0.0002882   -0.0006532     0.9530100   -0.2047779 
   0.002950725     0.9598764   -0.0663557    -0.0060913    0.0012442     0.0002605    0.0003386     0.9641972   -0.2054635 
   0.003050750     0.9699900   -0.0820720    -0.0029191    0.0021911    -0.0006785   -0.0001544     0.9544014   -0.2103614 
   0.003150775     0.9762136   -0.1531174    -0.0027292    0.0008221    -0.0005095   -0.0000739     0.9461772   -0.2171449 
   0.003250800     0.9777640   -0.1054875    -0.0024428    0.0032316     0.0001660    0.0002106     0.9518582   -0.2220041 
   0.003350825     0.9874161   -0.1206953    -0.0029954    0.0041081     0.0001577   -0.0002804     0.9424005   -0.2384739 
   0.003450850     0.9752071   -0.1264184     0.0009185    0.0002164    -0.0004426    0.0000193     0.9419649   -0.2368864 
   0.003550875     0.9659266   -0.1138679    -0.0032826    0.0029221    -0.0008898   -0.0000762     0.9342589   -0.2404639 
   0.003650900     0.9784589   -0.0877738    -0.0006322    0.0010216    -0.0002896   -0.0008654     0.9360133   -0.2509266 
   0.003750925     0.9568294   -0.1122415    -0.0003252    0.0020381     0.0000963    0.0000189     0.9261320   -0.2594706 
   0.003850950     0.9693536   -0.1584815    -0.0020996    0.0051287     0.0001933   -0.0003489     0.9276285   -0.2608469 
   0.003950975     0.9817194   -0.1089684    -0.0019995    0.0025869    -0.0006740   -0.0001787     0.9232223   -0.2679491 
   0.004051001     0.9939804   -0.1644407     0.0007557   -0.0001927     0.0002784    0.0004820     0.9206073   -0.2688751 
   0.004151026     1.0121510   -0.1010001    -0.0025084    0.0033502    -0.0000294   -0.0001504     0.9153795   -0.2800509 
   0.004251051     0.9523886   -0.1199095    -0.0020926    0.0025239    -0.0002057    0.0005765     0.9100302   -0.2825376 
   0.004351076     0.9865357   -0.0879954     0.0005770    0.0009575     0.0005108   -0.0003467     0.9062909   -0.2907646 
   0.004451101     1.0078170   -0.1674082    -0.0001243    0.0016029     0.0000764    0.0000336     0.9009036   -0.2924825 
   0.004551126     0.9908009   -0.1651914    -0.0005594    0.0017725    -0.0006611    0.0003581     0.9054311   -0.2981233 
   0.004651151     0.9906759   -0.1706023     0.0019396    0.0042534     0.0003416   -0.0000002     0.8951563   -0.3041957 
   0.004751176     0.9813048   -0.1836574    -0.0017682    0.0005147     0.0003326    0.0000769     0.8960195   -0.3101037 
   0.004851201     0.9607254   -0.1540524    -0.0036689    0.0019516     0.0000581   -0.0003476     0.8834556   -0.3167485 
   0.004951226     0.9587069   -0.1521120    -0.0005802    0.0007730    -0.0004271   -0.0000219     0.8865327   -0.3175632 
   0.005051251     0.9906816   -0.1630498    -0.0006320   -0.0002115     0.0001256   -0.0004344     0.8814750   -0.3215074 
   0.005151276     0.9552799   -0.1540218     0.0002723    0.0017447     0.0003100   -0.0001761     0.8725078   -0.3310296 
   0.005251301     0.9627327   -0.1629860     0.0008917   -0.0005609     0.0002423   -0.0001060     0.8680322   -0.3272886 
   0.005351326     0.9434948   -0.1346353    -0.0019289    0.0020101    -0.0001596   -0.0000380     0.8692399   -0.3365664 
   0.005451351     0.9476199   -0.1709879    -0.0008559   -0.0002082     0.0004765   -0.0003478     0.8628708   -0.3479522 
   0.005551376     1.0055510   -0.1937654     0.0027213    0.0008044    -0.0006042    0.0001057     0.8553028   -0.3439031 
   0.005651401     0.9658398   -0.1553726     0.0018489    0.0005430    -0.0000741   -0.0001461     0.8529691   -0.3625887 
   0.005751426     0.9404551   -0.1869688    -0.0017093    0.0007281     0.0000501   -0.0001456     0.8443627   -0.3574024 
   0.005851451     0.9814772   -0.1935290     0.0002400    0.0004822     0.0001920    0.0002056     0.8437275   -0.3605760 
   0.005951476     0.9489232   -0.1736377     0.0010188   -0.0012661    -0.0000366    0.0001366     0.8411181   -0.3651503 
   0.006051501     0.9629710   -0.1944102     0.0010854    0.0007093     0.0002785    0.0004070     0.8406436   -0.3701409 
   0.006151526     0.9495061   -0.2126439     0.0010192    0.0010228    -0.0002576   -0.0000608     0.8331732   -0.3740734 
   0.006251551     0.9670316   -0.1783705    -0.0000459   -0.0006184    -0.0000702   -0.0001899     0.8251820   -0.3785484 
   0.006351576     0.9413273   -0.1985897    -0.0013968   -0.0009199     0.0001217   -0.0003470     0.8233520   -0.3782080 
   0.006451601     0.9742514   -0.2163893    -0.0010485   -0.0007064     0.0001944    0.0000295     0.8158519   -0.3866411 
   0.006551626     0.9423885   -0.2126459    -0.0015658   -0.0000955     0.0001128    0.0004462     0.8092629   -0.3882055 
   0.006651651     0.9626115   -0.2269807     0.0013764    0.0010356     0.0002864   -0.0000614     0.8034289   -0.3967929 
   0.006751676     0.9543559   -0.2376354     0.0003464    0.0000598    -0.0001529    0.0001544     0.8002217   -0.3954942 
   0.006851701     0.9625714   -0.2360828    -0.0015025   -0.0012173    -0.0004242    0.0000884     0.7968055   -0.4007929 
   0.006951726     0.9259332   -0.2432537    -0.0000168    0.0001202    -0.0007749    0.0000317     0.7942578   -0.4026254 
   0.007051751     0.9592322   -0.2486109    -0.0009161    0.0010025     0.0002757    0.0000443     0.7833807   -0.4070864 
   0.007151776     0.9446478   -0.2404501    -0.0011165    0.0009580     0.0003910    0.0001005     0.7803663   -0.4086814 
   0.007251801     0.9510427   -0.2353689    -0.0006422    0.0005320    -0.0000639   -0.0009357     0.7759948   -0.4129361 
   0.007351826     0.9305776   -0.2495814     0.0005159    0.0001512    -0.0001030    0.0003119     0.7722546   -0.4185057 
   0.007451851     0.9382353   -0.2620826    -0.0016273   -0.0003753    -0.0003263   -0.0003125     0.7674895   -0.4174665 
   0.007551876     0.9477735   -0.2453051     0.0007753   -0.0004054     0.0000437    0.0002635     0.7667653   -0.4187162 
   0.007651901     0.9480253   -0.2657312    -0.0007633    0.0008248     0.0000398    0.0001984     0.7584395   -0.4239525 
   0.007751926     0.9504205   -0.2692848    -0.0004029    0.0009097     0.0000772    0.0001227     0.7529315   -0.4271920 
   0.007851951     0.9397395   -0.2700232    -0.0007665    0.0002812     0.0002762    0.0002481     0.7495639   -0.4308139 
   0.007951976     0.9432843   -0.2708041    -0.0010147   -0.0006714     0.0002116   -0.0001009     0.7419322   -0.4310154 
   0.008052001     0.9622312   -0.2787274     0.0009072    0.0018620    -0.0002824   -0.0000053     0.7395948   -0.4347501 
   0.008152026     0.9387873   -0.2956928    -0.0009995    0.0005449    -0.0004716    0.0001709     0.7367807   -0.4395218 
   0.008252051     0.9305051   -0.2615740     0.0012444    0.0006127     0.0003509    0.0003086     0.7307207   -0.4404402 
   0.008352076     0.9483573   -0.2803061     0.0008702   -0.0010747    -0.0003068    0.0001935     0.7263088   -0.4441867 
   0.008452101     0.9715742   -0.2764964     0.0022685    0.0000498     0.0002421   -0.0001370     0.7195193   -0.4452064 
   0.008552126     0.9463229   -0.2753121     0.0000676   -0.0007732    -0.0000724    0.0002621     0.7161707   -0.4471819 
   0.008652151     0.9434963   -0.2792078     0.0002766    0.0000117     0.0001040    0.0003890     0.7125001   -0.4474119 
   0.008752176     0.9513175   -0.2986543     0.0012600   -0.0013375     0.0000192    0.0001306     0.7056996   -0.4533167 
   0.008852201     0.9188958   -0.2700795     0.0011110    0.0005036    -0.0002033    0.0005103     0.6994595   -0.4544226 
   0.008952226     0.9435534   -0.2999146    -0.0001993    0.0008620    -0.0000580   -0.0001134     0.7004538   -0.4537787 
   0.009052251     0.9417467   -0.2986753    -0.0002244   -0.0001203    -0.0000408   -0.0002119     0.6928915   -0.4580599 
   0.009152276     0.9275178   -0.2994151    -0.0007052    0.0001305    -0.0001188   -0.0000883     0.6824750   -0.4588103 
   0.009252301     0.9403974   -0.3096114     0.0001879   -0.0000896     0.0000198    0.0000780     0.6837259   -0.4666478 
   0.009352326     0.9570653   -0.3297739     0.0008771    0.0002530     0.0000743   -0.0002021     0.6771519   -0.4633624 
   0.009452351     0.9448634   -0.3239930    -0.0003552    0.0018878    -0.0000183    0.0001874     0.6725589   -0.4653050 
   0.009552376     0.9385482   -0.3310903    -0.0006166   -0.0015984     0.0001875   -0.0001382     0.6708580   -0.4649802 
   0.009652401     0.9342620   -0.3320524     0.0002477    0.0000204    -0.0003317   -0.0000465     0.6630032   -0.4662761 
   0.009752426     0.9176140   -0.3385264    -0.0000632    0.0004867     0.0001323   -0.0003613     0.6611021   -0.4680680 
   0.009852451     0.9288027   -0.3501091    -0.0004123    0.0010707     0.0000873   -0.0003099     0.6556630   -0.4706616 
   0.009952476     0.9372819   -0.3597478     0.0003514   -0.0001023    -0.0000183   -0.0003151     0.6515825   -0.4721369 
   0.010052501     0.9140880   -0.3291165     0.0006308   -0.0013468    -0.0001742   -0.0000834     0.6493811   -0.4716960 
   0.010152526     0.9044426   -0.3319340     0.0015405    0.0007347     0.0001519    0.0000931     0.6412839   -0.4717802 
   0.010252551     0.8937830   -0.3523310     0.0006572    0.0012038    -0.0002283   -0.0002030     0.6360206   -0.4761886 
   0.010352576     0.9193275   -0.3643375     0.0009212   -0.0018060    -0.0001315   -0.0000241     0.6313822   -0.4762228 
   0.010452601     0.9300519   -0.3717635     0.0002935   -0.0007385    -0.0003178    0.0002578     0.6275522   -0.4795747 
   0.010552626     0.9001786   -0.3763588     0.0001737   -0.0000468    -0.0002131   -0.0003525     0.6253237   -0.4801065 
   0.010652651     0.9157945   -0.3853509    -0.0002120    0.0005671     0.0002325   -0.0003887     0.6190934   -0.4819328 
   0.010752676     0.9118147   -0.3771681    -0.0010564    0.0001881     0.0000370    0.0001941     0.6126108   -0.4786621 
   0.010852701     0.9119699   -0.3651270    -0.0000422    0.0004123     0.0005512    0.0002075     0.6142424   -0.4822305 
   0.010952726     0.9033657   -0.3716637    -0.0006021   -0.0004188     0.0002588    0.0002321     0.6075176   -0.4836363 
   0.011052751     0.9009809   -0.3892452     0.0004550   -0.0008409    -0.0001757    0.0001392     0.6007323   -0.4851843 
   0.011152776     0.8890102   -0.3977002    -0.0005224   -0.0009047    -0.0000327    0.0004602     0.5997858   -0.4845598 
   0.011252801     0.9055355   -0.4027655     0.0003632    0.0019075     0.0001656    0.0000149     0.5937679   -0.4852429 
   0.011352826     0.9010592   -0.4277015     0.0004998    0.0005198    -0.0001241   -0.0000388     0.5900359   -0.4861305 
   0.011452851     0.9020270   -0.4039441     0.0005098    0.0002719    -0.0002628   -0.0000302     0.5842071   -0.4868783 
   0.011552876     0.8698409   -0.4186792    -0.0005353   -0.0009584    -0.0000431    0.0000993     0.5820118   -0.4905273 
   0.011652901     0.8763893   -0.4268726     0.0009368   -0.0004502     0.0000059   -0.0000254     0.5787542   -0.4880837 
   0.011752926     0.8666449   -0.4204924    -0.0004634    0.0009296     0.0002880    0.0000456     0.5749614   -0.4877312 
   0.011852951     0.9003720   -0.4401112     0.0010844   -0.0008274     0.0000480    0.0002825     0.5729471   -0.4913858 
   0.011952976     0.8727956   -0.4241242     0.0007084    0.0002318     0.0003258    0.0001613     0.5646961   -0.4903457 
   0.012053002     0.8718991   -0.4570719     0.0009099   -0.0002574     0.0001269    0.0000296     0.5592383   -0.4883774 
   0.012153027     0.8694838   -0.4484120    -0.0002523   -0.0017318     0.0003088   -0.0000428     0.5554057   -0.4905794 
   0.012253052     0.8496032   -0.4451218     0.0000693   -0.0009454    -0.0002846    0.0000112     0.5551166   -0.4914731 
   0.012353077     0.8730202   -0.4501457    -0.0008085   -0.0011251     0.0000998   -0.0000455     0.5517111   -0.4890501 
   0.012453102     0.8767489   -0.4520774    -0.0008509   -0.0006181    -0.0000250   -0.0001084     0.5443329   -0.4918217 
   0.012553127     0.8529734   -0.4688898     0.0003895   -0.0012099    -0.0001653   -0.0000872     0.5392544   -0.4905035 
   0.012653152     0.8725834   -0.4510666     0.0004400    0.0008130     0.0001356   -0.0000214     0.5368274   -0.4888179 
   0.012753177     0.8485171   -0.4643252    -0.0003240   -0.0006669    -0.0000129   -0.0000424     0.5343739   -0.4922034 
   0.012853202     0.8524662   -0.4671286    -0.0000702   -0.0008055    -0.0001669    0.0000890     0.5285164   -0.4910020 
   0.012953227     0.8518444   -0.4723198    -0.0005520    0.0005475     0.0000393   -0.0000591     0.5275454   -0.4943347 
   0.013053252     0.8306400   -0.4970497    -0.0010480   -0.0001101    -0.0000033    0.0003969     0.5241915   -0.4937705 
   0.013153277     0.8361678   -0.4806323     0.0000817    0.0002883     0.0000151    0.0000505     0.5182089   -0.4947674 
   0.013253302     0.8358614   -0.4757235    -0.0005379    0.0000145     0.0001304    0.0001316     0.5145447   -0.4914600 
   0.013353327     0.8236130   -0.4913565    -0.0001121    0.0002375    -0.0000668    0.0002490     0.5117918   -0.4922063 
   0.013453352     0.8325031   -0.4884397     0.0003413   -0.0010585     0.0000059    0.0001611     0.5082797   -0.4921175 
   0.013553377     0.8164040   -0.4941381    -0.0000429    0.0007770     0.0000684    0.0001852     0.5015554   -0.4921376 
   0.013653402     0.8108268   -0.5083218     0.0007024   -0.0004420     0.0001839   -0.0000326     0.5004680   -0.4942684 
   0.013753427     0.8141088   -0.5264950    -0.0001739   -0.0013552    -0.0000943    0.0002949     0.4970796   -0.4925064 
   0.013853452     0.8155019   -0.5315273     0.0010455   -0.0004636     0.0001899   -0.0003288     0.4953410   -0.4906877 
   0.013953477     0.8007817   -0.5187981     0.0005351    0.0002457    -0.0002757   -0.0000313     0.4914363   -0.4916909 
   0.014053502     0.8045839   -0.5404140     0.0005756    0.0004585     0.0001735   -0.0002375     0.4883509   -0.4915228 
   0.014153527     0.7892477   -0.5477659     0.0001582    0.0012610    -0.0002077   -0.0001361     0.4847395   -0.4906977 
   0.014253552     0.7857948   -0.5514270    -0.0002860   -0.0001171    -0.0002996   -0.0000477     0.4826690   -0.4918057 
   0.014353577     0.7659566   -0.5547194     0.0006971    0.0007456    -0.0000381   -0.0001616     0.4761501   -0.4918016 
   0.014453602     0.7560482   -0.5539862     0.0006080    0.0004705     0.0000162   -0.0001064     0.4755102   -0.4893958 
   0.014553627     0.7551653   -0.5664208     0.0002386   -0.0001561     0.0001770   -0.0000493     0.4718960   -0.4904865 
   0.014653652     0.7609618   -0.5786415     0.0001523   -0.0007016     0.0000326   -0.0001244     0.4652078   -0.4911346 
   0.014753677     0.7397484   -0.5857524     0.0007646   -0.0001008    -0.0002644    0.0001814     0.4648044   -0.4887790 
   0.014853702     0.7420386   -0.5888310    -0.0007286    0.0010967    -0.0002600    0.0000006     0.4591895   -0.4892086 
   0.014953727     0.7191636   -0.6095555     0.0002446    0.0001655    -0.0000752    0.0001105     0.4574751   -0.4894967 
   0.015053752     0.7160255   -0.5999667    -0.0005732   -0.0000963     0.0001930   -0.0000275     0.4534327   -0.4884824 
   0.015153777     0.7097918   -0.6223249    -0.0004145    0.0004788    -0.0001890   -0.0001836     0.4527230   -0.4895944 
   0.015253802     0.6979801   -0.6242899    -0.0002804    0.0002938    -0.0001612   -0.0002411     0.4469070   -0.4889697 
   0.015353827     0.6820983   -0.6420026    -0.0003482    0.0005167     0.0000050   -0.0002766     0.4450662   -0.4870597 
   0.015453852     0.6750451   -0.6440279    -0.0000229   -0.0003782    -0.0001947   -0.0000615     0.4419689   -0.4867131 
   0.015553877     0.6523573   -0.6566990     0.0007596    0.0008462    -0.0001142    0.0002340     0.4388033   -0.4876720 
   0.015653902     0.6411459   -0.6634371     0.0001453    0.0003232    -0.0001477   -0.0000356     0.4357678   -0.4892424 
   0.015753927     0.6306249   -0.6618087    -0.0000389    0.0009112    -0.0001755   -0.0000707     0.4331288   -0.4866087 
   0.015853952     0.6016470   -0.6832731    -0.0000228    0.0000160    -0.0000415   -0.0001957     0.4296628   -0.4850050 
   0.015953977     0.5893072   -0.6869994    -0.0003608   -0.0003860    -0.0000233   -0.0000058     0.4259879   -0.4846275 
   0.016054002     0.5662783   -0.6906511    -0.0006646    0.0001785    -0.0002534   -0.0000254     0.4229617   -0.4846077 
   0.016154027     0.5377759   -0.7034288     0.0001713    0.0010291    -0.0001543    0.0000079     0.4187343   -0.4856190 
   0.016254052     0.5102159   -0.7073819     0.0000668    0.0001578    -0.0000098    0.0000137     0.4191789   -0.4838494 
   0.016354077     0.4800556   -0.7041620    -0.0000995   -0.0003529    -0.0001678   -0.0001583     0.4157430   -0.4829499 
   0.016454102     0.4535237   -0.7221021    -0.0004988   -0.0000270    -0.0000840    0.0001350     0.4124078   -0.4836477 
   0.016554127     0.4150008   -0.7218581    -0.0000214   -0.0001787     0.0000135    0.0000791     0.4077085   -0.4831862 
   0.016654152     0.3767124   -0.7295718     0.0002457    0.0000554    -0.0002232   -0.0000758     0.4036452   -0.4826571 
   0.016754177     0.3294756   -0.7246035    -0.0005506    0.0000497    -0.0000933    0.0001425     0.4024901   -0.4806011 
   0.016854202     0.2761340   -0.7143820    -0.0000322    0.0001092    -0.0003117    0.0000559     0.4004629   -0.4813190 
   0.016954227     0.2207561   -0.7121194    -0.0000026   -0.0001157    -0.0000944    0.0000561     0.4004700   -0.4799879 
   0.017054252     0.1622023   -0.6824707    -0.0001474    0.0000950    -0.0000520    0.0000126     0.3962941   -0.4792359 
   0.017154277     0.1074400   -0.6441865     0.0002233    0.0001411    -0.0001335    0.0000809     0.3935826   -0.4796164 
   0.017254302     0.0396856   -0.6009347    -0.0003883    0.0000189    -0.0001178    0.0000829     0.3893068   -0.4765994 
   0.017354327    -0.0208688   -0.5406727    -0.0002120   -0.0001604    -0.0002964    0.0000371     0.3880878   -0.4775366 
   0.017454352    -0.0756797   -0.4515870    -0.0004288    0.0001803     0.0000394    0.0000735     0.3829882   -0.4763009 
   0.017554377    -0.1166176   -0.3533431     0.0001482    0.0000250    -0.0000873    0.0002280     0.3818739   -0.4760141 
   0.017654402    -0.1328612   -0.2394394    -0.0004337    0.0006686    -0.0002650   -0.0000208     0.3797094   -0.4751166 
   0.017754427    -0.1265504   -0.1151628    -0.0007769    0.0006832     0.0000584    0.0001476     0.3776496   -0.4749328 
   0.017854452    -0.0878998    0.0050625    -0.0003862    0.0003605     0.0001719    0.0001871     0.3759101   -0.4746847 
   0.017954477    -0.0229534    0.1133680     0.0010286    0.0006486    -0.0001428    0.0002278     0.3733541   -0.4722681 
   0.018054502     0.0686230    0.2045291    -0.0001682    0.0002023     0.0000002    0.0001387     0.3708780   -0.4729657 
   0.018154527     0.1722072    0.2669462    -0.0001111    0.0003659    -0.0002183    0.0002079     0.3686679   -0.4730382 
   0.018254552     0.2781107    0.2999257     0.0000261    0.0004235    -0.0003208   -0.0000008     0.3656151   -0.4704945 
   0.018354577     0.3814917    0.2998040     0.0002336   -0.0001903    -0.0001368    0.0002586     0.3627164   -0.4705895 
   0.018454602     0.4609935    0.2946235    -0.0000952   -0.0003816     0.0001792   -0.0000561     0.3595445   -0.4698350 
   0.018554627     0.5470530    0.2785690    -0.0000618    0.0001612     0.0000921    0.0000943     0.3579226   -0.4689764 
   0.018654652     0.6123616    0.2496607    -0.0005465    0.0001996     0.0004268    0.0002828     0.3538800   -0.4674552 
   0.018754677     0.6706760    0.2129721     0.0001119    0.0004277     0.0000543    0.0001533     0.3535464   -0.4680400 
   0.018854702     0.7181910    0.1812473     0.0008446    0.0003174    -0.0003026    0.0000858     0.3536388   -0.4659334 
   0.018954727     0.7588861    0.1485923    -0.0002031    0.0002055    -0.0001214    0.0002102     0.3494332   -0.4654605 
   0.019054752     0.7823717    0.1194440    -0.0005027   -0.0001397     0.0000655    0.0001560     0.3462117   -0.4652641 
   0.019154777     0.8020656    0.0712820     0.0002677    0.0009176    -0.0000343    0.0001816     0.3434738   -0.4645960 
   0.019254802     0.8259389    0.0401004    -0.0000082   -0.0008951     0.0000543    0.0000273     0.3395044   -0.4641005 
   0.019354827     0.8316978    0.0020354    -0.0004852    0.0007336     0.0001961   -0.0000529     0.3394472   -0.4633693 
   0.019454852     0.8496265   -0.0163991     0.0007465   -0.0000401     0.0001182    0.0001258     0.3376943   -0.4641573 
   0.019554877     0.8603396   -0.0412242     0.0001394   -0.0003514    -0.0000673   -0.0001017     0.3358881   -0.4622862 
   0.019654902     0.8893071   -0.0654619    -0.0002902   -0.0001882    -0.0002302    0.0001699     0.3345892   -0.4618348 
   0.019754927     0.8661088   -0.0967821     0.0005011   -0.0000603    -0.0001838   -0.0002197     0.3320959   -0.4610763 
   0.019854952     0.8773271   -0.1128677     0.0003657    0.0001836    -0.0000456    0.0000517     0.3291213   -0.4581917 
   0.019954977     0.8902649   -0.1363899     0.0005751   -0.0003096     0.0000964   -0.0002126     0.3286288   -0.4578792 
   0.020055003     0.8946388   -0.1549719    -0.0005958    0.0004777    -0.0000766   -0.0000656     0.3252033   -0.4573104 
   0.020155028     0.8893338   -0.1744457     0.0000575    0.0000600    -0.0000218    0.0001634     0.3232129   -0.4571242 
   0.020255053     0.8928083   -0.1831329    -0.0004464    0.0003881     0.0000731    0.0000846     0.3224531   -0.4564861 
   0.020355078     0.8979955   -0.2055173    -0.0003034    0.0000325    -0.0002618   -0.0000867     0.3190535   -0.4556020 
   0.020455103     0.8933824   -0.2233835     0.0001939    0.0001720    -0.0002184    0.0000021     0.3189364   -0.4554753 
   0.020555128     0.8915011   -0.2377172    -0.0002550   -0.0000649    -0.0000616    0.0000012     0.3156300   -0.4541800 
   0.020655153     0.8936098   -0.2538866     0.0004081   -0.0003837    -0.0003464   -0.0000622     0.3138750   -0.4513417 
   0.020755178     0.8789203   -0.2583725    -0.0000692    0.0008995    -0.0000968    0.0000515     0.3116503   -0.4521430 
   0.020855203     0.8870142   -0.2740741    -0.0005236   -0.0000287    -0.0000053    0.0000144     0.3085080   -0.4516047 
   0.020955228     0.8785551   -0.2871358     0.0001215   -0.0004641    -0.0000222   -0.0000279     0.3061772   -0.4497142 
   0.021055253     0.8778726   -0.3086407    -0.0002891    0.0001075     0.0000923   -0.0001214     0.3065173   -0.4485820 
   0.021155278     0.8781327   -0.3168729     0.0008541   -0.0002168    -0.0002124   -0.0001214     0.3053374   -0.4489627 
   0.021255303     0.8717776   -0.3256731    -0.0006051    0.0002022    -0.0001683    0.0001835     0.3017821   -0.4469182 
   0.021355328     0.8758804   -0.3226479     0.0003160    0.0000064    -0.0001486    0.0000559     0.3000932   -0.4450434 
   0.021455353     0.8683596   -0.3416373     0.0000339    0.0000597     0.0001126   -0.0000439     0.2979144   -0.4456556 
   0.021555378     0.8775021   -0.3516271    -0.0000826   -0.0004325    -0.0000174    0.0001317     0.2965248   -0.4443616 
   0.021655403     0.8695964   -0.3620647    -0.0000927   -0.0001812     0.0000397   -0.0001090     0.2949822   -0.4425286 
   0.021755428     0.8648000   -0.3719552    -0.0003362    0.0007795     0.0000905   -0.0001364     0.2931591   -0.4430646 
   0.021855453     0.8649912   -0.3730862     0.0006550    0.0004984     0.0001438    0.0000109     0.2907734   -0.4400239 
   0.021955478     0.8502118   -0.3782752     0.0003657   -0.0004212     0.0000342   -0.0001566     0.2903217   -0.4411507 
   0.022055503     0.8670449   -0.3874517     0.0000256   -0.0003096    -0.0001286    0.0001692     0.2875723   -0.4414637 
   0.022155528     0.8516859   -0.4066225    -0.0002695    0.0001309     0.0001754    0.0000671     0.2850085   -0.4403971 
   0.022255553     0.8421658   -0.4106640     0.0001957   -0.0001988     0.0000198   -0.0002164     0.2840508   -0.4373121 
   0.022355578     0.8434486   -0.4109340     0.0003013   -0.0002931     0.0000789   -0.0000716     0.2824933   -0.4380463 
   0.022455603     0.8422819   -0.4376689     0.0004387    0.0000502     0.0001032   -0.0000746     0.2811449   -0.4373963 
   0.022555628     0.8438017   -0.4287142    -0.0003337   -0.0003488    -0.0003076   -0.0001389     0.2797322   -0.4367758 
   0.022655653     0.8470376   -0.4333282     0.0002507   -0.0002594    -0.0000524    0.0002175     0.2774824   -0.4362459 
   0.022755678     0.8288450   -0.4509285    -0.0004811   -0.0000464     0.0001136    0.0001875     0.2765441   -0.4345173 
   0.022855703     0.8365332   -0.4501934     0.0001579    0.0000480     0.0000287   -0.0000099     0.2738397   -0.4334532 
   0.022955728     0.8264978   -0.4459671    -0.0000599    0.0000965    -0.0000206   -0.0000261     0.2733747   -0.4319712 
   0.023055753     0.8260455   -0.4640267     0.0001953    0.0000743    -0.0001781    0.0001743     0.2722180   -0.4310273 
   0.023155778     0.8263848   -0.4734645     0.0002249   -0.0000266     0.0000709   -0.0000117     0.2700397   -0.4305902 
   0.023255803     0.8168923   -0.4795633    -0.0000385    0.0005967     0.0002031   -0.0000296     0.2680361   -0.4296566 
   0.023355828     0.8069750   -0.4807543     0.0000311    0.0000510     0.0000051    0.0002247     0.2668430   -0.4299816 
   0.023455853     0.8163635   -0.4915494     0.0004741   -0.0000276    -0.0001387    0.0000440     0.2648602   -0.4293179 
   0.023555878     0.8084943   -0.5000700    -0.0001903    0.0001555     0.0000095   -0.0000725     0.2632380   -0.4273061 
   0.023655903     0.8046046   -0.4913084     0.0002675   -0.0002751    -0.0000073    0.0000486     0.2620882   -0.4274383 
   0.023755928     0.7972357   -0.5042437    -0.0000502    0.0001720     0.0000811   -0.0000028     0.2605623   -0.4246503 
   0.023855953     0.7968324   -0.5094364    -0.0001744    0.0006732     0.0000173   -0.0000882     0.2575836   -0.4254216 
   0.023955978     0.7944622   -0.5147969     0.0001868   -0.0000275    -0.0000227    0.0001281     0.2584744   -0.4253913 
   0.024056003     0.7942637   -0.5189777     0.0002636    0.0003263     0.0000384   -0.0000067     0.2555868   -0.4241821 
   0.024156028     0.7824071   -0.5268889     0.0001053   -0.0004214    -0.0000497    0.0001042     0.2548030   -0.4227402 
   0.024256053     0.7803432   -0.5304889    -0.0000564   -0.0000777    -0.0000821    0.0001301     0.2536207   -0.4227378 
   0.024356078     0.7767392   -0.5390843     0.0000179    0.0001680    -0.0000496   -0.0000002     0.2524526   -0.4207380 
   0.024456103     0.7711499   -0.5347198    -0.0001019   -0.0000896    -0.0000290    0.0000398     0.2504964   -0.4196567 
   0.024556128     0.7778860   -0.5425941    -0.0004005   -0.0000688    -0.0002432   -0.0000254     0.2484286   -0.4197020 
   0.024656153     0.7720948   -0.5482094    -0.0001629    0.0003559    -0.0001072    0.0000295     0.2481053   -0.4186812 
   0.024756178     0.7666973   -0.5568911    -0.0001380    0.0005248    -0.0000189    0.0001044     0.2455222   -0.4174308 
   0.024856203     0.7676527   -0.5622568    -0.0000246    0.0003386    -0.0003359   -0.0000264     0.2452021   -0.4156927 
   0.024956228     0.7641990   -0.5586970     0.0002746   -0.0000613    -0.0002258    0.0000315     0.2439366   -0.4152159 
   0.025056253     0.7515955   -0.5683457     0.0001125    0.0004047    -0.0001229   -0.0000242     0.2427261   -0.4162536 
   0.025156278     0.7514870   -0.5732948    -0.0005970    0.0000038    -0.0000551   -0.0000465     0.2414749   -0.4137045 
   0.025256303     0.7445605   -0.5732772    -0.0000814    0.0000998    -0.0001507    0.0000052     0.2398610   -0.4135585 
   0.025356328     0.7477027   -0.5781561     0.0000880    0.0002580    -0.0000867   -0.0000066     0.2391406   -0.4130106 
   0.025456353     0.7371600   -0.5869532    -0.0001157    0.0002006     0.0000064    0.0000039     0.2377309   -0.4119143 
   0.025556378     0.7310694   -0.5947589     0.0000917    0.0001660    -0.0001018   -0.0000574     0.2370053   -0.4105713 
   0.025656403     0.7326509   -0.6009822    -0.0000326   -0.0003248     0.0000312   -0.0000415     0.2342986   -0.4111308 
   0.025756428     0.7309201   -0.6081226     0.0000303    0.0002562    -0.0000069    0.0000791     0.2320613   -0.4078605 
   0.025856453     0.7240599   -0.6091939    -0.0003128    0.0003282    -0.0000142    0.0001040     0.2318522   -0.4079171 
   0.025956478     0.7232517   -0.6083195    -0.0002749    0.0000740     0.0000387    0.0000438     0.2312990   -0.4074420 
   0.026056503     0.7101218   -0.6138563    -0.0004920    0.0001675    -0.0000468    0.0000441     0.2295417   -0.4059054 
   0.026156528     0.7052420   -0.6171991    -0.0001251    0.0002270    -0.0001492    0.0000345     0.2281661   -0.4062475 
   0.026256553     0.7114575   -0.6193613     0.0000011   -0.0000764    -0.0000664    0.0000530     0.2270600   -0.4058060 
   0.026356578     0.7059752   -0.6348541     0.0000749   -0.0004333    -0.0000491   -0.0000492     0.2260378   -0.4058329 
   0.026456603     0.6942231   -0.6420466    -0.0003132    0.0003055    -0.0001853    0.0001073     0.2245228   -0.4036348 
   0.026556628     0.6925412   -0.6372943    -0.0000622    0.0001633    -0.0001396   -0.0000213     0.2232950   -0.4029817 
   0.026656653     0.6831437   -0.6362190     0.0002086    0.0000993    -0.0000793   -0.0000370     0.2220178   -0.4019599 
   0.026756678     0.6817167   -0.6480446    -0.0000903   -0.0000030    -0.0001322   -0.0000072     0.2225101   -0.4021749 
   0.026856703     0.6811665   -0.6596279    -0.0001496    0.0001347    -0.0000293    0.0000311     0.2211972   -0.4007883 
   0.026956728     0.6770232   -0.6541501    -0.0001000    0.0002092    -0.0001866    0.0000297     0.2195529   -0.3983323 
   0.027056753     0.6704895   -0.6582342    -0.0002375    0.0001584    -0.0000735    0.0001056     0.2166957   -0.3982210 
   0.027156778     0.6673347   -0.6626797     0.0000879    0.0001559    -0.0001069    0.0000485     0.2166018   -0.3973319 
   0.027256803     0.6604013   -0.6606641    -0.0002776    0.0001049    -0.0001360    0.0000492     0.2148368   -0.3975886 
   0.027356828     0.6604406   -0.6699820    -0.0001913    0.0002960    -0.0002043    0.0000769     0.2148285   -0.3964263 
   0.027456853     0.6445095   -0.6812740     0.0001758    0.0003158    -0.0000922    0.0000378     0.2130564   -0.3959123 
   0.027556878     0.6465035   -0.6757547     0.0002610    0.0000489    -0.0000523    0.0000105     0.2112980   -0.3934599 
   0.027656903     0.6448514   -0.6858221    -0.0000690   -0.0001949    -0.0000283    0.0001329     0.2113719   -0.3941172 
   0.027756928     0.6321514   -0.6859554    -0.0001919    0.0001843    -0.0000778    0.0000287     0.2102203   -0.3932829 
   0.027856953     0.6336985   -0.6899000    -0.0001647   -0.0000288    -0.0001468    0.0000892     0.2092036   -0.3916036 
   0.027956978     0.6235473   -0.6906784    -0.0002440    0.0001758    -0.0001024    0.0000632     0.2073031   -0.3909015 
   0.028057004     0.6174549   -0.6935933    -0.0002594    0.0002503    -0.0001572    0.0000855     0.2067132   -0.3889115 
   0.028157029     0.6109306   -0.7032005    -0.0001290    0.0000822    -0.0002472    0.0000735     0.2060446   -0.3894486 
   0.028257054     0.6043599   -0.7056304    -0.0000320    0.0001851    -0.0001898    0.0000351     0.2048693   -0.3894897 
   0.028357079     0.5937152   -0.7088928    -0.0002799   -0.0000996    -0.0001082    0.0000946     0.2025190   -0.3883064 
   0.028457104     0.5922526   -0.7134639     0.0000807   -0.0000826    -0.0001306    0.0000124     0.2035143   -0.3869680 
   0.028557129     0.5880908   -0.7226834     0.0001390    0.0001093    -0.0001063    0.0000518     0.2025506   -0.3881001 
   0.028657154     0.5880828   -0.7225848    -0.0003927    0.0003721    -0.0001180    0.0000694     0.2012070   -0.3855047 
   0.028757179     0.5817611   -0.7232573     0.0000276   -0.0002208    -0.0001378    0.0000064     0.2002592   -0.3849453 
   0.028857204     0.5691519   -0.7307122    -0.0003639    0.0003892    -0.0001714    0.0000520     0.1989678   -0.3838921 
   0.028957229     0.5603760   -0.7338318    -0.0001997    0.0000728    -0.0001676    0.0000741     0.1986286   -0.3838702 
   0.029057254     0.5631832   -0.7450178    -0.0000858    0.0001783    -0.0000626    0.0000568     0.1980293   -0.3831699 
   0.029157279     0.5512095   -0.7419285    -0.0001639   -0.0000413    -0.0001371    0.0000793     0.1969650   -0.3811054 
   0.029257304     0.5417278   -0.7469913    -0.0001728    0.0001954    -0.0000847    0.0000700     0.1950022   -0.3804810 
   0.029357329     0.5347392   -0.7436765     0.0000834   -0.0000461    -0.0001318    0.0001103     0.1941899   -0.3799834 
   0.029457354     0.5320085   -0.7534782    -0.0002144    0.0002151    -0.0001435    0.0001254     0.1929493   -0.3802017 
   0.029557379     0.5185198   -0.7621112    -0.0001129    0.0000189    -0.0001610    0.0000029     0.1920687   -0.3793327 
   0.029657404     0.5157094   -0.7622317    -0.0001845    0.0001554    -0.0002028    0.0001612     0.1913295   -0.3784568 
   0.029757429     0.5044760   -0.7651222    -0.0001532    0.0002404    -0.0001285    0.0000695     0.1903043   -0.3775253 
   0.029857454     0.4912774   -0.7660020    -0.0002996    0.0002389    -0.0001360    0.0000695     0.1901418   -0.3770564 
   0.029957479     0.4939652   -0.7657423    -0.0000321    0.0002983    -0.0002573    0.0001433     0.1891824   -0.3752871 
   0.030057504     0.4792675   -0.7755302    -0.0000363    0.0002436    -0.0001574    0.0001245     0.1879593   -0.3745837 
   0.030157529     0.4808838   -0.7747067    -0.0004230    0.0000096    -0.0001010    0.0000394     0.1865414   -0.3742916 
   0.030257554     0.4695625   -0.7733341    -0.0003422    0.0002897    -0.0001953    0.0000407     0.1861929   -0.3722656 
   0.030357579     0.4634806   -0.7750115    -0.0003208    0.0003191    -0.0001746    0.0001333     0.1848029   -0.3723466 
   0.030457604     0.4503521   -0.7847854    -0.0002303   -0.0000417    -0.0001969    0.0000746     0.1850003   -0.3721327 
   0.030557629     0.4436843   -0.7869614    -0.0002688    0.0001593    -0.0002179    0.0001379     0.1839834   -0.3707337 
   0.030657654     0.4291422   -0.7910935    -0.0006860    0.0001459    -0.0001433    0.0001282     0.1833235   -0.3706684 
   0.030757679     0.4195849   -0.7917991    -0.0001909    0.0003309    -0.0001998    0.0001478     0.1825137   -0.3699418 
   0.030857704     0.4139325   -0.7952569    -0.0002114    0.0000031    -0.0001926    0.0001442     0.1813642   -0.3701220 
   0.030957729     0.4032944   -0.8051840    -0.0001265    0.0000661    -0.0001724    0.0001593     0.1794270   -0.3681310 
   0.031057754     0.3924468   -0.8007148    -0.0003657    0.0003191    -0.0001913    0.0000427     0.1792206   -0.3684457 
   0.031157779     0.3843200   -0.8152779    -0.0001929    0.0004196    -0.0002059    0.0001003     0.1792877   -0.3672415 
   0.031257804     0.3708930   -0.8099237    -0.0001025    0.0001499    -0.0001439    0.0001648     0.1787273   -0.3669491 
   0.031357829     0.3600791   -0.8129429    -0.0001725    0.0002419    -0.0001804    0.0002109     0.1765248   -0.3653570 
   0.031457854     0.3522910   -0.8091253    -0.0002218    0.0005490    -0.0003221    0.0002448     0.1757175   -0.3658883 
   0.031557879     0.3378942   -0.8185661    -0.0006555    0.0001503    -0.0002215    0.0001335     0.1752954   -0.3644802 
   0.031657904     0.3261117   -0.8130120    -0.0002903   -0.0000030    -0.0001917    0.0001671     0.1746637   -0.3633105 
   0.031757929     0.3165470   -0.8195972    -0.0001152   -0.0000159    -0.0002549    0.0002329     0.1729431   -0.3625528 
   0.031857954     0.3029808   -0.8205878    -0.0003493    0.0001367    -0.0003027    0.0001374     0.1727374   -0.3620978 
   0.031957979     0.2919108   -0.8203131    -0.0002852    0.0002905    -0.0001929    0.0001152     0.1733848   -0.3611505 
   0.032058004     0.2844821   -0.8248908    -0.0000852    0.0001371    -0.0001610    0.0001545     0.1705966   -0.3622728 
   0.032158029     0.2657889   -0.8261370    -0.0003850    0.0002611    -0.0001656    0.0002189     0.1705870   -0.3605131 
   0.032258054     0.2545415   -0.8273221     0.0000886    0.0003301    -0.0002536    0.0001789     0.1708446   -0.3594248 
   0.032358079     0.2397423   -0.8277271     0.0000198    0.0002938    -0.0001757    0.0001839     0.1685440   -0.3580234 
   0.032458104     0.2264162   -0.8290485    -0.0000980    0.0001812    -0.0001986    0.0001500     0.1689713   -0.3584294 
   0.032558129     0.2086222   -0.8211516    -0.0004330    0.0005230    -0.0001395    0.0001304     0.1678554   -0.3579240 
   0.032658154     0.1902959   -0.8237461    -0.0003110    0.0001218    -0.0000684    0.0001088     0.1667718   -0.3567518 
   0.032758179     0.1744769   -0.8227226     0.0000073    0.0004903    -0.0002094    0.0003710     0.1673132   -0.3560697 
   0.032858204     0.1571298   -0.8165699    -0.0003996    0.0002600    -0.0002281    0.0003507     0.1652229   -0.3561667 
   0.032958229     0.1399898   -0.8191684    -0.0000164    0.0003619    -0.0002555    0.0000798     0.1645656   -0.3537796 
   0.033058254     0.1247177   -0.8178091    -0.0003455   -0.0006750    -0.0001601    0.0000626     0.1641002   -0.3543661 
   0.033158279     0.1045238   -0.8108937    -0.0000581    0.0003770    -0.0002613    0.0003160     0.1637686   -0.3529320 
   0.033258304     0.0811621   -0.8132301    -0.0000085    0.0000727    -0.0002454    0.0002179     0.1624427   -0.3529571 
   0.033358329     0.0653589   -0.8028725    -0.0002193    0.0008641    -0.0003009    0.0001833     0.1610851   -0.3516265 
   0.033458354     0.0470030   -0.8048835    -0.0000795    0.0005933    -0.0002329    0.0001254     0.1612508   -0.3517606 
   0.033558379     0.0241662   -0.8000196     0.0001634    0.0001154    -0.0001927    0.0002624     0.1610125   -0.3508653 
   0.033658404    -0.0024604   -0.7852342     0.0002266    0.0003328    -0.0003466    0.0002610     0.1598326   -0.3489657 
   0.033758429    -0.0205757   -0.7779601    -0.0005930    0.0005328    -0.0003277    0.0002060     0.1594152   -0.3491488 
   0.033858454    -0.0452842   -0.7712667    -0.0003991    0.0001316    -0.0004508    0.0001639     0.1589567   -0.3483286 
   0.033958479    -0.0624191   -0.7697676    -0.0005905   -0.0002441    -0.0002900    0.0002235     0.1582462   -0.3479925 
   0.034058504    -0.0829440   -0.7476705    -0.0005412    0.0002307    -0.0002057    0.0001812     0.1570029   -0.3468342 
   0.034158529    -0.1137704   -0.7318134    -0.0006814    0.0000463    -0.0002534    0.0002967     0.1573084   -0.3467783 
   0.034258554    -0.1357207   -0.7220709    -0.0000124   -0.0002072    -0.0003500    0.0002986     0.1575297   -0.3467486 
   0.034358579    -0.1572465   -0.6995854    -0.0004290    0.0001923     0.0000622    0.0003187     0.1549395   -0.3452124 
   0.034458604    -0.1826221   -0.6904722     0.0003975   -0.0001391    -0.0001119    0.0003086     0.1558954   -0.3444498 
   0.034558629    -0.2066195   -0.6681302     0.0004785    0.0007205    -0.0001883    0.0002829     0.1535808   -0.3449920 
   0.034658654    -0.2320402   -0.6474710     0.0000555    0.0004301    -0.0003340    0.0003913     0.1534762   -0.3434104 
   0.034758679    -0.2596853   -0.6167897    -0.0011629    0.0003436    -0.0001540    0.0002918     0.1529715   -0.3426337 
   0.034858704    -0.2848444   -0.5913189     0.0003410   -0.0001453    -0.0003006    0.0003475     0.1513140   -0.3425762 
   0.034958729    -0.3054643   -0.5603404    -0.0000494    0.0008821    -0.0000883    0.0005018     0.1514652   -0.3415878 
   0.035058754    -0.3268003   -0.5262578     0.0001816    0.0005597    -0.0003445    0.0004216     0.1501295   -0.3409348 
   0.035158779    -0.3527148   -0.4981866    -0.0007268    0.0014047    -0.0000995    0.0004743     0.1488068   -0.3408299 
   0.035258804    -0.3778049   -0.4415073    -0.0005124    0.0010604    -0.0001423    0.0004742     0.1490509   -0.3394750 
   0.035358829    -0.3892291   -0.4014693    -0.0001741    0.0006814    -0.0001780    0.0003686     0.1488090   -0.3385464 
   0.035458854    -0.4055333   -0.3576848     0.0000515    0.0000784    -0.0002013    0.0003664     0.1485079   -0.3387953 
   0.035558879    -0.4138426   -0.3103623    -0.0006542    0.0000704    -0.0001128    0.0005349     0.1484434   -0.3375646 
   0.035658904    -0.4202512   -0.2545115    -0.0003073    0.0004879    -0.0000836    0.0006408     0.1475988   -0.3373448 
   0.035758929    -0.4251104   -0.2002530     0.0004669    0.0011028    -0.0001377    0.0003183     0.1468366   -0.3363784 
   0.035858954    -0.4325993   -0.1414778    -0.0001992   -0.0003886    -0.0002274    0.0006306     0.1462353   -0.3359173 
   0.035958979    -0.4228070   -0.0812283     0.0003314    0.0009831    -0.0001909    0.0002096     0.1453538   -0.3357846 
   0.036059005    -0.4099935   -0.0205038     0.0001110    0.0005210    -0.0001253    0.0004280     0.1456947   -0.3341790 
   0.036159030    -0.3884481    0.0403818     0.0001182    0.0000541    -0.0000183    0.0003232     0.1437873   -0.3346475 
   0.036259055    -0.3605908    0.1009132     0.0003191   -0.0001454     0.0000510    0.0004782     0.1435940   -0.3343792 
   0.036359080    -0.3262872    0.1558062    -0.0000964    0.0008516     0.0002461    0.0005757     0.1433608   -0.3332642 
   0.036459105    -0.2925079    0.2144596    -0.0008554   -0.0002463     0.0002280    0.0004579     0.1432364   -0.3334472 
   0.036559130    -0.2453230    0.2672194     0.0004531    0.0004863    -0.0000276    0.0002943     0.1418708   -0.3311896 
   0.036659155    -0.1917294    0.3103104    -0.0002369    0.0005859     0.0000576    0.0004187     0.1414643   -0.3304508 
   0.036759180    -0.1327687    0.3546794     0.0000559   -0.0003485     0.0001094    0.0004211     0.1410514   -0.3306008 
   0.036859205    -0.0699673    0.3911292     0.0005321    0.0004853     0.0000102    0.0005848     0.1402204   -0.3306356 
   0.036959230    -0.0115414    0.4126443    -0.0002701    0.0000887    -0.0000586    0.0004552     0.1393973   -0.3301117 
   0.037059255     0.0535059    0.4352231     0.0008861    0.0006406     0.0003676    0.0001118     0.1399690   -0.3298147 
   0.037159280     0.1168891    0.4526212     0.0001164    0.0001303     0.0002437    0.0002134     0.1401097   -0.3285340 
   0.037259305     0.1817401    0.4505136     0.0001979   -0.0003974     0.0000867    0.0002552     0.1383988   -0.3280048 
   0.037359330     0.2468670    0.4520619     0.0011360   -0.0002157     0.0000672    0.0004265     0.1380527   -0.3275670 
   0.037459355     0.3088946    0.4480552     0.0004775   -0.0003432    -0.0000024    0.0005231     0.1375169   -0.3264435 
   0.037559380     0.3663428    0.4331253     0.0006589    0.0001118     0.0001429    0.0001321     0.1367893   -0.3261359 
   0.037659405     0.4176002    0.4181302    -0.0000216    0.0002190     0.0003771    0.0003568     0.1359653   -0.3254150 
   0.037759430     0.4725291    0.3902551    -0.0000396    0.0005445     0.0003231    0.0001634     0.1362311   -0.3240603 
   0.037859455     0.5146746    0.3767554     0.0004196   -0.0001516     0.0002473    0.0000706     0.1357025   -0.3240955 
   0.037959480     0.5612662    0.3461596     0.0005662    0.0001598    -0.0000362    0.0002262     0.1343761   -0.3239475 
   0.038059505     0.5992939    0.3149607    -0.0000288    0.0005782     0.0002345    0.0001134     0.1338769   -0.3236109 
   0.038159530     0.6323704    0.2867383    -0.0003096    0.0002137     0.0001321    0.0001684     0.1338070   -0.3224489 
   0.038259555     0.6665188    0.2525960     0.0009108    0.0002984     0.0001812    0.0000059     0.1332950   -0.3225048 
   0.038359580     0.6934561    0.2231009     0.0005224   -0.0001217     0.0000037    0.0001278     0.1323492   -0.3215900 
   0.038459605     0.7165986    0.1909577    -0.0001748    0.0004814     0.0000760    0.0001190     0.1321596   -0.3202693 
   0.038559630     0.7442346    0.1561744    -0.0001627   -0.0000434    -0.0000625    0.0000564     0.1315661   -0.3216563 
   0.038659655     0.7628849    0.1238871     0.0003839   -0.0000541     0.0000068    0.0002450     0.1317788   -0.3198730 
   0.038759680     0.7782539    0.0929577    -0.0000414   -0.0000330     0.0001263    0.0001418     0.1307329   -0.3199785 
   0.038859705     0.7901062    0.0634837    -0.0002307    0.0003997    -0.0000518    0.0001321     0.1306357   -0.3191572 
   0.038959730     0.8044072    0.0348395    -0.0003651    0.0002024     0.0000620    0.0000593     0.1298062   -0.3183642 
   0.039059755     0.8131503    0.0106041     0.0003065    0.0005843    -0.0000200    0.0001410     0.1295698   -0.3174627 
   0.039159780     0.8194452   -0.0201118    -0.0000785    0.0001881    -0.0000153    0.0000666     0.1284855   -0.3179856 
   0.039259805     0.8254570   -0.0506147    -0.0001029    0.0001026    -0.0000724    0.0001345     0.1275478   -0.3175931 
   0.039359830     0.8311083   -0.0785172    -0.0004492    0.0002850     0.0001025    0.0001398     0.1286362   -0.3160763 
   0.039459855     0.8322057   -0.1041734     0.0001334    0.0001356     0.0001160    0.0001108     0.1274668   -0.3159021 
   0.039559880     0.8364772   -0.1303068    -0.0002599    0.0002999     0.0000373    0.0000181     0.1271531   -0.3148072 
   0.039659905     0.8386582   -0.1536291    -0.0001161    0.0000037     0.0000041    0.0001002     0.1259998   -0.3132067 
   0.039759930     0.8381445   -0.1752503    -0.0000026    0.0000156     0.0000196    0.0000885     0.1259435   -0.3140225 
   0.039859955     0.8406067   -0.1948424     0.0001538    0.0004911     0.0000155    0.0001076     0.1262680   -0.3134525 
   0.039959980     0.8362796   -0.2233379     0.0001891   -0.0000785    -0.0000156    0.0001485     0.1255658   -0.3131899 
   0.040060005     0.8393690   -0.2399567    -0.0001213    0.0001843     0.0000041    0.0000785     0.1254608   -0.3118609 
   0.040160030     0.8351912   -0.2580519     0.0000215    0.0001868    -0.0000227    0.0000916     0.1245595   -0.3112232 
   0.040260055     0.8318830   -0.2746367    -0.0000337    0.0003496     0.0000077   -0.0000186     0.1231132   -0.3100880 
   0.040360080     0.8261203   -0.2985450    -0.0000886    0.0000883    -0.0001114    0.0001176     0.1226917   -0.3106871 
   0.040460105     0.8270270   -0.3132513    -0.0005205    0.0001834     0.0000448    0.0000679     0.1219391   -0.3106423 
   0.040560130     0.8205721   -0.3301861     0.0001470    0.0002915    -0.0000085    0.0001684     0.1225451   -0.3096854 
   0.040660155     0.8183120   -0.3463030    -0.0000387    0.0001891     0.0000501    0.0001041     0.1212898   -0.3087927 
   0.040760180     0.8092834   -0.3585524    -0.0001366   -0.0000229    -0.0000537    0.0000598     0.1214405   -0.3091221 
   0.040860205     0.8028579   -0.3781874    -0.0004370   -0.0001917    -0.0000556    0.0001172     0.1214340   -0.3076418 
   0.040960230     0.8028362   -0.3970527    -0.0002650   -0.0002610    -0.0000404    0.0000488     0.1204441   -0.3076407 
   0.041060255     0.7963732   -0.4034178    -0.0000772    0.0000076    -0.0000068    0.0000622     0.1206383   -0.3066991 
   0.041160280     0.7897474   -0.4235253     0.0000538    0.0000889    -0.0001881    0.0000808     0.1197175   -0.3060991 
   0.041260305     0.7875468   -0.4322609    -0.0000757    0.0003429    -0.0001603    0.0002015     0.1198546   -0.3058684 
   0.041360330     0.7784681   -0.4449267    -0.0002333   -0.0000766    -0.0000521    0.0000013     0.1189135   -0.3057156 
   0.041460355     0.7692552   -0.4599182    -0.0004748    0.0002174    -0.0001367    0.0000659     0.1186868   -0.3054442 
   0.041560380     0.7665446   -0.4707373     0.0000349    0.0002245    -0.0000621    0.0000778     0.1185368   -0.3045719 
   0.041660405     0.7614027   -0.4877559    -0.0002125    0.0002352    -0.0001832   -0.0000753     0.1180133   -0.3042853 
   0.041760430     0.7530907   -0.4955010     0.0003301    0.0000595    -0.0001201   -0.0000389     0.1182027   -0.3034295 
   0.041860455     0.7491463   -0.5071501    -0.0003470    0.0000939    -0.0000880    0.0002095     0.1169765   -0.3032462 
   0.041960480     0.7385654   -0.5226282     0.0000685    0.0002458    -0.0001311    0.0000374     0.1162275   -0.3029480 
   0.042060505     0.7309071   -0.5199144     0.0000854   -0.0002785    -0.0002054    0.0000613     0.1163803   -0.3020247 
   0.042160530     0.7280037   -0.5376605     0.0000855    0.0004239    -0.0000561    0.0001192     0.1155276   -0.3019258 
   0.042260555     0.7142131   -0.5508945     0.0000051   -0.0001129    -0.0000645    0.0001246     0.1155904   -0.3016715 
   0.042360580     0.7106543   -0.5528570    -0.0000567   -0.0004082    -0.0000569    0.0001077     0.1146476   -0.3009498 
   0.042460605     0.7082959   -0.5662528    -0.0004512    0.0004320    -0.0000637    0.0002120     0.1146605   -0.3008296 
   0.042560630     0.7037354   -0.5757794     0.0000833    0.0005243    -0.0001684    0.0002233     0.1145361   -0.2994676 
   0.042660655     0.6908507   -0.5835995    -0.0001519   -0.0000369    -0.0002472    0.0000817     0.1138583   -0.2995765 
   0.042760680     0.6868272   -0.5881205    -0.0003810    0.0002082    -0.0001727    0.0000365     0.1135355   -0.2987137 
   0.042860705     0.6773674   -0.6001350    -0.0006732    0.0001508    -0.0000840    0.0001946     0.1131838   -0.2985073 
   0.042960730     0.6730500   -0.6099090    -0.0003235   -0.0003019    -0.0001647    0.0001560     0.1129155   -0.2978308 
   0.043060755     0.6682966   -0.6177974     0.0001138    0.0001371    -0.0002881   -0.0000127     0.1122796   -0.2971326 
   0.043160780     0.6549016   -0.6224202    -0.0002212   -0.0000703    -0.0001085    0.0002360     0.1120829   -0.2978410 
   0.043260805     0.6509563   -0.6342040    -0.0002299   -0.0000105    -0.0002143    0.0000791     0.1124686   -0.2965828 
   0.043360830     0.6482419   -0.6360855    -0.0000855    0.0003370    -0.0001221    0.0001936     0.1109870   -0.2959005 
   0.043460855     0.6332067   -0.6385826     0.0003456    0.0002865    -0.0002650    0.0000678     0.1109965   -0.2959493 
   0.043560880     0.6291067   -0.6502963    -0.0000476    0.0003686    -0.0001562    0.0002191     0.1103343   -0.2950963 
   0.043660905     0.6248516   -0.6556597     0.0000851   -0.0001174    -0.0000821    0.0001983     0.1095159   -0.2955267 
   0.043760930     0.6163433   -0.6642466     0.0000192   -0.0005225    -0.0000567    0.0002853     0.1097956   -0.2943372 
   0.043860955     0.6116923   -0.6666390    -0.0006665    0.0002859    -0.0001486    0.0000375     0.1091487   -0.2939784 
   0.043960980     0.5973203   -0.6728487     0.0001054   -0.0001947    -0.0002370    0.0001172     0.1090420   -0.2932867 
   0.044061006     0.5972540   -0.6749995    -0.0001838   -0.0001036    -0.0000331    0.0002535     0.1091501   -0.2933591 
   0.044161031     0.5914979   -0.6921177    -0.0002372    0.0001336    -0.0000771    0.0001284     0.1081830   -0.2926308 
   0.044261056     0.5796539   -0.6945813     0.0001916   -0.0000363    -0.0001490    0.0000321     0.1081944   -0.2923968 
   0.044361081     0.5750275   -0.6966249    -0.0004846    0.0001797    -0.0002531    0.0001719     0.1066347   -0.2916793 
   0.044461106     0.5659045   -0.7017145     0.0003160    0.0001893    -0.0001940    0.0002893     0.1069284   -0.2910427 
   0.044561131     0.5597832   -0.7137960     0.0001514    0.0000989    -0.0002456    0.0002293     0.1070794   -0.2906347 
   0.044661156     0.5524871   -0.7157682    -0.0006160    0.0002761    -0.0003489    0.0001618     0.1066582   -0.2915755 
   0.044761181     0.5413613   -0.7212544    -0.0004710    0.0001756    -0.0003268    0.0002552     0.1071045   -0.2907577 
   0.044861206     0.5381402   -0.7250538    -0.0000257   -0.0004714    -0.0001077    0.0002704     0.1064050   -0.2889677 
   0.044961231     0.5212662   -0.7310829     0.0004694   -0.0000029    -0.0003133    0.0000314     0.1042504   -0.2883515 
   0.045061256     0.5182525   -0.7375383     0.0002380    0.0004165    -0.0001918    0.0001775     0.1043630   -0.2887565 
   0.045161281     0.5083598   -0.7377523    -0.0006958   -0.0001237    -0.0001463    0.0002777     0.1044359   -0.2874184 
   0.045261306     0.5015229   -0.7454147    -0.0002579   -0.0005117    -0.0001066    0.0001013     0.1050216   -0.2887218 
   0.045361331     0.4947794   -0.7478271     0.0001207    0.0000687    -0.0001704    0.0002875     0.1040650   -0.2867898 
   0.045461356     0.4821742   -0.7511382    -0.0000215    0.0004341    -0.0002892    0.0003517     0.1038013   -0.2868529 
   0.045561381     0.4788704   -0.7561935    -0.0006591    0.0007345    -0.0000227    0.0002065     0.1034595   -0.2858217 
   0.045661406     0.4661146   -0.7628239    -0.0010014    0.0003536    -0.0002584    0.0002723     0.1031428   -0.2861553 
   0.045761431     0.4686814   -0.7663873    -0.0004381    0.0003782    -0.0003234    0.0000096     0.1023182   -0.2850516 
   0.045861456     0.4557832   -0.7660094    -0.0004685    0.0003665    -0.0003006    0.0000675     0.1024217   -0.2854518 
   0.045961481     0.4390180   -0.7673588    -0.0006572    0.0005850    -0.0002321    0.0001853     0.1025228   -0.2841111 
   0.046061506     0.4358648   -0.7756698    -0.0001507    0.0000843    -0.0001313    0.0001475     0.1019693   -0.2845154 
   0.046161531     0.4207110   -0.7803941     0.0001830   -0.0003878    -0.0001780    0.0003243     0.1012360   -0.2842063 
   0.046261556     0.4238405   -0.7779707    -0.0007715   -0.0005650    -0.0004431    0.0001128     0.1015253   -0.2837489 
   0.046361581     0.4144412   -0.7819352    -0.0004659    0.0007805    -0.0003128    0.0003260     0.1006393   -0.2831053 
   0.046461606     0.4031638   -0.7892044     0.0000457    0.0005643    -0.0001887    0.0002586     0.1012601   -0.2816494 
   0.046561631     0.3835915   -0.7889985     0.0001008    0.0002866    -0.0002113    0.0001711     0.1002986   -0.2814119 
   0.046661656     0.3839681   -0.8018319     0.0005403    0.0008613    -0.0002232    0.0003471     0.0990466   -0.2821300 
   0.046761681     0.3777060   -0.7886105    -0.0004751    0.0004353    -0.0002356    0.0005055     0.0984194   -0.2816569 
   0.046861706     0.3671698   -0.8037598    -0.0011212    0.0000885    -0.0004441    0.0000023     0.0996373   -0.2814146 
   0.046961731     0.3646133   -0.7947302    -0.0003492    0.0001869    -0.0004505    0.0001049     0.0997741   -0.2806133 
   0.047061756     0.3470648   -0.8039818    -0.0002536   -0.0000671    -0.0002862    0.0005339     0.0990869   -0.2805649 
   0.047161781     0.3486676   -0.8112603    -0.0003304    0.0003822    -0.0001677    0.0002357     0.0987935   -0.2798496 
   0.047261806     0.3386829   -0.8075807    -0.0004076    0.0002807    -0.0001587    0.0002341     0.0984627   -0.2790380 
   0.047361831     0.3292328   -0.8110350     0.0000329    0.0005412    -0.0003897    0.0002592     0.0975728   -0.2797518 
   0.047461856     0.3167175   -0.8094245    -0.0006756    0.0010134    -0.0002729    0.0002164     0.0976532   -0.2794752 
   0.047561881     0.3137677   -0.8140382    -0.0004304   -0.0001398    -0.0002721    0.0000717     0.0976158   -0.2777416 
   0.047661906     0.3004443   -0.8141274    -0.0000389   -0.0007926    -0.0006239    0.0002703     0.0970961   -0.2779457 
   0.047761931     0.2789676   -0.8181556     0.0000249    0.0000545    -0.0003411    0.0002486     0.0976594   -0.2770426 
   0.047861956     0.2826106   -0.8274353    -0.0006067    0.0015608    -0.0001909    0.0002233     0.0970785   -0.2767150 
   0.047961981     0.2649105   -0.8212032     0.0001276   -0.0003151    -0.0004258    0.0001363     0.0965908   -0.2758560 
   0.048062006     0.2561183   -0.8342707    -0.0000500    0.0008528    -0.0002936    0.0003153     0.0959264   -0.2758925 
   0.048162031     0.2434135   -0.8280180     0.0004207    0.0007517    -0.0002499    0.0004124     0.0953664   -0.2754830 
   0.048262056     0.2335863   -0.8306020    -0.0006858    0.0011063    -0.0003601    0.0001943     0.0950746   -0.2752110 
   0.048362081     0.2292330   -0.8279678    -0.0004287    0.0006338    -0.0002981    0.0006065     0.0956400   -0.2745140 
   0.048462106     0.2221313   -0.8233943    -0.0003616    0.0005407    -0.0003629    0.0005376     0.0946259   -0.2738973 
   0.048562131     0.2030797   -0.8270569    -0.0008929    0.0010368    -0.0004146    0.0005213     0.0952048   -0.2749043 
   0.048662156     0.1902205   -0.8281643     0.0000001   -0.0000566    -0.0002184    0.0000848     0.0947141   -0.2738514 
   0.048762181     0.1840903   -0.8274797     0.0001722    0.0001418    -0.0004213    0.0000427     0.0945102   -0.2733862 
   0.048862206     0.1729439   -0.8365045    -0.0001692   -0.0000084    -0.0005471    0.0003178     0.0936327   -0.2745857 
   0.048962231     0.1663281   -0.8383064    -0.0012286    0.0002457    -0.0000254    0.0001224     0.0934979   -0.2731667 
   0.049062256     0.1508025   -0.8298085     0.0000715    0.0005767    -0.0001144    0.0000097     0.0932894   -0.2722623 
   0.049162281     0.1435253   -0.8329322    -0.0001143    0.0006028    -0.0001165    0.0002573     0.0924299   -0.2717504 
   0.049262306     0.1319227   -0.8329769    -0.0000976   -0.0001168    -0.0000317    0.0003718     0.0926105   -0.2717427 
   0.049362331     0.1236438   -0.8264908    -0.0005230    0.0003990    -0.0001368    0.0001296     0.0933505   -0.2709828 
   0.049462356     0.1042574   -0.8315064     0.0000363   -0.0001139    -0.0001232    0.0004730     0.0915035   -0.2707148 
   0.049562381     0.0967282   -0.8260748    -0.0004354    0.0003106    -0.0004379   -0.0001322     0.0915440   -0.2707998 
   0.049662406     0.0811232   -0.8319138     0.0005765    0.0006270    -0.0004561    0.0004838     0.0920216   -0.2706977 
   0.049762431     0.0678613   -0.8310505    -0.0004689    0.0009844    -0.0002443    0.0008360     0.0908205   -0.2688797 
   0.049862456     0.0628817   -0.8299091    -0.0003802    0.0002574    -0.0000981    0.0003221     0.0905471   -0.2701357 
   0.049962481     0.0427979   -0.8301365     0.0000389    0.0006248    -0.0001537    0.0003110     0.0911601   -0.2690883 
   0.050062506     0.0381078   -0.8235949    -0.0006382    0.0007864    -0.0002495    0.0002231     0.0897153   -0.2685239 
   0.050162531     0.0220378   -0.8103136    -0.0002189    0.0003587    -0.0001074    0.0006335     0.0906770   -0.2680015 
   0.050262556     0.0094961   -0.8173542    -0.0003892    0.0000999    -0.0001128    0.0000978     0.0893519   -0.2676894 
   0.050362581    -0.0109554   -0.8130495     0.0002133    0.0007010    -0.0004342    0.0002757     0.0889640   -0.2680618 
   0.050462606    -0.0203278   -0.8092701     0.0003243    0.0015648    -0.0004610    0.0007151     0.0896365   -0.2668475 
   0.050562631    -0.0305793   -0.7940658     0.0000982    0.0012583    -0.0000866    0.0004036     0.0891309   -0.2667652 
   0.050662656    -0.0450009   -0.7970952     0.0007368    0.0003588    -0.0002643    0.0005384     0.0890085   -0.2661997 
   0.050762681    -0.0598586   -0.7951620    -0.0011283    0.0011412    -0.0000544    0.0007409     0.0884445   -0.2666865 
   0.050862706    -0.0676050   -0.8024718     0.0002796    0.0002112    -0.0005302    0.0005145     0.0874163   -0.2652586 
   0.050962731    -0.0821522   -0.7739414     0.0006782    0.0011351    -0.0003796    0.0002667     0.0882821   -0.2652899 
   0.051062756    -0.0913446   -0.7847643    -0.0008532   -0.0000396    -0.0002180    0.0003939     0.0878811   -0.2647478 
   0.051162781    -0.1151677   -0.7759647     0.0004066   -0.0006693    -0.0002610    0.0005886     0.0876031   -0.2652057 
   0.051262806    -0.1383533   -0.7720889    -0.0006295   -0.0002082    -0.0001699    0.0005551     0.0871288   -0.2645905 
   0.051362831    -0.1476774   -0.7587717    -0.0019051    0.0016470    -0.0002836    0.0004138     0.0866933   -0.2647667 
   0.051462856    -0.1594309   -0.7510620    -0.0005168    0.0017321    -0.0004978    0.0003698     0.0871541   -0.2632313 
   0.051562881    -0.1712317   -0.7482653     0.0003985    0.0007262    -0.0003849    0.0003240     0.0868575   -0.2635021 
   0.051662906    -0.1851768   -0.7431827    -0.0005147    0.0013769    -0.0001924    0.0002540     0.0859503   -0.2623721 
   0.051762931    -0.2053126   -0.7326869    -0.0000361    0.0013220    -0.0002401    0.0004395     0.0855705   -0.2633275 
   0.051862956    -0.2173421   -0.7195890    -0.0001807    0.0004097    -0.0003992    0.0005427     0.0866021   -0.2624333 
   0.051962981    -0.2343887   -0.7030478    -0.0003383    0.0004775    -0.0003390    0.0006467     0.0868626   -0.2622746 
   0.052063007    -0.2459257   -0.6929934    -0.0001998    0.0012453    -0.0001714    0.0007708     0.0845501   -0.2616834 
   0.052163032    -0.2564543   -0.6900485    -0.0002926    0.0001498    -0.0004232    0.0005256     0.0851091   -0.2608183 
   0.052263057    -0.2905064   -0.6789194    -0.0000631    0.0008893    -0.0003289    0.0003814     0.0849988   -0.2612531 
   0.052363082    -0.2920950   -0.6622275     0.0006486    0.0013351    -0.0002644    0.0007377     0.0845863   -0.2607657 
   0.052463107    -0.3109530   -0.6529413    -0.0002799    0.0016165    -0.0001811    0.0005275     0.0844214   -0.2602625 
   0.052563132    -0.3196955   -0.6233469    -0.0001924    0.0010328    -0.0002734    0.0009867     0.0848340   -0.2599403 
   0.052663157    -0.3386777   -0.6116143    -0.0000479    0.0007996    -0.0002417    0.0005956     0.0834700   -0.2596970 
   0.052763182    -0.3549256   -0.6022883     0.0007726    0.0006846    -0.0001810    0.0009767     0.0837415   -0.2585391 
   0.052863207    -0.3689425   -0.5859018    -0.0004362    0.0007157    -0.0001433    0.0004223     0.0837942   -0.2597425 
   0.052963232    -0.3803228   -0.5584267    -0.0001235    0.0008579    -0.0001970    0.0004751     0.0834094   -0.2582330 
   0.053063257    -0.4007853   -0.5434412    -0.0001493    0.0014343    -0.0000943    0.0006402     0.0831892   -0.2581117 
   0.053163282    -0.4121375   -0.5135861    -0.0000894    0.0014647    -0.0002269    0.0004885     0.0826982   -0.2579492 
   0.053263307    -0.4308993   -0.4953123    -0.0006696    0.0007990    -0.0002380    0.0004548     0.0834743   -0.2575742 
   0.053363332    -0.4323005   -0.4645251    -0.0006821    0.0009974    -0.0003270    0.0003148     0.0810526   -0.2565915 
   0.053463357    -0.4519094   -0.4463892    -0.0006687    0.0017806     0.0000249    0.0005622     0.0829488   -0.2568270 
   0.053563382    -0.4616408   -0.4302677     0.0007146    0.0014052    -0.0000811    0.0004494     0.0813994   -0.2571926 
   0.053663407    -0.4739098   -0.3987960    -0.0003217    0.0002037    -0.0000760    0.0009119     0.0819362   -0.2559932 
   0.053763432    -0.4818694   -0.3655529    -0.0004046   -0.0003606    -0.0002837    0.0004132     0.0819598   -0.2562199 
   0.053863457    -0.4904005   -0.3321493    -0.0002362    0.0004500    -0.0000937    0.0004745     0.0809579   -0.2563372 
   0.053963482    -0.5026116   -0.2992562     0.0003944    0.0005384    -0.0000285    0.0006800     0.0809617   -0.2556033 
   0.054063507    -0.5087879   -0.2689431     0.0005555    0.0007340    -0.0000492    0.0008527     0.0807602   -0.2546626 
   0.054163532    -0.5052827   -0.2372224     0.0006358    0.0008493     0.0000922    0.0006722     0.0806468   -0.2539493 
   0.054263557    -0.5194576   -0.1950706     0.0004145    0.0005817    -0.0000176    0.0009319     0.0801280   -0.2544925 
   0.054363582    -0.5126786   -0.1616056    -0.0008341    0.0003277     0.0000008    0.0007485     0.0802111   -0.2543014 
   0.054463607    -0.5136949   -0.1326309    -0.0001300    0.0002936     0.0000502    0.0009494     0.0803197   -0.2535908 
   0.054563632    -0.5139960   -0.0906134    -0.0002612    0.0008237     0.0000323    0.0005614     0.0801407   -0.2537668 
   0.054663657    -0.5041300   -0.0547835     0.0018476    0.0006643    -0.0000617    0.0006866     0.0792587   -0.2534908 
   0.054763682    -0.4948298   -0.0088220    -0.0000516    0.0003264     0.0003151    0.0008196     0.0787420   -0.2532411 
   0.054863707    -0.4886211    0.0224391     0.0010728    0.0001742     0.0001731    0.0002918     0.0806521   -0.2527847 
   0.054963732    -0.4727851    0.0660280     0.0003971    0.0010086     0.0001776    0.0007301     0.0795529   -0.2522689 
   0.055063757    -0.4496707    0.1115825     0.0001734   -0.0000036     0.0003150    0.0007584     0.0785739   -0.2529709 
   0.055163782    -0.4341220    0.1497397    -0.0002601    0.0004094     0.0000224    0.0008543     0.0788389   -0.2512114 
   0.055263807    -0.4096087    0.1874998     0.0006365    0.0007060     0.0000794    0.0008656     0.0785261   -0.2513095 
   0.055363832    -0.3942657    0.2252472    -0.0001469    0.0012722    -0.0001228    0.0003569     0.0783327   -0.2516164 
   0.055463857    -0.3577702    0.2633847     0.0004115    0.0009858     0.0005945    0.0005999     0.0776802   -0.2510672 
   0.055563882    -0.3238279    0.2978570    -0.0007518    0.0013784     0.0001727    0.0007726     0.0773700   -0.2499737 
   0.055663907    -0.2948504    0.3222999    -0.0001659    0.0002129     0.0002278    0.0005990     0.0778807   -0.2510021 
   0.055763932    -0.2574058    0.3558507     0.0006230    0.0004573     0.0001620    0.0005607     0.0775033   -0.2496340 
   0.055863957    -0.2129213    0.3846200     0.0008500    0.0004989     0.0002236    0.0004334     0.0774641   -0.2501709 
   0.055963982    -0.1729397    0.4131645     0.0002264    0.0003112     0.0002162    0.0005493     0.0770482   -0.2497243 
   0.056064007    -0.1349461    0.4369489    -0.0000266    0.0009179     0.0004643    0.0006465     0.0758474   -0.2491218 
   0.056164032    -0.0877549    0.4551008     0.0004359    0.0005332     0.0002866    0.0007154     0.0766643   -0.2492167 
   0.056264057    -0.0332703    0.4709485     0.0006595    0.0001250     0.0004215    0.0003974     0.0761386   -0.2481030 
   0.056364082     0.0112138    0.4789377     0.0003302    0.0004987     0.0003286    0.0006364     0.0759871   -0.2484983 
   0.056464107     0.0608214    0.4900168     0.0001755    0.0005938     0.0002803    0.0004073     0.0757673   -0.2483539 
   0.056564132     0.1062476    0.4918891     0.0004183   -0.0000267     0.0003697    0.0004259     0.0761279   -0.2470990 
   0.056664157     0.1574271    0.4881912     0.0005172    0.0005817     0.0002193    0.0003910     0.0751521   -0.2472722 
   0.056764182     0.2030936    0.4923248     0.0002553    0.0002489     0.0003050    0.0004028     0.0755058   -0.2475197 
   0.056864207     0.2535315    0.4816103     0.0006540    0.0001794     0.0004161    0.0003530     0.0751413   -0.2467294 
   0.056964232     0.3014879    0.4770496     0.0006743    0.0004481     0.0002713    0.0004319     0.0745894   -0.2472529 
   0.057064257     0.3438214    0.4662456     0.0005240    0.0006077     0.0002502    0.0002732     0.0742797   -0.2457185 
   0.057164282     0.3846008    0.4496534     0.0000572    0.0002986     0.0003244    0.0003569     0.0739604   -0.2455890 
   0.057264307     0.4271914    0.4244491     0.0002003    0.0001852     0.0001916    0.0001260     0.0741918   -0.2457240 
   0.057364332     0.4677571    0.4089721     0.0006521    0.0001244     0.0004461    0.0003932     0.0743144   -0.2454266 
   0.057464357     0.5019876    0.3916115     0.0001224    0.0000273     0.0002303    0.0001804     0.0740443   -0.2448075 
   0.057564382     0.5351766    0.3643045     0.0002625    0.0005668     0.0004339    0.0001867     0.0731226   -0.2447120 
   0.057664407     0.5705238    0.3394116     0.0002633    0.0006854     0.0003007    0.0002354     0.0741244   -0.2442570 
   0.057764432     0.5971274    0.3098174     0.0002991    0.0002231     0.0002291    0.0003397     0.0734624   -0.2431881 
   0.057864457     0.6270308    0.2867655     0.0000387    0.0004864     0.0001047    0.0001647     0.0741875   -0.2442690 
   0.057964482     0.6494862    0.2546098     0.0003256    0.0005340     0.0001446    0.0002280     0.0728535   -0.2436568 
   0.058064507     0.6711151    0.2216505     0.0002455   -0.0000826     0.0002020    0.0002940     0.0729974   -0.2431626 
   0.058164532     0.6933416    0.1950450     0.0001933    0.0000689     0.0001483    0.0002508     0.0722930   -0.2433631 
   0.058264557     0.7116505    0.1645574     0.0002668   -0.0000740     0.0001291    0.0000349     0.0727082   -0.2426401 
   0.058364582     0.7279269    0.1390316    -0.0000717   -0.0000366     0.0001122    0.0003388     0.0722670   -0.2418444 
   0.058464607     0.7425344    0.1090133     0.0004123    0.0000459     0.0000972    0.0003836     0.0717283   -0.2417067 
   0.058564632     0.7529795    0.0736105    -0.0001298   -0.0000564     0.0001985    0.0001317     0.0726430   -0.2416522 
   0.058664657     0.7679015    0.0468550     0.0004693   -0.0001295    -0.0000773    0.0002701     0.0719011   -0.2408256 
   0.058764682     0.7691041    0.0191817     0.0003344   -0.0001182     0.0000988    0.0002104     0.0712639   -0.2412558 
   0.058864707     0.7851830   -0.0115018    -0.0000687   -0.0000541     0.0001220    0.0001184     0.0718117   -0.2411994 
   0.058964732     0.7873648   -0.0408711     0.0005846    0.0003549     0.0000825    0.0002262     0.0715368   -0.2410170 
   0.059064757     0.7982135   -0.0663709    -0.0000404   -0.0000814     0.0000608    0.0000950     0.0719225   -0.2419486 
   0.059164782     0.7949638   -0.0872714    -0.0003228    0.0002918    -0.0000107    0.0001528     0.0704260   -0.2405428 
   0.059264807     0.7973009   -0.1193802     0.0005844   -0.0001175     0.0000109    0.0001972     0.0711428   -0.2399921 
   0.059364832     0.7960804   -0.1489573     0.0001664    0.0004027     0.0001462    0.0002958     0.0701460   -0.2404820 
   0.059464857     0.7989889   -0.1650167     0.0007487    0.0008272     0.0002517   -0.0001272     0.0699739   -0.2398411 
   0.059564882     0.8035907   -0.2001877     0.0002719   -0.0006012    -0.0000257    0.0003044     0.0706726   -0.2391907 
   0.059664907     0.8023527   -0.2188067    -0.0002612   -0.0001839     0.0000883    0.0000511     0.0690662   -0.2396248 
   0.059764932     0.7961561   -0.2439413     0.0003216    0.0005888    -0.0000353   -0.0000898     0.0692837   -0.2392866 
   0.059864957     0.7962520   -0.2604421     0.0001625   -0.0003666    -0.0000145    0.0001104     0.0690880   -0.2387330 
   0.059964982     0.7930325   -0.2865670     0.0004945   -0.0005103    -0.0001276    0.0000049     0.0692395   -0.2387937 
   0.060065008     0.7828975   -0.3079566    -0.0003601    0.0005710     0.0000035    0.0003226     0.0677691   -0.2378368 
   0.060165033     0.7736191   -0.3293686    -0.0000904   -0.0004945    -0.0000407    0.0000568     0.0690658   -0.2384345 
   0.060265058     0.7718148   -0.3438303    -0.0001071    0.0007917    -0.0000538    0.0002235     0.0685431   -0.2370570 
   0.060365083     0.7700838   -0.3684281     0.0001785    0.0002649    -0.0000096    0.0001417     0.0686808   -0.2364575 
   0.060465108     0.7669467   -0.3840417    -0.0001135    0.0000025    -0.0003352    0.0001916     0.0679251   -0.2371316 
   0.060565133     0.7477636   -0.4023989    -0.0004153    0.0001773    -0.0002266    0.0000774     0.0679597   -0.2379380 
   0.060665158     0.7500527   -0.4219545     0.0003124   -0.0004957    -0.0001808    0.0002930     0.0681600   -0.2364715 
   0.060765183     0.7480518   -0.4332273    -0.0001216   -0.0002907    -0.0002163    0.0003655     0.0675509   -0.2360009 
   0.060865208     0.7352339   -0.4551693     0.0006483   -0.0000205    -0.0001262    0.0005546     0.0674788   -0.2350820 
   0.060965233     0.7247116   -0.4656696    -0.0004595   -0.0001872    -0.0003498    0.0004384     0.0674292   -0.2358514 
   0.061065258     0.7223869   -0.4792636     0.0004229    0.0000691     0.0003982    0.0002655     0.0676959   -0.2357350 
   0.061165283     0.7065433   -0.4934700     0.0011341    0.0001172     0.0000233    0.0000821     0.0673450   -0.2348931 
   0.061265308     0.6939638   -0.5068078    -0.0008146    0.0006973     0.0000355    0.0002018     0.0674669   -0.2346213 
   0.061365333     0.6922835   -0.5251159    -0.0010597   -0.0001395    -0.0001512    0.0001415     0.0671878   -0.2356061 
   0.061465358     0.6789681   -0.5440113    -0.0008247    0.0000189    -0.0002156    0.0003034     0.0669047   -0.2342029 
   0.061565383     0.6670963   -0.5491054     0.0003621    0.0006650    -0.0000608    0.0002818     0.0674084   -0.2337081 
   0.061665408     0.6634254   -0.5710530     0.0001057    0.0004685    -0.0001368    0.0001837     0.0665250   -0.2349202 
   0.061765433     0.6537035   -0.5836740    -0.0000863    0.0006004    -0.0001265    0.0004686     0.0663143   -0.2338008 
   0.061865458     0.6483480   -0.5838284    -0.0001854    0.0003781    -0.0000594    0.0001890     0.0656635   -0.2333332 
   0.061965483     0.6351072   -0.5879057     0.0002892    0.0001917    -0.0001312    0.0001571     0.0670052   -0.2340230 
   0.062065508     0.6190092   -0.6044276    -0.0005261   -0.0003263    -0.0000097    0.0001031     0.0660451   -0.2320972 
   0.062165533     0.6046703   -0.6176785    -0.0006333    0.0003478    -0.0000681   -0.0001858     0.0663607   -0.2322988 
   0.062265558     0.6035678   -0.6355796     0.0001976    0.0009204     0.0000015    0.0003555     0.0652620   -0.2328884 
   0.062365583     0.5998096   -0.6418910     0.0002264    0.0003943    -0.0001682    0.0000627     0.0646948   -0.2326050 
   0.062465608     0.5925329   -0.6535261    -0.0010001    0.0003791    -0.0001186    0.0001897     0.0656083   -0.2324195 
   0.062565633     0.5714372   -0.6612133     0.0000118    0.0000310    -0.0001389    0.0003847     0.0649714   -0.2322947 
   0.062665658     0.5653101   -0.6600150    -0.0002263    0.0002392    -0.0002088    0.0001527     0.0643846   -0.2323551 
   0.062765683     0.5578936   -0.6717792    -0.0000375   -0.0004094    -0.0001034    0.0001801     0.0647223   -0.2314927 
   0.062865708     0.5485767   -0.6797207     0.0004732    0.0005956     0.0002326    0.0004389     0.0641315   -0.2327076 
   0.062965733     0.5441704   -0.6869749    -0.0003647   -0.0005704    -0.0001198    0.0001388     0.0641235   -0.2314660 
   0.063065758     0.5299311   -0.6920220     0.0002475    0.0007002    -0.0000716    0.0000189     0.0641073   -0.2307990 
   0.063165783     0.5162392   -0.7033720     0.0001277    0.0003685    -0.0000909    0.0000433     0.0642515   -0.2302618 
   0.063265808     0.5027969   -0.7031995    -0.0011812    0.0003489    -0.0003576    0.0000103     0.0632445   -0.2301436 
   0.063365833     0.4866546   -0.7246962    -0.0000428    0.0006922    -0.0002117    0.0005340     0.0634811   -0.2298891 
   0.063465858     0.4858376   -0.7216430    -0.0006870   -0.0001442    -0.0003194    0.0002509     0.0631324   -0.2298511 
   0.063565883     0.4817001   -0.7298049     0.0001060    0.0004843    -0.0000670    0.0003155     0.0634965   -0.2295377 
   0.063665908     0.4552378   -0.7362655    -0.0003544    0.0004723    -0.0001959    0.0002713     0.0627593   -0.2289928 
   0.063765933     0.4484480   -0.7358295     0.0004977    0.0003966    -0.0001402    0.0001083     0.0630449   -0.2296029 
   0.063865958     0.4401322   -0.7525924    -0.0007378    0.0001980     0.0000222   -0.0001327     0.0629889   -0.2287497 
   0.063965983     0.4309115   -0.7471989    -0.0006168   -0.0002257     0.0003205    0.0003547     0.0630505   -0.2270483 
   0.064066008     0.4232486   -0.7600624    -0.0001752    0.0006002     0.0001645    0.0004374     0.0628112   -0.2286244 
   0.064166033     0.4067708   -0.7652972    -0.0001852    0.0002231     0.0000377    0.0004876     0.0622455   -0.2281512 
   0.064266058     0.3959012   -0.7690539     0.0003985    0.0001333    -0.0003590    0.0001661     0.0619320   -0.2279900 
   0.064366083     0.3937351   -0.7679133    -0.0002818    0.0001053    -0.0006219    0.0006636     0.0618045   -0.2273259 
   0.064466108     0.3817784   -0.7697902    -0.0007325   -0.0007181    -0.0004705    0.0002780     0.0621797   -0.2273146 
   0.064566133     0.3719889   -0.7818394    -0.0011223    0.0005297    -0.0004527    0.0003725     0.0630523   -0.2269295 
   0.064666158     0.3504060   -0.7862941    -0.0002382    0.0006876    -0.0003451    0.0004370     0.0610741   -0.2265901 
   0.064766183     0.3439631   -0.7811957    -0.0016407    0.0002054    -0.0004922    0.0005256     0.0619551   -0.2271464 
   0.064866208     0.3436643   -0.7944043    -0.0005414    0.0008089    -0.0001022    0.0005809     0.0622894   -0.2269606 
   0.064966233     0.3259699   -0.7922345    -0.0007206    0.0014027    -0.0005262    0.0008250     0.0611683   -0.2260503 
   0.065066258     0.3176816   -0.8118488    -0.0006805   -0.0003989    -0.0004436    0.0003522     0.0609908   -0.2266972 
   0.065166283     0.2969420   -0.7987503     0.0004811    0.0006830    -0.0003666    0.0004450     0.0605042   -0.2257998 
   0.065266308     0.2944284   -0.7984199    -0.0008286    0.0001767    -0.0003340    0.0002877     0.0614660   -0.2260188 
   0.065366333     0.2822718   -0.8029593    -0.0009385    0.0003406    -0.0004778    0.0006212     0.0612669   -0.2251028 
   0.065466358     0.2756868   -0.8093141     0.0001679    0.0000177     0.0000143    0.0004391     0.0601126   -0.2256277 
   0.065566383     0.2602492   -0.8115678    -0.0009681    0.0017024    -0.0002457    0.0003213     0.0597228   -0.2256449 
   0.065666408     0.2436391   -0.8137115    -0.0003131    0.0007385     0.0002521    0.0004518     0.0603375   -0.2246519 
   0.065766433     0.2525957   -0.8170126     0.0013297    0.0000967    -0.0005557    0.0005106     0.0606221   -0.2244530 
   0.065866458     0.2232860   -0.8213780    -0.0000137    0.0006379    -0.0000903    0.0008730     0.0600830   -0.2251887 
   0.065966483     0.2229536   -0.8158333    -0.0000638    0.0010264    -0.0001598    0.0004843     0.0598620   -0.2237941 
   0.066066508     0.1938118   -0.8211471     0.0000902   -0.0001563    -0.0000911    0.0004466     0.0596004   -0.2243446 
   0.066166533     0.2019041   -0.8198875    -0.0003714    0.0000528    -0.0001225    0.0005238     0.0584076   -0.2247955 
   0.066266558     0.1829805   -0.8279316    -0.0002699    0.0003962     0.0000100    0.0004774     0.0597506   -0.2233276 
   0.066366583     0.1714210   -0.8258073    -0.0009369    0.0008788     0.0000581    0.0002737     0.0599821   -0.2231844 
   0.066466608     0.1739212   -0.8265206     0.0001344    0.0000311    -0.0001880    0.0005368     0.0594187   -0.2226353 
   0.066566633     0.1491967   -0.8283904     0.0000476   -0.0002781    -0.0003936    0.0006118     0.0576305   -0.2230942 
   0.066666658     0.1463128   -0.8214061    -0.0014736    0.0008755    -0.0003577    0.0008933     0.0583222   -0.2220411 
   0.066766683     0.1427692   -0.8244926    -0.0006494    0.0003627    -0.0005470    0.0007679     0.0587714   -0.2226729 
   0.066866708     0.1284563   -0.8208931    -0.0005192    0.0007906    -0.0000680    0.0007785     0.0588439   -0.2223638 
   0.066966733     0.1003894   -0.8232946    -0.0012381    0.0009500    -0.0003034    0.0006260     0.0590411   -0.2213832 
   0.067066758     0.0984821   -0.8280193     0.0000869    0.0004520    -0.0002600    0.0007416     0.0582171   -0.2220232 
   0.067166783     0.0809485   -0.8354838    -0.0001926    0.0007417     0.0002727    0.0005761     0.0568436   -0.2217627 
   0.067266808     0.0670164   -0.8249928    -0.0002458   -0.0002494    -0.0002084    0.0005278     0.0582432   -0.2213887 
   0.067366833     0.0631422   -0.8234753     0.0003923    0.0007588     0.0002324    0.0006300     0.0579459   -0.2211712 
   0.067466858     0.0498954   -0.8308023    -0.0009130    0.0010404    -0.0002634    0.0007919     0.0582116   -0.2208123 
   0.067566883     0.0278593   -0.8298435     0.0004130    0.0005576    -0.0003184    0.0008219     0.0573019   -0.2205635 
   0.067666908     0.0318995   -0.8185440    -0.0002437    0.0004020    -0.0003594    0.0007544     0.0576412   -0.2218589 
   0.067766933     0.0180940   -0.8181270    -0.0006751    0.0005116    -0.0003637    0.0007936     0.0574330   -0.2203503 
   0.067866958     0.0085617   -0.8224711     0.0001013    0.0000513    -0.0005766    0.0005736     0.0576006   -0.2197677 
   0.067966983    -0.0014701   -0.8134252     0.0003667   -0.0005150    -0.0003914    0.0005937     0.0573021   -0.2196192 
   0.068067009    -0.0271641   -0.8068635    -0.0002643    0.0011131    -0.0001548    0.0007872     0.0557908   -0.2200501 
   0.068167034    -0.0435150   -0.8067207    -0.0001651    0.0014524    -0.0002358    0.0003466     0.0558875   -0.2198446 
   0.068267059    -0.0432713   -0.8061832    -0.0000820    0.0005523     0.0000049    0.0007848     0.0573547   -0.2199300 
   0.068367084    -0.0576987   -0.8035370    -0.0003160    0.0007658    -0.0000346    0.0007557     0.0566222   -0.2192388 
   0.068467109    -0.0687679   -0.8029184     0.0002554    0.0005828    -0.0001650    0.0007121     0.0560222   -0.2191834 
   0.068567134    -0.0788619   -0.7957680    -0.0002987    0.0002436     0.0000506    0.0006614     0.0561974   -0.2187072 
   0.068667159    -0.0856849   -0.7912384    -0.0001097    0.0005044    -0.0004406    0.0007482     0.0559796   -0.2191427 
   0.068767184    -0.0989162   -0.7882732    -0.0004425    0.0004234    -0.0001625    0.0005219     0.0563848   -0.2187831 
   0.068867209    -0.1188176   -0.7803830    -0.0009111    0.0004257    -0.0002769    0.0006859     0.0572782   -0.2178078 
   0.068967234    -0.1218131   -0.7753083    -0.0003463    0.0006991    -0.0003310    0.0003774     0.0559743   -0.2183560 
   0.069067259    -0.1368547   -0.7736937     0.0004247    0.0008811     0.0000427    0.0004462     0.0557076   -0.2183130 
   0.069167284    -0.1454598   -0.7717377    -0.0006286    0.0014415    -0.0002902    0.0007508     0.0562426   -0.2177972 
   0.069267309    -0.1658484   -0.7576290    -0.0003482    0.0011097    -0.0003024    0.0005286     0.0561494   -0.2184719 
   0.069367334    -0.1714294   -0.7545994     0.0003160    0.0002321    -0.0000428    0.0005849     0.0555016   -0.2170356 
   0.069467359    -0.1934088   -0.7456688    -0.0003051    0.0001311    -0.0001575    0.0004927     0.0553383   -0.2172413 
   0.069567384    -0.2064579   -0.7413189    -0.0006165    0.0004531    -0.0002048    0.0006521     0.0542591   -0.2171776 
   0.069667409    -0.2204046   -0.7247444     0.0003584    0.0008174    -0.0002244    0.0005458     0.0543870   -0.2157334 
   0.069767434    -0.2243109   -0.7195915    -0.0003711    0.0001254    -0.0000739    0.0005972     0.0547857   -0.2158658 
   0.069867459    -0.2380730   -0.7207298    -0.0001446    0.0009469    -0.0002445    0.0006548     0.0543739   -0.2167879 
   0.069967484    -0.2464404   -0.7171786     0.0001394    0.0004264    -0.0001670    0.0008260     0.0550766   -0.2170114 
   0.070067509    -0.2554380   -0.6943029    -0.0003694    0.0007467    -0.0000690    0.0008549     0.0542533   -0.2159751 
   0.070167534    -0.2700806   -0.6971129    -0.0000935    0.0011012    -0.0002017    0.0008324     0.0543745   -0.2154194 
   0.070267559    -0.2909673   -0.6792445    -0.0006589    0.0006131    -0.0001110    0.0009189     0.0543072   -0.2158467 
   0.070367584    -0.2971322   -0.6760210    -0.0003694    0.0010929     0.0000436    0.0006130     0.0544869   -0.2160810 
   0.070467609    -0.3072891   -0.6636568    -0.0001704    0.0014034    -0.0001742    0.0008998     0.0537526   -0.2155121 
   0.070567634    -0.3169923   -0.6526056    -0.0005899    0.0001233     0.0000038    0.0003918     0.0528723   -0.2151714 
   0.070667659    -0.3349299   -0.6404810    -0.0000196    0.0011392    -0.0002173    0.0008126     0.0531002   -0.2140646 
   0.070767684    -0.3432325   -0.6306643     0.0000849    0.0013260    -0.0000214    0.0008556     0.0526458   -0.2146483 
   0.070867709    -0.3680053   -0.6207771     0.0000679    0.0010275    -0.0002227    0.0007734     0.0528657   -0.2140769 
   0.070967734    -0.3730882   -0.6121843    -0.0003771    0.0009380    -0.0000272    0.0007138     0.0527527   -0.2139681 
   0.071067759    -0.3887411   -0.5965998     0.0000879    0.0007385    -0.0001566    0.0006414     0.0536556   -0.2135023 
   0.071167784    -0.3982385   -0.5759237    -0.0004529    0.0007589     0.0000192    0.0007132     0.0533296   -0.2140543 
   0.071267809    -0.4049089   -0.5734822    -0.0002995    0.0004959     0.0000840    0.0005504     0.0523420   -0.2140221 
   0.071367834    -0.4200590   -0.5535702     0.0002907    0.0008612    -0.0002406    0.0008607     0.0522738   -0.2133181 
   0.071467859    -0.4313249   -0.5317627     0.0005406    0.0010986    -0.0000171    0.0007676     0.0524003   -0.2130018 
   0.071567884    -0.4354947   -0.5179119    -0.0004992    0.0007354    -0.0000255    0.0009014     0.0524087   -0.2136050 
   0.071667909    -0.4498348   -0.5071351    -0.0006546    0.0005132    -0.0000647    0.0005922     0.0515778   -0.2138751 
   0.071767934    -0.4610517   -0.4827974    -0.0003495    0.0012663     0.0000797    0.0008061     0.0515331   -0.2128966 
   0.071867959    -0.4703187   -0.4688546    -0.0003182    0.0007041    -0.0000973    0.0006329     0.0520051   -0.2128777 
   0.071967984    -0.4762366   -0.4550121     0.0001575    0.0007669    -0.0001975    0.0010917     0.0517147   -0.2125821 
   0.072068009    -0.4890224   -0.4371672     0.0007639    0.0010053    -0.0003064    0.0009326     0.0519984   -0.2122847 
   0.072168034    -0.5011313   -0.4084796    -0.0003716    0.0008136     0.0000301    0.0006393     0.0514340   -0.2125995 
   0.072268059    -0.5036899   -0.3973492    -0.0005966    0.0010156     0.0000562    0.0010258     0.0513570   -0.2120896 
   0.072368084    -0.5124322   -0.3763748     0.0006285    0.0009453    -0.0002291    0.0010964     0.0501672   -0.2115944 
   0.072468109    -0.5194150   -0.3527341    -0.0000782    0.0010921     0.0001801    0.0007880     0.0516237   -0.2121370 
   0.072568134    -0.5301015   -0.3346338     0.0000250    0.0007812     0.0000729    0.0009331     0.0518702   -0.2113302 
   0.072668159    -0.5344315   -0.3090466     0.0001822    0.0012439     0.0002059    0.0008112     0.0505650   -0.2115201 
   0.072768184    -0.5376084   -0.2855956     0.0002564    0.0009392     0.0000487    0.0009100     0.0507048   -0.2115195 
   0.072868209    -0.5415778   -0.2556220     0.0001339    0.0004213     0.0000618    0.0010167     0.0505016   -0.2103765 
   0.072968234    -0.5482624   -0.2345161    -0.0002740    0.0004133     0.0002586    0.0007813     0.0507726   -0.2114328 
   0.073068259    -0.5458682   -0.2086489     0.0004098    0.0004616     0.0002556    0.0009383     0.0501880   -0.2117591 
   0.073168284    -0.5504022   -0.1793623    -0.0000975    0.0004097     0.0001545    0.0009364     0.0502407   -0.2100729 
   0.073268309    -0.5522251   -0.1518649     0.0003666    0.0005397     0.0000955    0.0007392     0.0501120   -0.2108141 
   0.073368334    -0.5514831   -0.1274882     0.0005550    0.0011274     0.0003207    0.0006539     0.0501923   -0.2101687 
   0.073468359    -0.5463595   -0.1003326    -0.0001529    0.0010819     0.0004463    0.0008924     0.0498481   -0.2100419 
   0.073568384    -0.5452176   -0.0703835     0.0001626    0.0012111     0.0002109    0.0006070     0.0492450   -0.2102695 
   0.073668409    -0.5379201   -0.0412828     0.0004270    0.0002627     0.0002211    0.0009503     0.0504312   -0.2102600 
   0.073768434    -0.5335563   -0.0088711     0.0005632    0.0009489     0.0001988    0.0009226     0.0495138   -0.2093320 
   0.073868459    -0.5259358    0.0190253     0.0004951    0.0006132     0.0003280    0.0008858     0.0493723   -0.2090584 
   0.073968484    -0.5190813    0.0498985     0.0001841    0.0009334     0.0003130    0.0007062     0.0499542   -0.2091539 
   0.074068509    -0.5069171    0.0788000    -0.0001263    0.0008911     0.0003972    0.0006863     0.0487608   -0.2092456 
   0.074168534    -0.4938371    0.1099633     0.0002749    0.0010335     0.0004384    0.0008886     0.0494408   -0.2094469 
   0.074268559    -0.4824028    0.1391986     0.0003850    0.0010960     0.0003303    0.0009595     0.0478707   -0.2085538 
   0.074368584    -0.4668196    0.1668985     0.0005971    0.0007678     0.0003922    0.0008513     0.0491673   -0.2085508 
   0.074468609    -0.4489554    0.1974933     0.0004809    0.0005557     0.0004226    0.0007996     0.0486988   -0.2083792 
   0.074568634    -0.4276564    0.2289184     0.0005032    0.0009463     0.0003092    0.0008036     0.0490524   -0.2077329 
   0.074668659    -0.4086426    0.2536592     0.0003835    0.0006541     0.0004633    0.0008354     0.0486702   -0.2077327 
   0.074768684    -0.3847052    0.2826133     0.0003571    0.0006904     0.0005242    0.0007681     0.0477913   -0.2080843 
   0.074868709    -0.3595284    0.3118379     0.0002526    0.0007481     0.0004101    0.0006995     0.0484000   -0.2084358 
   0.074968734    -0.3312860    0.3351715     0.0004098    0.0004614     0.0005016    0.0006898     0.0477329   -0.2075508 
   0.075068759    -0.3040308    0.3604006     0.0003993    0.0007142     0.0004367    0.0006719     0.0474345   -0.2070218 
   0.075168784    -0.2744133    0.3822081     0.0008078    0.0005438     0.0004529    0.0007747     0.0477480   -0.2065032 
   0.075268809    -0.2431821    0.4036041     0.0005515    0.0012285     0.0004530    0.0007484     0.0484640   -0.2072761 
   0.075368834    -0.2109581    0.4249087     0.0004022    0.0010329     0.0004971    0.0005707     0.0479536   -0.2067758 
   0.075468859    -0.1723539    0.4429452     0.0000393    0.0007068     0.0005154    0.0006347     0.0473447   -0.2060696 
   0.075568884    -0.1365199    0.4560986     0.0004945    0.0003394     0.0004620    0.0006298     0.0469558   -0.2066183 
   0.075668909    -0.0986643    0.4718315     0.0003991    0.0009868     0.0005050    0.0004328     0.0466123   -0.2060917 
   0.075768934    -0.0622433    0.4815888     0.0003964    0.0006133     0.0004903    0.0004840     0.0470604   -0.2063646 
   0.075868959    -0.0217461    0.4941212     0.0003822    0.0004282     0.0006362    0.0005344     0.0465910   -0.2062884 
   0.075968984     0.0143995    0.4977183     0.0001987    0.0003634     0.0004236    0.0004222     0.0467873   -0.2058664 
   0.076069010     0.0590843    0.5045522     0.0008832    0.0005593     0.0005508    0.0005228     0.0469897   -0.2060536 
   0.076169035     0.0976116    0.5098438     0.0006301    0.0005158     0.0004567    0.0003813     0.0459541   -0.2056699 
   0.076269060     0.1387854    0.5076881    -0.0000377    0.0004978     0.0004311    0.0005025     0.0464964   -0.2055290 
   0.076369085     0.1796495    0.5053495     0.0006696    0.0006070     0.0005444    0.0004788     0.0462441   -0.2061039 
   0.076469110     0.2208434    0.4971530     0.0007950    0.0002032     0.0003297    0.0004162     0.0457157   -0.2051184 
   0.076569135     0.2597761    0.4898931     0.0003968   -0.0001381     0.0005610    0.0003276     0.0461453   -0.2052323 
   0.076669160     0.2964194    0.4783963     0.0005342    0.0005865     0.0002951    0.0004252     0.0459620   -0.2058187 
   0.076769185     0.3343607    0.4658878     0.0007840    0.0010372     0.0005222    0.0004390     0.0463428   -0.2044751 
   0.076869210     0.3705581    0.4540108     0.0003945    0.0008425     0.0003772    0.0003883     0.0465926   -0.2048678 
   0.076969235     0.4061883    0.4340133     0.0005923    0.0003114     0.0005775    0.0002076     0.0457574   -0.2045777 
   0.077069260     0.4363136    0.4182099     0.0007385   -0.0000232     0.0007761    0.0002755     0.0455467   -0.2047038 
   0.077169285     0.4703305    0.3970134     0.0004668   -0.0000727     0.0001462    0.0003840     0.0454323   -0.2050726 
   0.077269310     0.4974973    0.3715746     0.0008466   -0.0004992     0.0002753    0.0003499     0.0454111   -0.2039046 
   0.077369335     0.5302463    0.3524165     0.0000293    0.0003044     0.0005221    0.0003464     0.0454650   -0.2044392 
   0.077469360     0.5532793    0.3289701     0.0001359    0.0002022     0.0004375    0.0002628     0.0448343   -0.2035652 
   0.077569385     0.5854662    0.3045738     0.0005603    0.0005409     0.0003528   -0.0000182     0.0451810   -0.2036507 
   0.077669410     0.6062133    0.2806503     0.0002098    0.0004066     0.0003336    0.0003169     0.0447569   -0.2042348 
   0.077769435     0.6308748    0.2454588     0.0010730   -0.0001217     0.0001114    0.0002952     0.0454690   -0.2038804 
   0.077869460     0.6542172    0.2159145     0.0003536    0.0001601     0.0005368    0.0001513     0.0449333   -0.2031530 
   0.077969485     0.6675937    0.1931757    -0.0005049    0.0003072     0.0002806    0.0002576     0.0445762   -0.2028227 
   0.078069510     0.6896460    0.1603842     0.0004073   -0.0002979     0.0005254    0.0002818     0.0444993   -0.2031031 
   0.078169535     0.6981653    0.1394150     0.0009869    0.0004775     0.0003247    0.0003142     0.0447165   -0.2026976 
   0.078269560     0.7128204    0.1065036     0.0010548    0.0001077     0.0005115    0.0002257     0.0448580   -0.2020976 
   0.078369585     0.7175632    0.0833146     0.0003350    0.0001304     0.0001855    0.0000885     0.0443791   -0.2028144 
   0.078469610     0.7341439    0.0524966     0.0000599   -0.0002469     0.0005137    0.0004694     0.0435927   -0.2027555 
   0.078569635     0.7445150    0.0226154     0.0003915   -0.0001119     0.0001822    0.0002712     0.0436182   -0.2019425 
   0.078669660     0.7484693   -0.0051170    -0.0004197    0.0002856     0.0001925   -0.0000648     0.0438305   -0.2019785 
   0.078769685     0.7620915   -0.0322112     0.0002025   -0.0001699     0.0002819    0.0003042     0.0436624   -0.2014870 
   0.078869710     0.7674277   -0.0668027     0.0005303   -0.0000586     0.0002161    0.0000572     0.0431392   -0.2016524 
   0.078969735     0.7636397   -0.0929402     0.0003824    0.0006274    -0.0001595    0.0002525     0.0432300   -0.2023059 
   0.079069760     0.7650867   -0.1203018     0.0004250    0.0005503     0.0001682    0.0002389     0.0431699   -0.2020304 
   0.079169785     0.7626187   -0.1474383     0.0000569   -0.0001668     0.0000169    0.0003356     0.0429701   -0.2009960 
   0.079269810     0.7619917   -0.1593919     0.0005453    0.0000349    -0.0002011    0.0001964     0.0422930   -0.2015488 
   0.079369835     0.7627491   -0.2016077     0.0003687    0.0006667     0.0004084   -0.0000225     0.0431925   -0.2003345 
   0.079469860     0.7720009   -0.2252915     0.0004568    0.0002364     0.0002432    0.0001643     0.0429325   -0.2004833 
   0.079569885     0.7575240   -0.2500244    -0.0001552    0.0001454     0.0001875    0.0001036     0.0425096   -0.2010656 
   0.079669910     0.7554675   -0.2651781     0.0004460    0.0008504    -0.0001217    0.0005143     0.0422834   -0.2006193 
   0.079769935     0.7497187   -0.2953134     0.0003517   -0.0007059     0.0001853    0.0003795     0.0422282   -0.2011272 
   0.079869960     0.7435721   -0.3153841     0.0006123   -0.0000592    -0.0002348    0.0002857     0.0424267   -0.2000318 
   0.079969985     0.7457371   -0.3432812    -0.0006667   -0.0002317     0.0000228    0.0001461     0.0435832   -0.2007178 
   0.080070010     0.7352150   -0.3590183    -0.0004108   -0.0002173     0.0003324    0.0002902     0.0425996   -0.1999218 
   0.080170035     0.7335255   -0.3755850    -0.0005683    0.0005339    -0.0001203    0.0000623     0.0415747   -0.2002729 
   0.080270060     0.7192011   -0.4023888    -0.0000348    0.0003293     0.0001465   -0.0000089     0.0423014   -0.1985224 
   0.080370085     0.7110241   -0.4134493    -0.0005910   -0.0000596    -0.0000238    0.0002191     0.0418871   -0.1995009 
   0.080470110     0.7058012   -0.4348272     0.0001833    0.0004914     0.0000089    0.0001761     0.0418648   -0.1995319 
   0.080570135     0.6909274   -0.4507740     0.0005189    0.0002486     0.0001451    0.0002720     0.0419606   -0.2001972 
   0.080670160     0.6797261   -0.4775150    -0.0000657    0.0009223     0.0003437    0.0005676     0.0419427   -0.1997392 
   0.080770185     0.6713158   -0.4912862    -0.0003537    0.0005798     0.0000130    0.0001030     0.0413196   -0.1994604 
   0.080870210     0.6614131   -0.5081885    -0.0001304    0.0004374    -0.0002310    0.0007450     0.0406213   -0.1991278 
   0.080970235     0.6535220   -0.5153393    -0.0000465   -0.0005325    -0.0000682    0.0005370     0.0409563   -0.1985999 
   0.081070260     0.6341364   -0.5274165     0.0006267    0.0006845     0.0001553    0.0001257     0.0419200   -0.1990000 
   0.081170285     0.6205001   -0.5520788     0.0003544   -0.0000224     0.0001049    0.0001643     0.0415873   -0.1992376 
   0.081270310     0.6182140   -0.5738183     0.0005167    0.0000958     0.0000693    0.0006237     0.0410979   -0.1987928 
   0.081370335     0.6059266   -0.5760714    -0.0000164   -0.0000888     0.0000805    0.0000832     0.0406620   -0.1985926 
   0.081470360     0.5932922   -0.5896257    -0.0004907    0.0003024    -0.0000274    0.0001735     0.0417456   -0.1986924 
   0.081570385     0.5829573   -0.6030775     0.0001489    0.0005924    -0.0000250    0.0002552     0.0414569   -0.1976696 
   0.081670410     0.5733153   -0.6169690    -0.0003546    0.0008023    -0.0000998    0.0002693     0.0413332   -0.1982536 
   0.081770435     0.5558439   -0.6314167    -0.0000363    0.0004388    -0.0000999    0.0005854     0.0408926   -0.1977583 
   0.081870460     0.5491950   -0.6356287    -0.0008125   -0.0000499     0.0002950    0.0006545     0.0400839   -0.1970107 
   0.081970485     0.5391907   -0.6525257    -0.0001291    0.0001540    -0.0001785    0.0002937     0.0407251   -0.1984356 
   0.082070510     0.5237480   -0.6616840    -0.0001345   -0.0000646    -0.0005922    0.0004581     0.0398974   -0.1974830 
   0.082170535     0.5118493   -0.6737738    -0.0002054    0.0003878     0.0001981    0.0004019     0.0396525   -0.1985533 
   0.082270560     0.4970678   -0.6815403     0.0004741   -0.0001263    -0.0002158    0.0004006     0.0407751   -0.1981660 
   0.082370585     0.4930278   -0.6907526    -0.0004617    0.0000037    -0.0003486    0.0004377     0.0401293   -0.1972304 
   0.082470610     0.4740854   -0.7022349     0.0004085    0.0007464    -0.0002701    0.0004656     0.0398317   -0.1964467 
   0.082570635     0.4535854   -0.7131021    -0.0002381    0.0006470    -0.0000719    0.0002240     0.0396940   -0.1973200 
   0.082670660     0.4396218   -0.7161490     0.0000839    0.0002008    -0.0000719    0.0005858     0.0396895   -0.1969337 
   0.082770685     0.4271512   -0.7179248    -0.0003618    0.0003591    -0.0000974    0.0004657     0.0382982   -0.1960151 
   0.082870710     0.4144213   -0.7236982    -0.0001502    0.0009191    -0.0003025    0.0002181     0.0387847   -0.1968574 
   0.082970735     0.4130003   -0.7297586     0.0002789    0.0006637    -0.0000434    0.0003298     0.0389383   -0.1970771 
   0.083070760     0.3984312   -0.7401561     0.0001464    0.0007782    -0.0003101    0.0002539     0.0395563   -0.1962465 
   0.083170785     0.3958100   -0.7464946    -0.0004382    0.0004025     0.0000663    0.0003210     0.0385844   -0.1968643 
   0.083270810     0.3647486   -0.7556502    -0.0007849    0.0005197     0.0001960    0.0004409     0.0387150   -0.1957633 
   0.083370835     0.3597444   -0.7554551    -0.0003879    0.0009851    -0.0004836    0.0002769     0.0394851   -0.1954278 
   0.083470860     0.3484517   -0.7614923    -0.0002443    0.0003217    -0.0002155    0.0005377     0.0389532   -0.1950365 
   0.083570885     0.3396624   -0.7691340    -0.0001314    0.0005238    -0.0001590    0.0002889     0.0384932   -0.1951564 
   0.083670910     0.3251051   -0.7676126    -0.0004357    0.0001708    -0.0003847    0.0004173     0.0380645   -0.1945829 
   0.083770935     0.3073588   -0.7718197    -0.0006680    0.0008166    -0.0003700    0.0005520     0.0382333   -0.1951187 
   0.083870960     0.2918954   -0.7864674    -0.0002494    0.0010092    -0.0000837    0.0004403     0.0388009   -0.1943014 
   0.083970985     0.2847935   -0.7809249     0.0000164    0.0003385    -0.0002277    0.0005876     0.0381666   -0.1951366 
   0.084071011     0.2674083   -0.7862441    -0.0001132    0.0002593    -0.0000923    0.0006164     0.0378952   -0.1951436 
   0.084171036     0.2678082   -0.7934281     0.0005093   -0.0000433    -0.0000870    0.0007614     0.0372751   -0.1947036 
   0.084271061     0.2463847   -0.7960350    -0.0000591    0.0007969    -0.0004540    0.0005767     0.0385869   -0.1951836 
   0.084371086     0.2384829   -0.7994934    -0.0001104    0.0008028    -0.0002874    0.0006118     0.0376922   -0.1954252 
   0.084471111     0.2270104   -0.8054299    -0.0000556    0.0005468    -0.0003259    0.0004392     0.0378769   -0.1944115 
   0.084571136     0.2128230   -0.8070769    -0.0001192    0.0002286    -0.0003139    0.0004266     0.0377482   -0.1940073 
   0.084671161     0.1932755   -0.8024281    -0.0005450    0.0003334    -0.0002811    0.0004551     0.0375778   -0.1945333 
   0.084771186     0.1837415   -0.8012670    -0.0005235    0.0007076    -0.0000588    0.0005799     0.0371262   -0.1936801 
   0.084871211     0.1682741   -0.8088079     0.0002016    0.0009738    -0.0001562    0.0006664     0.0368959   -0.1948290 
   0.084971236     0.1582666   -0.8061916     0.0000310    0.0008142    -0.0000518    0.0009195     0.0371618   -0.1932597 
   0.085071261     0.1462686   -0.8135406     0.0001475    0.0006747    -0.0001161    0.0005941     0.0365121   -0.1938533 
   0.085171286     0.1337862   -0.8082912     0.0000160    0.0006857    -0.0005962    0.0005281     0.0363643   -0.1934380 
   0.085271311     0.1256026   -0.8060684    -0.0001991    0.0003830    -0.0004651    0.0005040     0.0359490   -0.1938029 
   0.085371336     0.1073298   -0.8081083     0.0001101    0.0012588    -0.0004590    0.0005455     0.0371651   -0.1933210 
   0.085471361     0.1037887   -0.8094326    -0.0001622    0.0006148    -0.0001621    0.0007235     0.0362693   -0.1940531 
   0.085571386     0.0765106   -0.8149972    -0.0001388    0.0002925    -0.0000128    0.0008852     0.0355178   -0.1930373 
   0.085671411     0.0665181   -0.8100259    -0.0000112    0.0005617    -0.0000375    0.0007988     0.0363782   -0.1931779 
   0.085771436     0.0572827   -0.8077517     0.0000442    0.0006507    -0.0001975    0.0005659     0.0359423   -0.1925503 
   0.085871461     0.0448409   -0.8134445    -0.0003822    0.0007963    -0.0002099    0.0004910     0.0358867   -0.1929850 
   0.085971486     0.0391805   -0.8074150     0.0001189    0.0005772    -0.0001960    0.0008492     0.0355601   -0.1929771 
   0.086071511     0.0163279   -0.8032328     0.0003494    0.0003697    -0.0005129    0.0006054     0.0355715   -0.1923413 
   0.086171536     0.0093699   -0.8083770    -0.0002697    0.0008780    -0.0000690    0.0008125     0.0363052   -0.1927973 
   0.086271561    -0.0013387   -0.8008042    -0.0002577    0.0016360     0.0000411    0.0007060     0.0360088   -0.1922978 
   0.086371586    -0.0165330   -0.7988085     0.0000956    0.0005428    -0.0000029    0.0007708     0.0358141   -0.1923807 
   0.086471611    -0.0272549   -0.7983848    -0.0007644    0.0005600    -0.0000462    0.0006198     0.0360172   -0.1915959 
   0.086571636    -0.0424981   -0.7954646    -0.0002625    0.0008791    -0.0001063    0.0005131     0.0348460   -0.1926078 
   0.086671661    -0.0518373   -0.7961732     0.0000029    0.0006746    -0.0002408    0.0005691     0.0354110   -0.1925135 
   0.086771686    -0.0625211   -0.7925538    -0.0002099    0.0006233    -0.0000712    0.0007348     0.0360072   -0.1925256 
   0.086871711    -0.0747909   -0.7898674    -0.0004276    0.0008926    -0.0001285    0.0009735     0.0353273   -0.1909228 
   0.086971736    -0.0857851   -0.7815543     0.0000474    0.0011749    -0.0002120    0.0008610     0.0353081   -0.1915574 
   0.087071761    -0.0990411   -0.7826180     0.0001785    0.0013696     0.0000569    0.0007184     0.0341808   -0.1921199 
   0.087171786    -0.1119655   -0.7810290     0.0002379    0.0004063    -0.0000793    0.0008804     0.0352250   -0.1911676 
   0.087271811    -0.1184302   -0.7763682    -0.0006866    0.0008776     0.0001367    0.0008018     0.0345966   -0.1912606 
   0.087371836    -0.1328869   -0.7716269    -0.0000341    0.0004533    -0.0001312    0.0007132     0.0349535   -0.1915643 
   0.087471861    -0.1479005   -0.7699504     0.0000516    0.0009010    -0.0001143    0.0007543     0.0344469   -0.1911329 
   0.087571886    -0.1604969   -0.7585179     0.0001339    0.0007795    -0.0001397    0.0006232     0.0340355   -0.1907973 
   0.087671911    -0.1685790   -0.7628854    -0.0000664    0.0006855    -0.0001133    0.0008421     0.0343999   -0.1914593 
   0.087771936    -0.1818798   -0.7463456     0.0000650    0.0012703    -0.0003069    0.0007540     0.0337647   -0.1907429 
   0.087871961    -0.1940789   -0.7442383     0.0002601    0.0007710    -0.0002082    0.0009665     0.0345382   -0.1912651 
   0.087971986    -0.2044368   -0.7357215     0.0000236    0.0008732    -0.0000661    0.0007857     0.0337471   -0.1902646 
   0.088072011    -0.2171977   -0.7337861     0.0003853    0.0010216    -0.0000119    0.0008352     0.0339758   -0.1911465 
   0.088172036    -0.2329112   -0.7267977     0.0002660    0.0007471    -0.0000345    0.0008102     0.0347679   -0.1898265 
   0.088272061    -0.2386748   -0.7179838    -0.0000344    0.0007413     0.0001121    0.0008107     0.0339584   -0.1906180 
   0.088372086    -0.2489398   -0.7095160    -0.0000402    0.0004934    -0.0000173    0.0008881     0.0331962   -0.1906132 
   0.088472111    -0.2632634   -0.7023546    -0.0000396    0.0011262     0.0001279    0.0009824     0.0338854   -0.1895983 
   0.088572136    -0.2768839   -0.6985825     0.0000941    0.0010143     0.0000745    0.0008348     0.0327414   -0.1899759 
   0.088672161    -0.2888183   -0.6918039    -0.0001299    0.0008998     0.0000411    0.0008120     0.0340773   -0.1905822 
   0.088772186    -0.3006179   -0.6817943    -0.0001664    0.0007698    -0.0000471    0.0010825     0.0336946   -0.1901781 
   0.088872211    -0.3107199   -0.6722524     0.0001746    0.0006978     0.0000438    0.0009528     0.0328314   -0.1891703 
   0.088972236    -0.3180151   -0.6644124    -0.0002802    0.0007877    -0.0000537    0.0010412     0.0338814   -0.1887058 
   0.089072261    -0.3300678   -0.6567847    -0.0002382    0.0011145     0.0000739    0.0010108     0.0326534   -0.1893727 
   0.089172286    -0.3452909   -0.6485777     0.0001073    0.0010914    -0.0000088    0.0007993     0.0332533   -0.1899058 
   0.089272311    -0.3515076   -0.6367743    -0.0001224    0.0005679    -0.0000208    0.0010546     0.0325805   -0.1896902 
   0.089372336    -0.3637733   -0.6255931     0.0001141    0.0011453    -0.0000092    0.0010114     0.0335258   -0.1894268 
   0.089472361    -0.3735947   -0.6170995    -0.0001717    0.0011258     0.0000841    0.0009477     0.0331758   -0.1893669 
   0.089572386    -0.3854889   -0.6055059     0.0002305    0.0011275     0.0000932    0.0010271     0.0325449   -0.1888510 
   0.089672411    -0.3970470   -0.5932397     0.0001013    0.0010781    -0.0000675    0.0011161     0.0325397   -0.1880151 
   0.089772436    -0.4054886   -0.5804182     0.0000960    0.0008760     0.0001921    0.0009774     0.0319842   -0.1881772 
   0.089872461    -0.4162823   -0.5700614    -0.0001153    0.0009469     0.0000498    0.0009664     0.0334752   -0.1889993 
   0.089972486    -0.4285062   -0.5604197    -0.0000388    0.0007990     0.0000775    0.0010008     0.0320947   -0.1890192 
   0.090072511    -0.4357921   -0.5503235     0.0002813    0.0011021     0.0001365    0.0009568     0.0331192   -0.1884950 
   0.090172536    -0.4452372   -0.5350999    -0.0000372    0.0012455    -0.0000686    0.0009838     0.0320071   -0.1880229 
   0.090272561    -0.4560875   -0.5228163     0.0003168    0.0009887     0.0000983    0.0009901     0.0319195   -0.1881611 
   0.090372586    -0.4628955   -0.5080944    -0.0000838    0.0009476     0.0000815    0.0011311     0.0315788   -0.1873142 
   0.090472611    -0.4723954   -0.4957634     0.0001701    0.0011433     0.0000655    0.0010861     0.0323123   -0.1881354 
   0.090572636    -0.4823679   -0.4835314     0.0003830    0.0007541     0.0002123    0.0009510     0.0316259   -0.1884803 
   0.090672661    -0.4894150   -0.4663529     0.0004783    0.0011168     0.0001012    0.0010039     0.0319944   -0.1879240 
   0.090772686    -0.4974271   -0.4495612     0.0000189    0.0010630     0.0001057    0.0009659     0.0320239   -0.1867672 
   0.090872711    -0.5057120   -0.4368576     0.0002626    0.0010508     0.0001793    0.0010789     0.0317552   -0.1873857 
   0.090972736    -0.5140292   -0.4196827     0.0002024    0.0008967     0.0002664    0.0010035     0.0309257   -0.1872198 
   0.091072761    -0.5190533   -0.4052260     0.0003638    0.0010995     0.0002499    0.0011022     0.0304571   -0.1867902 
   0.091172786    -0.5256435   -0.3851807     0.0001341    0.0010710     0.0001480    0.0010106     0.0303201   -0.1870418 
   0.091272811    -0.5329239   -0.3696050     0.0004595    0.0010056     0.0002292    0.0010486     0.0302751   -0.1878548 
   0.091372836    -0.5383777   -0.3507248     0.0002263    0.0010674     0.0001623    0.0010159     0.0309152   -0.1869462 
   0.091472861    -0.5455005   -0.3327532     0.0001771    0.0010095     0.0003035    0.0010886     0.0314951   -0.1865163 
   0.091572886    -0.5508068   -0.3160061     0.0002038    0.0009826     0.0003335    0.0010043     0.0313106   -0.1867386 
   0.091672911    -0.5550553   -0.2951425     0.0004112    0.0008431     0.0005565    0.0010789     0.0296727   -0.1869087 
   0.091772936    -0.5593307   -0.2752258     0.0003247    0.0011089     0.0004642    0.0010430     0.0299769   -0.1867551 
   0.091872961    -0.5639913   -0.2551865     0.0001513    0.0012222     0.0002345    0.0010787     0.0302273   -0.1862938 
   0.091972986    -0.5671115   -0.2367034     0.0002610    0.0009052     0.0003339    0.0010698     0.0302314   -0.1862907 
   0.092073012    -0.5683239   -0.2147983     0.0000512    0.0009885     0.0003025    0.0010843     0.0301975   -0.1861488 
   0.092173037    -0.5696626   -0.1937594     0.0005147    0.0010913     0.0004021    0.0010632     0.0303009   -0.1862229 
   0.092273062    -0.5716417   -0.1718360     0.0000823    0.0010361     0.0003566    0.0009727     0.0300060   -0.1858764 
   0.092373087    -0.5716013   -0.1501979     0.0001866    0.0008589     0.0003923    0.0010668     0.0299040   -0.1859429 
   0.092473112    -0.5706958   -0.1262156     0.0004559    0.0011913     0.0003331    0.0010557     0.0306641   -0.1853475 
   0.092573137    -0.5714988   -0.1055202     0.0002411    0.0011050     0.0003375    0.0012380     0.0299773   -0.1861448 
   0.092673162    -0.5682629   -0.0830305     0.0002470    0.0009433     0.0004611    0.0010677     0.0292894   -0.1849006 
   0.092773187    -0.5664037   -0.0593982     0.0006463    0.0011447     0.0004637    0.0009998     0.0299988   -0.1856747 
   0.092873212    -0.5642687   -0.0351478     0.0004938    0.0010297     0.0005429    0.0008825     0.0296275   -0.1852763 
   0.092973237    -0.5590004   -0.0104400     0.0003962    0.0009073     0.0005637    0.0010569     0.0289803   -0.1848959 
   0.093073262    -0.5517156    0.0119335     0.0008174    0.0011181     0.0005823    0.0009394     0.0289554   -0.1854992 
   0.093173287    -0.5455436    0.0364220     0.0002838    0.0010780     0.0004455    0.0009217     0.0287980   -0.1848551 
   0.093273312    -0.5346640    0.0606112     0.0006476    0.0010001     0.0004443    0.0008798     0.0286807   -0.1841115 
   0.093373337    -0.5296830    0.0869105     0.0007350    0.0008583     0.0005435    0.0008726     0.0293760   -0.1855807 
   0.093473362    -0.5180677    0.1093744     0.0009721    0.0009625     0.0005412    0.0010770     0.0291765   -0.1851141 
   0.093573387    -0.5071779    0.1348881     0.0005544    0.0010396     0.0006014    0.0009088     0.0289892   -0.1849521 
   0.093673412    -0.4952417    0.1598478     0.0005465    0.0012102     0.0005388    0.0011181     0.0283827   -0.1853741 
   0.093773437    -0.4818103    0.1827881     0.0004279    0.0008700     0.0007714    0.0008091     0.0278692   -0.1849784 
   0.093873462    -0.4668053    0.2060811     0.0006442    0.0008548     0.0006471    0.0006186     0.0277681   -0.1846223 
   0.093973487    -0.4530439    0.2317857     0.0006709    0.0012257     0.0006198    0.0010127     0.0280362   -0.1848190 
   0.094073512    -0.4346113    0.2565750     0.0006837    0.0008547     0.0007497    0.0008056     0.0283302   -0.1836275 
   0.094173537    -0.4152996    0.2793932     0.0006714    0.0010007     0.0005469    0.0009620     0.0287633   -0.1843342 
   0.094273562    -0.3957355    0.2996411     0.0005045    0.0010169     0.0005777    0.0007377     0.0281458   -0.1839955 
   0.094373587    -0.3747876    0.3205584     0.0009877    0.0006396     0.0006422    0.0008961     0.0283583   -0.1843492 
   0.094473612    -0.3519574    0.3420035     0.0010436    0.0005217     0.0007583    0.0008208     0.0278234   -0.1837897 
   0.094573637    -0.3275159    0.3633670     0.0009912    0.0006893     0.0007190    0.0006110     0.0282028   -0.1842049 
   0.094673662    -0.3035220    0.3845017     0.0008785    0.0008781     0.0007116    0.0008966     0.0288917   -0.1842963 
   0.094773687    -0.2797279    0.3991299     0.0005057    0.0011106     0.0006555    0.0007681     0.0274088   -0.1830662 
   0.094873712    -0.2503110    0.4198875     0.0012541    0.0008057     0.0006581    0.0010087     0.0270319   -0.1837224 
   0.094973737    -0.2228402    0.4352678     0.0010883    0.0007119     0.0007544    0.0006853     0.0278933   -0.1840729 
   0.095073762    -0.1920838    0.4512895     0.0010801    0.0007783     0.0007603    0.0007961     0.0280225   -0.1829932 
   0.095173787    -0.1602356    0.4602651     0.0004672    0.0005180     0.0007314    0.0007718     0.0273008   -0.1836272 
   0.095273812    -0.1293814    0.4758969     0.0009889    0.0007311     0.0006981    0.0005788     0.0273610   -0.1841805 
   0.095373837    -0.0980385    0.4857919     0.0011892    0.0011944     0.0005671    0.0007735     0.0278614   -0.1826521 
   0.095473862    -0.0656074    0.4933501     0.0006021    0.0010184     0.0007620    0.0005017     0.0270025   -0.1834349 
   0.095573887    -0.0295150    0.5008369     0.0005935    0.0010417     0.0006259    0.0003461     0.0270004   -0.1835164 
   0.095673912     0.0054121    0.5062091     0.0009965    0.0003208     0.0005719    0.0005347     0.0262045   -0.1833049 
   0.095773937     0.0394583    0.5082585     0.0011492    0.0004363     0.0006636    0.0007504     0.0270569   -0.1830692 
   0.095873962     0.0716041    0.5079675     0.0006694    0.0007814     0.0008911    0.0006121     0.0268330   -0.1832222 
   0.095973987     0.1095438    0.5073069     0.0003780    0.0000683     0.0006768    0.0006217     0.0272663   -0.1829960 
   0.096074012     0.1424326    0.5070105     0.0010666    0.0003530     0.0010427    0.0005019     0.0271247   -0.1828438 
   0.096174037     0.1794550    0.5012362     0.0008856    0.0009452     0.0006912    0.0007607     0.0263787   -0.1828613 
   0.096274062     0.2146171    0.4958832     0.0004413   -0.0004445     0.0007960    0.0006137     0.0262895   -0.1820347 
   0.096374087     0.2486017    0.4858656     0.0006116    0.0003938     0.0004659    0.0005739     0.0263403   -0.1826158 
   0.096474112     0.2859250    0.4793227     0.0010190   -0.0004928     0.0007783    0.0003564     0.0262665   -0.1823683 
   0.096574137     0.3148690    0.4667911     0.0011474    0.0006577     0.0006487    0.0001789     0.0258102   -0.1826634 
   0.096674162     0.3465185    0.4524665     0.0012836    0.0004088     0.0005675    0.0002091     0.0259187   -0.1818390 
   0.096774187     0.3792676    0.4390173     0.0006626    0.0003187     0.0006530    0.0006721     0.0265306   -0.1820330 
   0.096874212     0.4104544    0.4162693     0.0008200    0.0000935     0.0003113    0.0003675     0.0253129   -0.1818738 
   0.096974237     0.4440648    0.3997698     0.0003675    0.0002713     0.0007419    0.0000831     0.0258179   -0.1821910 
   0.097074262     0.4702283    0.3790965     0.0008080    0.0009586     0.0007195    0.0004737     0.0257295   -0.1816189 
   0.097174287     0.4938556    0.3593292     0.0007441   -0.0002180     0.0006005    0.0003584     0.0250373   -0.1813647 
   0.097274312     0.5215645    0.3417706     0.0005420    0.0000185     0.0003942    0.0005853     0.0250117   -0.1819302 
   0.097374337     0.5496997    0.3152645     0.0006425   -0.0001337     0.0002375    0.0005490     0.0252958   -0.1818432 
   0.097474362     0.5687203    0.2924584     0.0003144    0.0006510     0.0004702    0.0002060     0.0248875   -0.1817895 
   0.097574387     0.5882421    0.2681294     0.0004158    0.0004636     0.0007392    0.0001012     0.0248779   -0.1815860 
   0.097674412     0.6103109    0.2319106     0.0004093    0.0006115     0.0003598    0.0002201     0.0246407   -0.1806304 
   0.097774437     0.6284067    0.2167514     0.0002757    0.0000811     0.0004475    0.0004860     0.0245777   -0.1821165 
   0.097874462     0.6413224    0.1851266     0.0007298   -0.0002909     0.0005148    0.0003928     0.0249579   -0.1815982 
   0.097974487     0.6607585    0.1605441     0.0004331   -0.0000434     0.0003977    0.0002372     0.0252814   -0.1815226 
   0.098074512     0.6695449    0.1279135     0.0005877    0.0002465     0.0003713    0.0001492     0.0248368   -0.1816356 
   0.098174537     0.6871775    0.0994518     0.0002246    0.0000692     0.0003976    0.0000954     0.0239818   -0.1807666 
   0.098274562     0.6921563    0.0672882     0.0006148    0.0001644     0.0006367    0.0004817     0.0245743   -0.1805913 
   0.098374587     0.7049044    0.0445267     0.0000210    0.0005487     0.0004915   -0.0000501     0.0243334   -0.1805422 
   0.098474612     0.7150570    0.0165738     0.0004360    0.0001956     0.0002279    0.0001178     0.0245046   -0.1809311 
   0.098574637     0.7203412   -0.0117609     0.0004908   -0.0001960     0.0003621    0.0003245     0.0242652   -0.1804749 
   0.098674662     0.7221330   -0.0398144     0.0003603    0.0005469     0.0003970   -0.0001688     0.0240633   -0.1810758 
   0.098774687     0.7269833   -0.0729135     0.0001814    0.0005079     0.0003635    0.0001045     0.0245949   -0.1807560 
   0.098874712     0.7299203   -0.0992836     0.0002991    0.0004916     0.0002420    0.0003348     0.0247948   -0.1804138 
   0.098974737     0.7263970   -0.1215401     0.0004499    0.0002534     0.0002078    0.0002532     0.0244783   -0.1803398 
   0.099074762     0.7321490   -0.1534169     0.0005687    0.0005159     0.0005193    0.0003275     0.0243731   -0.1800655 
   0.099174787     0.7353302   -0.1800910     0.0003676    0.0005503     0.0000171    0.0000064     0.0240542   -0.1797883 
   0.099274812     0.7330663   -0.2049803     0.0001785    0.0002658     0.0002937    0.0000006     0.0239430   -0.1801763 
   0.099374837     0.7267833   -0.2274005     0.0004210    0.0006095    -0.0000256    0.0004126     0.0240938   -0.1800657 
   0.099474862     0.7212615   -0.2575604     0.0002376    0.0003357     0.0002447    0.0001783     0.0234276   -0.1804188 
   0.099574887     0.7168705   -0.2811717     0.0004490    0.0000336     0.0000931    0.0002942     0.0237144   -0.1799384 
   0.099674912     0.7145280   -0.3047045     0.0001099    0.0000303     0.0003286    0.0000471     0.0228398   -0.1799331 
   0.099774937     0.7072873   -0.3296189    -0.0000748    0.0003814     0.0000191    0.0002303     0.0233556   -0.1803068 
   0.099874962     0.7012324   -0.3452126     0.0004746    0.0001453    -0.0000807    0.0001841     0.0233633   -0.1799322 
   0.099974987     0.6915759   -0.3680825    -0.0000156   -0.0001491    -0.0000379    0.0001126     0.0233014   -0.1793258 
   0.100075013     0.6865079   -0.3944822    -0.0001082    0.0000103     0.0000163    0.0002645     0.0226681   -0.1795381 
   0.100175038     0.6746071   -0.4133237     0.0002554    0.0001445     0.0000827    0.0001140     0.0232970   -0.1792367 
   0.100275063     0.6576405   -0.4324668    -0.0000092    0.0004712     0.0001871    0.0002323     0.0224721   -0.1793892 
   0.100375088     0.6512437   -0.4562826     0.0004651    0.0005486     0.0001362    0.0003925     0.0223800   -0.1789083 
   0.100475113     0.6406065   -0.4721653    -0.0001419    0.0006675     0.0000936    0.0004275     0.0224683   -0.1785262 
   0.100575138     0.6328493   -0.4925163     0.0001236    0.0005436    -0.0001671    0.0003087     0.0226213   -0.1787432 
   0.100675163     0.6220592   -0.5038010    -0.0000188    0.0003863     0.0000616    0.0002179     0.0226430   -0.1790963 
   0.100775188     0.6086037   -0.5263246    -0.0002202    0.0008675     0.0001636    0.0005109     0.0223055   -0.1788358 
   0.100875213     0.5959367   -0.5416626    -0.0000709    0.0002434    -0.0000040    0.0002884     0.0223181   -0.1788135 
   0.100975238     0.5779493   -0.5546604    -0.0002534    0.0007431     0.0000352    0.0004299     0.0220937   -0.1792439 
   0.101075263     0.5698201   -0.5759798     0.0001885    0.0005696    -0.0000710    0.0003946     0.0225487   -0.1784940 
   0.101175288     0.5541137   -0.5882535    -0.0000424    0.0002992    -0.0000105    0.0006345     0.0215022   -0.1794380 
   0.101275313     0.5459911   -0.6026487    -0.0004568   -0.0000762     0.0000146    0.0002786     0.0217626   -0.1786942 
   0.101375338     0.5357073   -0.6142368    -0.0002098    0.0002785    -0.0000117    0.0003451     0.0226445   -0.1783523 
   0.101475363     0.5155208   -0.6284347     0.0002950    0.0005273     0.0001203    0.0005510     0.0217675   -0.1789470 
   0.101575388     0.5040246   -0.6405257     0.0000394    0.0004024    -0.0002208    0.0004183     0.0216273   -0.1784146 
   0.101675413     0.4949506   -0.6525412    -0.0001799    0.0008416    -0.0001071    0.0004373     0.0219909   -0.1787318 
   0.101775438     0.4729898   -0.6650307    -0.0002692    0.0003195    -0.0000285    0.0005363     0.0224575   -0.1793455 
   0.101875463     0.4653596   -0.6753960    -0.0000660    0.0004138     0.0000544    0.0004513     0.0212241   -0.1782832 
   0.101975488     0.4407114   -0.6786438    -0.0000491    0.0007700    -0.0000416    0.0005484     0.0214558   -0.1781382 
   0.102075513     0.4318978   -0.6893295    -0.0000768    0.0003141     0.0000223    0.0006539     0.0210884   -0.1777808 
   0.102175538     0.4156736   -0.7034414     0.0000985    0.0004644     0.0000105    0.0003705     0.0215656   -0.1789183 
   0.102275563     0.4022819   -0.7111502     0.0000140    0.0002788    -0.0000812    0.0006570     0.0207572   -0.1775465 
   0.102375588     0.3886606   -0.7180772     0.0000128    0.0005759    -0.0000660    0.0005969     0.0204616   -0.1784965 
   0.102475613     0.3743641   -0.7216464    -0.0003158    0.0007171    -0.0000965    0.0004821     0.0215906   -0.1777902 
   0.102575638     0.3656198   -0.7315821    -0.0000438    0.0007470    -0.0000627    0.0004598     0.0203731   -0.1773979 
   0.102675663     0.3466979   -0.7393042    -0.0001545    0.0006413    -0.0000441    0.0005527     0.0209360   -0.1784277 
   0.102775688     0.3299183   -0.7481315    -0.0000650    0.0003630    -0.0000993    0.0007119     0.0208410   -0.1779396 
   0.102875713     0.3222437   -0.7532225    -0.0000563    0.0006328    -0.0000901    0.0007947     0.0209627   -0.1777100 
   0.102975738     0.3045873   -0.7621619    -0.0002122    0.0005003    -0.0000795    0.0007032     0.0205910   -0.1782701 
   0.103075763     0.2832831   -0.7682321    -0.0001462    0.0006292    -0.0001378    0.0007433     0.0206044   -0.1776545 
   0.103175788     0.2717246   -0.7696443    -0.0001763    0.0006273    -0.0001538    0.0006793     0.0205147   -0.1769120 
   0.103275813     0.2578005   -0.7722646    -0.0003108    0.0005657    -0.0000282    0.0006116     0.0209181   -0.1768070 
   0.103375838     0.2450961   -0.7795005    -0.0002129    0.0006020    -0.0000313    0.0007416     0.0205383   -0.1768423 
   0.103475863     0.2286301   -0.7802091    -0.0000130    0.0007148    -0.0000518    0.0006042     0.0198099   -0.1767885 
   0.103575888     0.2141443   -0.7827084    -0.0000545    0.0007297     0.0000879    0.0007389     0.0200499   -0.1769229 
   0.103675913     0.1990837   -0.7864747    -0.0001725    0.0004850     0.0000246    0.0006027     0.0202961   -0.1771004 
   0.103775938     0.1883315   -0.7922545     0.0001879    0.0006917    -0.0001410    0.0006732     0.0195381   -0.1776161 
   0.103875963     0.1782480   -0.7886668    -0.0000723    0.0006705    -0.0001106    0.0006869     0.0196682   -0.1774690 
   0.103975988     0.1579276   -0.7932914     0.0001715    0.0007268     0.0000430    0.0008316     0.0198259   -0.1767951 
   0.104076013     0.1457556   -0.7968599    -0.0000593    0.0008110    -0.0000664    0.0007330     0.0191754   -0.1767130 
   0.104176038     0.1310240   -0.7969530    -0.0002013    0.0007170    -0.0000402    0.0007448     0.0194813   -0.1765493 
   0.104276063     0.1130039   -0.7968717    -0.0001256    0.0007564    -0.0000810    0.0006866     0.0197460   -0.1763491 
   0.104376088     0.1016093   -0.7978081     0.0001965    0.0009758    -0.0000593    0.0008813     0.0193424   -0.1769365 
   0.104476113     0.0863106   -0.7987579    -0.0001496    0.0007438     0.0000212    0.0007131     0.0194989   -0.1767880 
   0.104576138     0.0715541   -0.7970865    -0.0000038    0.0007271    -0.0000225    0.0007223     0.0196096   -0.1763637 
   0.104676163     0.0594815   -0.7971974    -0.0001331    0.0008296     0.0000022    0.0007747     0.0196683   -0.1756070 
   0.104776188     0.0436451   -0.7999048    -0.0001030    0.0008737    -0.0000655    0.0008559     0.0185273   -0.1759817 
   0.104876213     0.0284301   -0.7989220    -0.0000438    0.0006841    -0.0001075    0.0007285     0.0189637   -0.1759820 
   0.104976238     0.0176865   -0.7958632    -0.0000105    0.0008856     0.0000105    0.0008083     0.0193091   -0.1762633 
   0.105076263     0.0038019   -0.7956213    -0.0002264    0.0010209    -0.0000136    0.0009267     0.0182163   -0.1763252 
   0.105176288    -0.0072711   -0.7923662    -0.0001040    0.0010285    -0.0000028    0.0009471     0.0180950   -0.1768247 
   0.105276313    -0.0241839   -0.7917822    -0.0001643    0.0010868    -0.0000468    0.0008898     0.0191192   -0.1763178 
   0.105376338    -0.0374488   -0.7893863    -0.0000729    0.0007440     0.0000201    0.0009510     0.0182392   -0.1754101 
   0.105476363    -0.0519271   -0.7879409    -0.0002351    0.0011279     0.0000147    0.0010062     0.0188788   -0.1760885 
   0.105576388    -0.0605687   -0.7842937    -0.0000643    0.0008786     0.0001049    0.0008821     0.0186109   -0.1760477 
   0.105676413    -0.0754733   -0.7851617    -0.0001532    0.0011674    -0.0000538    0.0009388     0.0185899   -0.1760163 
   0.105776438    -0.0880041   -0.7791216     0.0001341    0.0011088     0.0001099    0.0008476     0.0176510   -0.1757173 
   0.105876463    -0.1036827   -0.7738488    -0.0000459    0.0010270     0.0000348    0.0009873     0.0182100   -0.1750647 
   0.105976488    -0.1192397   -0.7690821    -0.0000825    0.0007854     0.0001020    0.0009524     0.0180942   -0.1752035 
   0.106076513    -0.1302392   -0.7649644     0.0000440    0.0008169     0.0001992    0.0008619     0.0178907   -0.1751108 
   0.106176538    -0.1422767   -0.7645321     0.0001960    0.0011108     0.0000886    0.0009826     0.0178580   -0.1757852 
   0.106276563    -0.1552061   -0.7603418     0.0000283    0.0009651     0.0001009    0.0009321     0.0174784   -0.1760035 
   0.106376588    -0.1618883   -0.7544218     0.0001312    0.0009837     0.0001367    0.0008871     0.0180994   -0.1746375 
   0.106476613    -0.1773344   -0.7487468     0.0000935    0.0010083     0.0000858    0.0009628     0.0179324   -0.1744576 
   0.106576638    -0.1907026   -0.7446284    -0.0000179    0.0010814     0.0000439    0.0010144     0.0177773   -0.1750084 
   0.106676663    -0.2026786   -0.7405870     0.0002271    0.0010411     0.0000311    0.0010473     0.0179401   -0.1746004 
   0.106776688    -0.2159383   -0.7328894     0.0003038    0.0010282     0.0000687    0.0009592     0.0168959   -0.1745735 
   0.106876713    -0.2273597   -0.7265897     0.0001976    0.0010578     0.0001302    0.0009433     0.0174123   -0.1753296 
   0.106976738    -0.2405048   -0.7218634     0.0001546    0.0010964     0.0000452    0.0010275     0.0179039   -0.1752865 
   0.107076763    -0.2526587   -0.7141924     0.0000127    0.0011368     0.0000966    0.0011107     0.0168544   -0.1744460 
   0.107176788    -0.2622183   -0.7069730     0.0001683    0.0013110     0.0000922    0.0010353     0.0170326   -0.1741464 
   0.107276813    -0.2729385   -0.7029818     0.0000123    0.0010995     0.0000253    0.0009820     0.0172888   -0.1740570 
   0.107376838    -0.2844609   -0.6941208     0.0000157    0.0011172     0.0001320    0.0010720     0.0171946   -0.1749404 
   0.107476863    -0.2985289   -0.6847609    -0.0000196    0.0011959     0.0001668    0.0010470     0.0171199   -0.1751249 
   0.107576888    -0.3038792   -0.6807489     0.0003240    0.0009946     0.0001749    0.0009080     0.0166587   -0.1745973 
   0.107676913    -0.3201998   -0.6713200     0.0002539    0.0012840     0.0002101    0.0011365     0.0169003   -0.1737589 
   0.107776938    -0.3319264   -0.6607209     0.0002719    0.0011644     0.0001213    0.0011643     0.0165385   -0.1749083 
   0.107876963    -0.3404941   -0.6518648     0.0001683    0.0012760     0.0000826    0.0011217     0.0164264   -0.1744016 
   0.107976988    -0.3504889   -0.6425002    -0.0000470    0.0012329     0.0000709    0.0011449     0.0164513   -0.1748377 
   0.108077014    -0.3643528   -0.6352334     0.0003154    0.0009712     0.0001740    0.0010792     0.0161653   -0.1740306 
   0.108177039    -0.3706913   -0.6232681     0.0002734    0.0012855     0.0002979    0.0012210     0.0161471   -0.1738789 
   0.108277064    -0.3863610   -0.6156932     0.0002654    0.0011236     0.0002382    0.0010885     0.0162262   -0.1736413 
   0.108377089    -0.3916702   -0.6047335     0.0002013    0.0009948     0.0002459    0.0010517     0.0159795   -0.1738972 
   0.108477114    -0.4013217   -0.5950260     0.0003616    0.0010818     0.0002164    0.0012464     0.0157070   -0.1734020 
   0.108577139    -0.4134190   -0.5821154     0.0003579    0.0011432     0.0001085    0.0011633     0.0156455   -0.1745883 
   0.108677164    -0.4234239   -0.5738564    -0.0001197    0.0009928     0.0001713    0.0011079     0.0163705   -0.1738975 
   0.108777189    -0.4333733   -0.5643941     0.0002492    0.0014276     0.0001724    0.0012645     0.0160680   -0.1737322 
   0.108877214    -0.4399529   -0.5526092    -0.0001279    0.0012249     0.0002743    0.0009678     0.0156539   -0.1734978 
   0.108977239    -0.4503854   -0.5408134     0.0002474    0.0009490     0.0004185    0.0011035     0.0160966   -0.1732554 
   0.109077264    -0.4586665   -0.5276251     0.0004650    0.0011282     0.0002789    0.0011505     0.0156830   -0.1739628 
   0.109177289    -0.4675321   -0.5143330     0.0001662    0.0013579     0.0001231    0.0010903     0.0158626   -0.1736066 
   0.109277314    -0.4770603   -0.5047461     0.0004024    0.0012196     0.0001797    0.0012677     0.0155268   -0.1729436 
   0.109377339    -0.4840721   -0.4884722     0.0002314    0.0013412     0.0003382    0.0013301     0.0153530   -0.1734938 
   0.109477364    -0.4916364   -0.4805854     0.0001996    0.0011769     0.0003159    0.0011474     0.0151278   -0.1726858 
   0.109577389    -0.5015799   -0.4672912     0.0005635    0.0010509     0.0002886    0.0012916     0.0150959   -0.1740372 
   0.109677414    -0.5092117   -0.4538451     0.0005117    0.0009921     0.0004563    0.0012201     0.0155425   -0.1736342 
   0.109777439    -0.5159505   -0.4380724     0.0004068    0.0012626     0.0002493    0.0011952     0.0147124   -0.1726439 
   0.109877464    -0.5240009   -0.4265647     0.0002361    0.0008802     0.0004873    0.0012096     0.0149098   -0.1734250 
   0.109977489    -0.5316117   -0.4114816     0.0008903    0.0012517     0.0005250    0.0010713     0.0148641   -0.1733858 
   0.110077514    -0.5340538   -0.3946218     0.0003560    0.0015077     0.0004147    0.0012200     0.0150957   -0.1726148 
   0.110177539    -0.5408223   -0.3781012     0.0005255    0.0012210     0.0004460    0.0012704     0.0145402   -0.1726322 
   0.110277564    -0.5461361   -0.3649432     0.0003156    0.0011913     0.0004416    0.0012917     0.0146187   -0.1731082 
   0.110377589    -0.5540919   -0.3461271     0.0004854    0.0013301     0.0004211    0.0012625     0.0142751   -0.1730367 
   0.110477614    -0.5565844   -0.3313431     0.0003322    0.0011344     0.0003989    0.0011299     0.0148639   -0.1729633 
   0.110577639    -0.5606277   -0.3170834     0.0007831    0.0012001     0.0005762    0.0010416     0.0138745   -0.1724343 
   0.110677664    -0.5685008   -0.3019121     0.0002973    0.0015062     0.0003464    0.0012273     0.0140657   -0.1724534 
   0.110777689    -0.5738140   -0.2828428     0.0006289    0.0011204     0.0005828    0.0013305     0.0144307   -0.1722502 
   0.110877714    -0.5730277   -0.2674306     0.0007023    0.0014248     0.0005779    0.0013027     0.0136175   -0.1714976 
   0.110977739    -0.5787588   -0.2490236     0.0005732    0.0015489     0.0004812    0.0011613     0.0143210   -0.1723301 
   0.111077764    -0.5805119   -0.2333722     0.0001827    0.0009929     0.0006204    0.0010335     0.0135384   -0.1727939 
   0.111177789    -0.5848476   -0.2126839     0.0004591    0.0014979     0.0007764    0.0011436     0.0131699   -0.1721480 
   0.111277814    -0.5861707   -0.1996056     0.0004080    0.0010730     0.0006354    0.0012160     0.0133377   -0.1724124 
   0.111377839    -0.5870178   -0.1805089     0.0005989    0.0010149     0.0006245    0.0012498     0.0133618   -0.1719836 
   0.111477864    -0.5874414   -0.1621996     0.0002950    0.0009101     0.0006008    0.0011480     0.0143018   -0.1722690 
   0.111577889    -0.5900087   -0.1427485     0.0005844    0.0011197     0.0005781    0.0011559     0.0132705   -0.1716102 
   0.111677914    -0.5881232   -0.1225494     0.0014195    0.0011478     0.0005799    0.0012030     0.0138590   -0.1714663 
   0.111777939    -0.5844267   -0.1023699     0.0007118    0.0010085     0.0008111    0.0013075     0.0128046   -0.1717726 
   0.111877964    -0.5877950   -0.0843086     0.0006336    0.0012577     0.0008201    0.0010994     0.0129497   -0.1716890 
   0.111977989    -0.5841402   -0.0668043     0.0006914    0.0013185     0.0005904    0.0009119     0.0127818   -0.1712801 
   0.112078014    -0.5788839   -0.0429136     0.0009717    0.0005854     0.0009968    0.0013663     0.0135378   -0.1721280 
   0.112178039    -0.5795646   -0.0253175     0.0011228    0.0009470     0.0007862    0.0011113     0.0132095   -0.1716801 
   0.112278064    -0.5753223   -0.0039049     0.0005419    0.0012577     0.0007514    0.0012312     0.0134952   -0.1720245 
   0.112378089    -0.5709336    0.0166050     0.0010349    0.0007835     0.0005360    0.0012198     0.0125409   -0.1711972 
   0.112478114    -0.5651042    0.0375344     0.0007041    0.0010092     0.0008606    0.0014599     0.0130689   -0.1716704 
   0.112578139    -0.5534354    0.0610710     0.0008185    0.0010051     0.0009244    0.0011764     0.0129102   -0.1708765 
   0.112678164    -0.5512199    0.0775988     0.0011056    0.0014299     0.0012608    0.0011066     0.0122783   -0.1719645 
   0.112778189    -0.5416041    0.1009170     0.0013899    0.0011648     0.0009179    0.0011397     0.0125972   -0.1709547 
   0.112878214    -0.5339869    0.1215231     0.0007356    0.0011474     0.0009959    0.0012123     0.0126399   -0.1714502 
   0.112978239    -0.5256743    0.1405243     0.0005133    0.0006091     0.0010043    0.0010785     0.0121159   -0.1711770 
   0.113078264    -0.5153287    0.1638876     0.0007367    0.0011950     0.0008868    0.0012039     0.0119574   -0.1710396 
   0.113178289    -0.5039448    0.1832225     0.0010931    0.0011038     0.0009144    0.0009241     0.0127469   -0.1711516 
   0.113278314    -0.4897992    0.2014985     0.0007619    0.0011531     0.0008636    0.0008642     0.0112817   -0.1710911 
   0.113378339    -0.4796390    0.2254220     0.0008999    0.0007781     0.0008118    0.0010214     0.0124463   -0.1710469 
   0.113478364    -0.4637502    0.2451151     0.0013783    0.0013701     0.0009050    0.0010695     0.0119155   -0.1711970 
   0.113578389    -0.4490455    0.2645000     0.0009461    0.0010576     0.0010168    0.0007790     0.0116713   -0.1705056 
   0.113678414    -0.4325904    0.2808832     0.0008310    0.0011255     0.0010078    0.0010298     0.0119449   -0.1705235 
   0.113778439    -0.4145245    0.3026591     0.0010174    0.0007080     0.0010879    0.0011182     0.0116456   -0.1704369 
   0.113878464    -0.3994005    0.3236463     0.0011687    0.0008915     0.0008406    0.0009271     0.0114620   -0.1709929 
   0.113978489    -0.3781942    0.3387948     0.0009324    0.0007155     0.0011217    0.0011776     0.0123820   -0.1712262 
   0.114078514    -0.3568622    0.3562889     0.0013580    0.0006740     0.0009242    0.0008557     0.0124172   -0.1701613 
   0.114178539    -0.3408102    0.3738362     0.0008987    0.0008922     0.0011545    0.0008258     0.0110383   -0.1706638 
   0.114278564    -0.3197291    0.3886597     0.0009241    0.0007143     0.0008391    0.0008454     0.0113353   -0.1712191 
   0.114378589    -0.2983404    0.4048253     0.0016861    0.0007826     0.0012352    0.0010661     0.0119403   -0.1705316 
   0.114478614    -0.2698994    0.4174297     0.0013296    0.0007786     0.0010854    0.0008794     0.0107735   -0.1707091 
   0.114578639    -0.2486095    0.4334226     0.0007020    0.0003631     0.0012593    0.0007796     0.0109435   -0.1703223 
   0.114678664    -0.2213279    0.4451793     0.0013766    0.0008755     0.0009033    0.0009591     0.0109120   -0.1703072 
   0.114778689    -0.1959089    0.4585049     0.0010558    0.0009610     0.0011393    0.0006881     0.0107967   -0.1699440 
   0.114878714    -0.1698349    0.4723183     0.0007897    0.0006678     0.0010021    0.0006852     0.0103960   -0.1701458 
   0.114978739    -0.1398379    0.4811610     0.0010194    0.0005327     0.0008697    0.0007995     0.0109088   -0.1698646 
   0.115078764    -0.1126874    0.4850284     0.0014967    0.0007743     0.0011516    0.0007173     0.0111932   -0.1701138 
   0.115178789    -0.0826724    0.4916798     0.0014903    0.0008298     0.0011409    0.0006739     0.0103931   -0.1703274 
   0.115278814    -0.0573098    0.5027596     0.0013695    0.0004517     0.0011411    0.0008780     0.0105342   -0.1699331 
   0.115378839    -0.0231690    0.5030270     0.0006598    0.0004480     0.0011498    0.0006140     0.0102250   -0.1694195 
   0.115478864     0.0008559    0.5071065     0.0010564    0.0002206     0.0012134    0.0007645     0.0103746   -0.1699056 
   0.115578889     0.0334744    0.5092168     0.0009570    0.0009721     0.0011766    0.0007279     0.0099102   -0.1698362 
   0.115678914     0.0678552    0.5098843     0.0011050    0.0005218     0.0012962    0.0007130     0.0100876   -0.1694671 
   0.115778939     0.0978802    0.5099247     0.0011626    0.0004939     0.0009697    0.0005216     0.0102319   -0.1695186 
   0.115878964     0.1253377    0.5059638     0.0011980    0.0002653     0.0010099    0.0003077     0.0099779   -0.1696017 
   0.115978989     0.1603101    0.5011983     0.0011114    0.0007015     0.0007675    0.0005756     0.0101288   -0.1696287 
   0.116079015     0.1879332    0.4938494     0.0015252    0.0005064     0.0009741    0.0004389     0.0101376   -0.1695337 
   0.116179040     0.2186386    0.4891700     0.0011172    0.0005207     0.0010167    0.0003419     0.0096707   -0.1692372 
   0.116279065     0.2527255    0.4810261     0.0006615    0.0005158     0.0007373    0.0003985     0.0095454   -0.1692643 
   0.116379090     0.2784915    0.4713546     0.0008109    0.0006736     0.0010662    0.0003657     0.0101779   -0.1689902 
   0.116479115     0.3118293    0.4576202     0.0011245    0.0004680     0.0007157    0.0003611     0.0099288   -0.1693840 
   0.116579140     0.3388425    0.4461269     0.0008040    0.0000767     0.0007524    0.0003311     0.0097341   -0.1693353 
   0.116679165     0.3677544    0.4292562     0.0007883   -0.0002285     0.0010041    0.0002447     0.0090169   -0.1695797 
   0.116779190     0.3962825    0.4170243     0.0008084    0.0003649     0.0008635    0.0002683     0.0088863   -0.1695547 
   0.116879215     0.4206551    0.3978835     0.0005595    0.0001100     0.0007938    0.0002419     0.0089035   -0.1685645 
   0.116979240     0.4480406    0.3794063     0.0005991    0.0001739     0.0007707    0.0003792     0.0099033   -0.1690376 
   0.117079265     0.4730221    0.3637109     0.0007348    0.0001550     0.0006509    0.0001706     0.0093186   -0.1691744 
   0.117179290     0.4937612    0.3382836     0.0010962   -0.0000981     0.0009096    0.0003270     0.0086819   -0.1689190 
   0.117279315     0.5189378    0.3145185     0.0008085   -0.0000099     0.0006549    0.0003098     0.0093087   -0.1685419 
   0.117379340     0.5402926    0.2919249     0.0009086    0.0001091     0.0006387    0.0001247     0.0087750   -0.1688758 
   0.117479365     0.5631098    0.2668650     0.0009666   -0.0001177     0.0006804    0.0001736     0.0086905   -0.1688305 
   0.117579390     0.5815746    0.2426662     0.0004426    0.0003030     0.0008010    0.0001459     0.0082156   -0.1687180 
   0.117679415     0.5964231    0.2170169     0.0009136    0.0003077     0.0006238    0.0001625     0.0084750   -0.1684988 
   0.117779440     0.6121674    0.1917887     0.0006303    0.0000588     0.0007207    0.0001526     0.0084815   -0.1688965 
   0.117879465     0.6285045    0.1671006     0.0006322    0.0000550     0.0004909    0.0000079     0.0082984   -0.1691893 
   0.117979490     0.6403252    0.1380565     0.0003727    0.0000700     0.0005201    0.0002694     0.0085405   -0.1692365 
   0.118079515     0.6546783    0.1116276     0.0007259   -0.0000302     0.0007260    0.0001554     0.0080652   -0.1684526 
   0.118179540     0.6651241    0.0861877     0.0007500    0.0001840     0.0006565    0.0001562     0.0086100   -0.1683967 
   0.118279565     0.6711127    0.0574353     0.0008403    0.0001169     0.0005687    0.0002110     0.0080730   -0.1682357 
   0.118379590     0.6804779    0.0256561     0.0006746    0.0001582     0.0004461    0.0000970     0.0079590   -0.1686037 
   0.118479615     0.6880851   -0.0003819     0.0004129    0.0000317     0.0004220    0.0002540     0.0084776   -0.1679105 
   0.118579640     0.6929140   -0.0265550     0.0005810    0.0000504     0.0005392    0.0000666     0.0079450   -0.1675483 
   0.118679665     0.6967759   -0.0566013     0.0006115    0.0002222     0.0004170    0.0002506     0.0079886   -0.1678527 
   0.118779690     0.7014231   -0.0851235     0.0004068    0.0003617     0.0004769    0.0002006     0.0079421   -0.1684059 
   0.118879715     0.7012179   -0.1145999     0.0004922    0.0003572     0.0003669    0.0002769     0.0073988   -0.1680932 
   0.118979740     0.7031240   -0.1393654     0.0004359    0.0001369     0.0003562    0.0002963     0.0078441   -0.1679257 
   0.119079765     0.7023988   -0.1668539     0.0004370    0.0002242     0.0004004    0.0002185     0.0070092   -0.1676341 
   0.119179790     0.6989238   -0.1960945     0.0000938    0.0001784     0.0004346    0.0001567     0.0078803   -0.1676254 
   0.119279815     0.6969675   -0.2221397     0.0001599    0.0002152     0.0002395    0.0001291     0.0076352   -0.1678604 
   0.119379840     0.6922530   -0.2457887     0.0002202    0.0003168     0.0003089    0.0002622     0.0076575   -0.1682127 
   0.119479865     0.6888620   -0.2712288     0.0001410    0.0001794     0.0002311    0.0002518     0.0072619   -0.1683236 
   0.119579890     0.6806457   -0.2962787     0.0002550    0.0002945     0.0000733    0.0002355     0.0072308   -0.1676711 
   0.119679915     0.6743984   -0.3224597     0.0002047    0.0002023     0.0002808    0.0003168     0.0067888   -0.1674397 
   0.119779940     0.6679589   -0.3439924     0.0004295    0.0001340     0.0002265    0.0002624     0.0075898   -0.1681100 
   0.119879965     0.6577538   -0.3677452     0.0000805    0.0003353     0.0002559    0.0002939     0.0066152   -0.1674016 
   0.119979990     0.6492957   -0.3881042     0.0002442    0.0002993     0.0002370    0.0003477     0.0071713   -0.1672812 
   0.120080015     0.6388054   -0.4098631     0.0001251    0.0004432     0.0001943    0.0003352     0.0065677   -0.1671079 
   0.120180040     0.6309417   -0.4317404     0.0002070    0.0002549     0.0002429    0.0003139     0.0066398   -0.1676383 
   0.120280065     0.6186139   -0.4517666     0.0002059    0.0003543     0.0002108    0.0004273     0.0070264   -0.1674292 
   0.120380090     0.6068391   -0.4724786     0.0003797    0.0004853     0.0001823    0.0003423     0.0069083   -0.1675300 
   0.120480115     0.5944526   -0.4912265     0.0002866    0.0005592     0.0001527    0.0004652     0.0066587   -0.1668530 
   0.120580140     0.5797595   -0.5085878     0.0001621    0.0003145     0.0001071    0.0003408     0.0060567   -0.1671416 
   0.120680165     0.5667699   -0.5255838    -0.0000467    0.0003915     0.0001896    0.0003783     0.0058247   -0.1675226 
   0.120780190     0.5574672   -0.5460498     0.0000844    0.0003217     0.0001236    0.0004007     0.0060942   -0.1672395 
   0.120880215     0.5413370   -0.5569833     0.0000776    0.0003716     0.0002369    0.0004430     0.0062143   -0.1677518 
   0.120980240     0.5252553   -0.5756444     0.0000359    0.0005748    -0.0000143    0.0005264     0.0058804   -0.1673627 
   0.121080265     0.5101954   -0.5925948    -0.0000925    0.0004134     0.0000341    0.0004441     0.0052877   -0.1669578 
   0.121180290     0.4951350   -0.6034388     0.0000290    0.0004640    -0.0000170    0.0004549     0.0053211   -0.1665556 
   0.121280315     0.4828629   -0.6184307     0.0001205    0.0004890     0.0000219    0.0004558     0.0057134   -0.1671882 
   0.121380340     0.4669985   -0.6308461    -0.0002841    0.0004201     0.0000905    0.0006134     0.0059166   -0.1668815 
   0.121480365     0.4490589   -0.6467403     0.0001760    0.0004933     0.0000707    0.0005013     0.0054360   -0.1666222 
   0.121580390     0.4363299   -0.6561310     0.0001215    0.0006764     0.0001357    0.0004857     0.0053030   -0.1660511 
   0.121680415     0.4173816   -0.6675457     0.0000663    0.0005203     0.0000459    0.0004973     0.0058664   -0.1672529 
   0.121780440     0.4057599   -0.6755435     0.0001875    0.0005542    -0.0000237    0.0006580     0.0056225   -0.1667028 
   0.121880465     0.3888880   -0.6860512     0.0000596    0.0004215     0.0000792    0.0005534     0.0058739   -0.1658282 
   0.121980490     0.3693970   -0.6972751    -0.0000148    0.0003839    -0.0000829    0.0006586     0.0053510   -0.1670942 
   0.122080515     0.3516732   -0.7032095     0.0000699    0.0008407     0.0001567    0.0005946     0.0052262   -0.1662543 
   0.122180540     0.3383514   -0.7135083     0.0004253    0.0008627    -0.0000636    0.0007476     0.0049990   -0.1662674 
   0.122280565     0.3228334   -0.7213801     0.0000296    0.0004699     0.0000026    0.0006472     0.0046707   -0.1667420 
   0.122380590     0.3026740   -0.7261167     0.0000599    0.0007205     0.0000162    0.0006765     0.0046434   -0.1660457 
   0.122480615     0.2914180   -0.7367750     0.0001047    0.0008111     0.0000822    0.0006527     0.0054050   -0.1663052 
   0.122580640     0.2725157   -0.7415829     0.0003103    0.0008966     0.0000713    0.0007296     0.0049580   -0.1665927 
   0.122680665     0.2560275   -0.7439308     0.0000438    0.0006714     0.0000374    0.0007561     0.0045180   -0.1658554 
   0.122780690     0.2421925   -0.7536200    -0.0002463    0.0006892     0.0001307    0.0007917     0.0045369   -0.1659785 
   0.122880715     0.2210160   -0.7561615     0.0003614    0.0010519    -0.0000225    0.0008130     0.0043410   -0.1664398 
   0.122980740     0.2058353   -0.7598619     0.0003135    0.0008105     0.0001009    0.0008023     0.0047704   -0.1661212 
   0.123080765     0.1881911   -0.7625682     0.0000262    0.0006788     0.0000968    0.0008073     0.0045047   -0.1659935 
   0.123180790     0.1718001   -0.7647449     0.0001359    0.0005743     0.0000559    0.0007782     0.0047634   -0.1656491 
   0.123280815     0.1557678   -0.7679853     0.0002071    0.0007392     0.0000904    0.0010283     0.0042182   -0.1657392 
   0.123380840     0.1441723   -0.7750903    -0.0002269    0.0009395     0.0001397    0.0005515     0.0038874   -0.1659818 
   0.123480865     0.1261755   -0.7714191     0.0002580    0.0009598     0.0002561    0.0008326     0.0031868   -0.1655216 
   0.123580890     0.1082843   -0.7766295    -0.0001745    0.0010833     0.0001112    0.0009211     0.0034932   -0.1661346 
   0.123680915     0.0944414   -0.7802392    -0.0001308    0.0006312     0.0001125    0.0009608     0.0038722   -0.1656124 
   0.123780940     0.0751367   -0.7792542     0.0001808    0.0010073     0.0000129    0.0011532     0.0038171   -0.1660796 
   0.123880965     0.0592585   -0.7797837     0.0002276    0.0009150     0.0000248    0.0009739     0.0038117   -0.1662575 
   0.123980990     0.0443333   -0.7758499     0.0002181    0.0008315     0.0000898    0.0010800     0.0037069   -0.1657992 
   0.124081016     0.0296180   -0.7761237     0.0000327    0.0010621     0.0000002    0.0009317     0.0036696   -0.1655896 
   0.124181041     0.0172696   -0.7761394     0.0002802    0.0007908     0.0000187    0.0011069     0.0032048   -0.1655988 
   0.124281066     0.0012479   -0.7784648     0.0004286    0.0012650     0.0001374    0.0009175     0.0030588   -0.1654407 
   0.124381091    -0.0122804   -0.7748806     0.0006122    0.0009143     0.0001502    0.0008787     0.0036685   -0.1653178 
   0.124481116    -0.0266088   -0.7662942     0.0000270    0.0010012     0.0000746    0.0013101     0.0031385   -0.1652298 
   0.124581141    -0.0471022   -0.7702155     0.0002360    0.0014679     0.0001276    0.0009222     0.0032918   -0.1652320 
   0.124681166    -0.0611573   -0.7653955     0.0005335    0.0009739     0.0002831    0.0009141     0.0028185   -0.1653506 
   0.124781191    -0.0742885   -0.7658454     0.0003063    0.0010049     0.0002180    0.0010523     0.0028315   -0.1651672 
   0.124881216    -0.0851760   -0.7600670    -0.0000275    0.0014141     0.0003279    0.0010120     0.0033610   -0.1650796 
   0.124981241    -0.1027462   -0.7591626     0.0000594    0.0010035     0.0002609    0.0011403     0.0027474   -0.1646547 
   0.125081266    -0.1143792   -0.7552208     0.0003819    0.0012388     0.0000420    0.0010815     0.0027998   -0.1646330 
   0.125181291    -0.1300979   -0.7501203     0.0002359    0.0007516     0.0001860    0.0011673     0.0029811   -0.1645937 
   0.125281316    -0.1448337   -0.7470271     0.0003624    0.0010266     0.0002690    0.0008768     0.0027491   -0.1653722 
   0.125381341    -0.1621799   -0.7414064     0.0001860    0.0012481     0.0002590    0.0011856     0.0029220   -0.1654444 
   0.125481366    -0.1686319   -0.7341777     0.0004105    0.0008322     0.0000160    0.0010091     0.0029079   -0.1651379 
   0.125581391    -0.1840293   -0.7323766     0.0004581    0.0012636     0.0003182    0.0012585     0.0023522   -0.1647795 
   0.125681416    -0.1990011   -0.7237722     0.0002460    0.0008347     0.0003163    0.0010671     0.0028101   -0.1645585 
   0.125781441    -0.2078272   -0.7208889     0.0005210    0.0011549     0.0001382    0.0013092     0.0020538   -0.1646720 
   0.125881466    -0.2228250   -0.7178519     0.0000657    0.0009767     0.0001153    0.0010965     0.0023338   -0.1647504 
   0.125981491    -0.2376098   -0.7088454    -0.0000566    0.0011267    -0.0000119    0.0010270     0.0018828   -0.1643205 
   0.126081516    -0.2497735   -0.7012440     0.0001392    0.0013297     0.0001893    0.0013269     0.0015911   -0.1645010 
   0.126181541    -0.2616868   -0.6945308     0.0001142    0.0012921     0.0002998    0.0011305     0.0016811   -0.1645421 
   0.126281566    -0.2787006   -0.6920477     0.0004478    0.0007089     0.0004676    0.0013175     0.0019338   -0.1649912 
   0.126381591    -0.2866513   -0.6839893     0.0005356    0.0010706     0.0002895    0.0012273     0.0017407   -0.1643163 
   0.126481616    -0.2994086   -0.6757476     0.0001515    0.0014147     0.0000312    0.0011955     0.0018592   -0.1647664 
   0.126581641    -0.3094458   -0.6664982     0.0006694    0.0012940     0.0003037    0.0011706     0.0017412   -0.1647994 
   0.126681666    -0.3227856   -0.6593060     0.0005351    0.0014345     0.0003444    0.0013567     0.0015512   -0.1645182 
   0.126781691    -0.3345765   -0.6513484     0.0002905    0.0007483     0.0004900    0.0011775     0.0018236   -0.1644401 
   0.126881716    -0.3443402   -0.6442222     0.0002338    0.0008634     0.0005789    0.0012028     0.0014714   -0.1642276 
   0.126981741    -0.3537217   -0.6335323     0.0007777    0.0009460     0.0004161    0.0013885     0.0011813   -0.1643804 
   0.127081766    -0.3690895   -0.6265878     0.0002689    0.0013678     0.0003383    0.0012791     0.0006094   -0.1638601 
   0.127181791    -0.3793401   -0.6122907     0.0005748    0.0015138     0.0004860    0.0015538     0.0012808   -0.1639673 
   0.127281816    -0.3857128   -0.6102672     0.0002482    0.0014748     0.0005759    0.0012994     0.0015284   -0.1641106 
   0.127381841    -0.4000042   -0.5908574     0.0003586    0.0015342     0.0004165    0.0013309     0.0005241   -0.1642436 
   0.127481866    -0.4093289   -0.5842376     0.0005876    0.0014383     0.0005900    0.0014146     0.0013179   -0.1639217 
   0.127581891    -0.4201761   -0.5776792     0.0009272    0.0006824     0.0005564    0.0013074     0.0007202   -0.1636815 
   0.127681916    -0.4240550   -0.5651555     0.0006685    0.0016879     0.0005606    0.0013265     0.0007174   -0.1640352 
   0.127781941    -0.4353637   -0.5535643     0.0007410    0.0011164     0.0004829    0.0012758     0.0010406   -0.1641758 
   0.127881966    -0.4456576   -0.5437874     0.0006840    0.0013236     0.0004401    0.0012996     0.0006597   -0.1636208 
   0.127981991    -0.4581280   -0.5371428     0.0000921    0.0010380     0.0005447    0.0010769     0.0000105   -0.1639266 
   0.128082016    -0.4671763   -0.5221313     0.0008364    0.0012973     0.0005858    0.0014418     0.0004437   -0.1635425 
   0.128182041    -0.4728082   -0.5094889     0.0007313    0.0017922     0.0004763    0.0015208     0.0004485   -0.1640773 
   0.128282066    -0.4787422   -0.4980110     0.0004207    0.0011913     0.0005003    0.0013958     0.0006826   -0.1636659 
   0.128382091    -0.4861490   -0.4853090     0.0005772    0.0007876     0.0008087    0.0015659    -0.0001795   -0.1631621 
   0.128482116    -0.4981216   -0.4727743     0.0001832    0.0014522     0.0005487    0.0014122    -0.0003242   -0.1636827 
   0.128582141    -0.5074535   -0.4620526     0.0001288    0.0011977     0.0007670    0.0013928     0.0003188   -0.1633887 
   0.128682166    -0.5134370   -0.4483620     0.0012334    0.0012269     0.0005638    0.0013258     0.0000440   -0.1635579 
   0.128782191    -0.5183085   -0.4360985     0.0001656    0.0014058     0.0005722    0.0012497    -0.0000720   -0.1633293 
   0.128882216    -0.5282112   -0.4172537     0.0004226    0.0011713     0.0007607    0.0017810    -0.0003745   -0.1636345 
   0.128982241    -0.5349364   -0.4068744     0.0011967    0.0009897     0.0005851    0.0011610    -0.0006277   -0.1632387 
   0.129082266    -0.5402830   -0.3949214     0.0013564    0.0014360     0.0005862    0.0009621    -0.0002133   -0.1633997 
   0.129182291    -0.5509601   -0.3847132     0.0010265    0.0017376     0.0005044    0.0011766    -0.0003394   -0.1635388 
   0.129282316    -0.5516751   -0.3695145     0.0006454    0.0013885     0.0004795    0.0015461    -0.0006259   -0.1634724 
   0.129382341    -0.5616730   -0.3575794     0.0009254    0.0012997     0.0004761    0.0010972    -0.0010512   -0.1631632 
   0.129482366    -0.5635005   -0.3382812     0.0006737    0.0010799     0.0007586    0.0012781    -0.0005839   -0.1630527 
   0.129582391    -0.5733874   -0.3241206     0.0012444    0.0017661     0.0008314    0.0013478    -0.0002627   -0.1635277 
   0.129682416    -0.5730808   -0.3073770     0.0011999    0.0018139     0.0008633    0.0015047    -0.0009462   -0.1624734 
   0.129782441    -0.5780401   -0.2909238     0.0006404    0.0013819     0.0005605    0.0011569    -0.0003302   -0.1631755 
   0.129882466    -0.5797791   -0.2793689     0.0006302    0.0017319     0.0008438    0.0014502    -0.0011348   -0.1628974 
   0.129982491    -0.5865939   -0.2655531     0.0007971    0.0010724     0.0009229    0.0016931    -0.0002411   -0.1629198 
   0.130082516    -0.5865008   -0.2500307     0.0008822    0.0012194     0.0005741    0.0012623    -0.0008051   -0.1627603 
   0.130182541    -0.5860265   -0.2331911     0.0012697    0.0012152     0.0009217    0.0012852    -0.0012856   -0.1628163 
   0.130282566    -0.5910070   -0.2127059     0.0007041    0.0012569     0.0006512    0.0013004    -0.0013176   -0.1634059 
   0.130382591    -0.5954270   -0.1988946     0.0008211    0.0018947     0.0007738    0.0011243    -0.0013546   -0.1625116 
   0.130482616    -0.5981628   -0.1850559     0.0006761    0.0010333     0.0009145    0.0015459    -0.0017795   -0.1624470 
   0.130582641    -0.5975678   -0.1678978     0.0007779    0.0016048     0.0006959    0.0014597    -0.0014336   -0.1623059 
   0.130682666    -0.5989878   -0.1507626     0.0009209    0.0013491     0.0010312    0.0013963    -0.0015583   -0.1624038 
   0.130782691    -0.6018085   -0.1358927     0.0010010    0.0016607     0.0011137    0.0015740    -0.0020732   -0.1624998 
   0.130882716    -0.5968127   -0.1157646     0.0009977    0.0010736     0.0010848    0.0012689    -0.0020330   -0.1622759 
   0.130982741    -0.6002423   -0.0994793     0.0012511    0.0010769     0.0008950    0.0010402    -0.0022147   -0.1627478 
   0.131082766    -0.5948046   -0.0836437     0.0013871    0.0015271     0.0009978    0.0012131    -0.0015362   -0.1625994 
   0.131182791    -0.5928469   -0.0681581     0.0009911    0.0013269     0.0012242    0.0011538    -0.0017739   -0.1621948 
   0.131282816    -0.5953768   -0.0446378     0.0008166    0.0008515     0.0011934    0.0013961    -0.0020074   -0.1617424 
   0.131382841    -0.5912563   -0.0300379     0.0012354    0.0011057     0.0012924    0.0011290    -0.0020332   -0.1625481 
   0.131482866    -0.5881566   -0.0122333     0.0015140    0.0008039     0.0011059    0.0010684    -0.0020870   -0.1622153 
   0.131582891    -0.5833408    0.0019784     0.0005372    0.0015671     0.0012462    0.0015359    -0.0025216   -0.1623358 
   0.131682916    -0.5803820    0.0252894     0.0010739    0.0016726     0.0009938    0.0013166    -0.0022369   -0.1619416 
   0.131782941    -0.5738717    0.0429749     0.0011017    0.0009289     0.0010411    0.0010476    -0.0025833   -0.1622847 
   0.131882966    -0.5745965    0.0565349     0.0009896    0.0013096     0.0010409    0.0011882    -0.0022735   -0.1619839 
   0.131982991    -0.5678176    0.0786478     0.0012817    0.0008971     0.0012927    0.0010744    -0.0027779   -0.1620070 
   0.132083017    -0.5560511    0.0963654     0.0011892    0.0010229     0.0013772    0.0012636    -0.0029776   -0.1616723 
   0.132183042    -0.5510896    0.1118429     0.0010872    0.0010870     0.0012312    0.0011365    -0.0034069   -0.1616473 
   0.132283067    -0.5463732    0.1302477     0.0009696    0.0009387     0.0009943    0.0010076    -0.0030659   -0.1614933 
   0.132383092    -0.5362412    0.1522013     0.0013753    0.0013335     0.0011019    0.0012217    -0.0031773   -0.1622281 
   0.132483117    -0.5274470    0.1668342     0.0010884    0.0009763     0.0011489    0.0011366    -0.0031451   -0.1614140 
   0.132583142    -0.5175131    0.1876825     0.0012032    0.0007191     0.0012409    0.0013955    -0.0034492   -0.1611371 
   0.132683167    -0.5071227    0.2013882     0.0013477    0.0010832     0.0012680    0.0012368    -0.0030964   -0.1615946 
   0.132783192    -0.4947142    0.2185248     0.0010511    0.0010557     0.0013244    0.0012176    -0.0037517   -0.1620422 
   0.132883217    -0.4827479    0.2387010     0.0011527    0.0014592     0.0012053    0.0011220    -0.0034182   -0.1615070 
   0.132983242    -0.4715306    0.2552759     0.0010754    0.0008850     0.0011422    0.0010795    -0.0032562   -0.1615326 
   0.133083267    -0.4580062    0.2720107     0.0012265    0.0010280     0.0013127    0.0009689    -0.0035000   -0.1615517 
   0.133183292    -0.4450238    0.2910171     0.0008674    0.0008103     0.0013007    0.0011827    -0.0033872   -0.1612352 
   0.133283317    -0.4333051    0.3043076     0.0018071    0.0008289     0.0015290    0.0010916    -0.0038655   -0.1610758 
   0.133383342    -0.4197349    0.3212193     0.0012671    0.0009335     0.0013180    0.0010598    -0.0040051   -0.1615969 
   0.133483367    -0.4009017    0.3372609     0.0016403    0.0010580     0.0012180    0.0009294    -0.0040204   -0.1615881 
   0.133583392    -0.3835382    0.3546618     0.0013537    0.0007796     0.0014472    0.0009897    -0.0037947   -0.1617020 
   0.133683417    -0.3657225    0.3666638     0.0009074    0.0007851     0.0013204    0.0009385    -0.0043472   -0.1616211 
   0.133783442    -0.3533509    0.3835221     0.0012895    0.0006383     0.0012569    0.0007968    -0.0043182   -0.1613227 
   0.133883467    -0.3278703    0.3917704     0.0013441    0.0009126     0.0013685    0.0008279    -0.0037537   -0.1612218 
   0.133983492    -0.3095565    0.4071538     0.0013398    0.0007719     0.0015200    0.0007772    -0.0043433   -0.1611367 
   0.134083517    -0.2910357    0.4206682     0.0012190    0.0005563     0.0015315    0.0008689    -0.0045794   -0.1606902 
   0.134183542    -0.2732200    0.4354305     0.0013621    0.0008731     0.0016423    0.0009780    -0.0044048   -0.1607373 
   0.134283567    -0.2465165    0.4453104     0.0014236    0.0008632     0.0012934    0.0008417    -0.0043209   -0.1611584 
   0.134383592    -0.2224690    0.4567713     0.0010269    0.0004868     0.0015097    0.0009119    -0.0045644   -0.1607836 
   0.134483617    -0.2017273    0.4645443     0.0010773    0.0005627     0.0014302    0.0007985    -0.0045295   -0.1609502 
   0.134583642    -0.1803957    0.4755560     0.0011464    0.0002899     0.0013285    0.0008068    -0.0048389   -0.1607466 
   0.134683667    -0.1556111    0.4833832     0.0015447    0.0005565     0.0017466    0.0006887    -0.0044075   -0.1607214 
   0.134783692    -0.1286733    0.4915943     0.0013085    0.0005258     0.0012154    0.0006068    -0.0047754   -0.1605217 
   0.134883717    -0.1035556    0.4989062     0.0015988    0.0006100     0.0013452    0.0005404    -0.0048042   -0.1605044 
   0.134983742    -0.0815923    0.5016845     0.0014499    0.0006620     0.0015130    0.0007095    -0.0053520   -0.1604429 
   0.135083767    -0.0553811    0.5073597     0.0013357    0.0004445     0.0014249    0.0004906    -0.0050389   -0.1608127 
   0.135183792    -0.0264199    0.5133474     0.0016087    0.0006576     0.0014418    0.0005553    -0.0049233   -0.1603930 
   0.135283817    -0.0035772    0.5145165     0.0012354    0.0006221     0.0011917    0.0005860    -0.0052302   -0.1606947 
   0.135383842     0.0268074    0.5120508     0.0012293    0.0006821     0.0014358    0.0007398    -0.0055660   -0.1602782 
   0.135483867     0.0526148    0.5140994     0.0013847    0.0007001     0.0014752    0.0004017    -0.0053758   -0.1607371 
   0.135583892     0.0817773    0.5116256     0.0012767    0.0004909     0.0013555    0.0005323    -0.0047934   -0.1607193 
   0.135683917     0.1090041    0.5126796     0.0014528    0.0003362     0.0012462    0.0003545    -0.0054898   -0.1606946 
   0.135783942     0.1383104    0.5090526     0.0011328    0.0004766     0.0014210    0.0003272    -0.0056953   -0.1605314 
   0.135883967     0.1624722    0.5029935     0.0016567    0.0003355     0.0013547    0.0003067    -0.0058661   -0.1600702 
   0.135983992     0.1902831    0.4994861     0.0015183    0.0002047     0.0013893    0.0003697    -0.0055417   -0.1605940 
   0.136084017     0.2169293    0.4881792     0.0015648    0.0001928     0.0013296    0.0003858    -0.0056670   -0.1604001 
   0.136184042     0.2468375    0.4808096     0.0012646    0.0005637     0.0013727    0.0002686    -0.0057483   -0.1605517 
   0.136284067     0.2719146    0.4725047     0.0013276    0.0002738     0.0013093    0.0003041    -0.0062787   -0.1597281 
   0.136384092     0.2989097    0.4604276     0.0011739    0.0002801     0.0013185    0.0002121    -0.0065855   -0.1597378 
   0.136484117     0.3273194    0.4461246     0.0012507    0.0003257     0.0012161    0.0001392    -0.0062806   -0.1602582 
   0.136584142     0.3521241    0.4345850     0.0011745    0.0002856     0.0013033    0.0000353    -0.0060730   -0.1598798 
   0.136684167     0.3763160    0.4190671     0.0011194    0.0001626     0.0011316    0.0002565    -0.0063966   -0.1598657 
   0.136784192     0.3996129    0.4031844     0.0010568    0.0004209     0.0011630    0.0001583    -0.0064582   -0.1598015 
   0.136884217     0.4240119    0.3880676     0.0011896    0.0002978     0.0011318    0.0001629    -0.0069130   -0.1600183 
   0.136984242     0.4507888    0.3695786     0.0011415    0.0001677     0.0010787    0.0000564    -0.0071030   -0.1598799 
   0.137084267     0.4693453    0.3490809     0.0010225    0.0001608     0.0010993    0.0001728    -0.0066772   -0.1600165 
   0.137184292     0.4899341    0.3288116     0.0010506    0.0000562     0.0011292    0.0000107    -0.0070725   -0.1596653 
   0.137284317     0.5103118    0.3104191     0.0011799    0.0000479     0.0010064    0.0001445    -0.0068330   -0.1592754 
   0.137384342     0.5281250    0.2867871     0.0011369    0.0003181     0.0009405    0.0001196    -0.0066329   -0.1598469 
   0.137484367     0.5495406    0.2618531     0.0009117   -0.0001285     0.0009385   -0.0000002    -0.0071054   -0.1598980 
   0.137584392     0.5653632    0.2412540     0.0009449   -0.0003234     0.0008827    0.0000363    -0.0068996   -0.1594630 
   0.137684417     0.5814115    0.2154283     0.0007827    0.0000865     0.0008815    0.0000859    -0.0066719   -0.1594013 
   0.137784442     0.5967250    0.1877594     0.0008485    0.0000248     0.0009352    0.0000745    -0.0068680   -0.1592652 
   0.137884467     0.6087211    0.1639088     0.0007983    0.0000267     0.0008319   -0.0000441    -0.0073006   -0.1602120 
   0.137984492     0.6226346    0.1363451     0.0008208   -0.0000981     0.0005936    0.0001307    -0.0076820   -0.1596170 
   0.138084517     0.6328411    0.1118816     0.0007023   -0.0000179     0.0008859    0.0000867    -0.0070133   -0.1594445 
   0.138184542     0.6415437    0.0843698     0.0007634    0.0000350     0.0006101    0.0000326    -0.0073510   -0.1595725 
   0.138284567     0.6515781    0.0556907     0.0005310    0.0001161     0.0006764    0.0001595    -0.0073093   -0.1592268 
   0.138384592     0.6571834    0.0297340     0.0005962    0.0003479     0.0007510    0.0001199    -0.0076432   -0.1592782 
   0.138484617     0.6629590    0.0024776     0.0008340    0.0002120     0.0007276    0.0000931    -0.0074239   -0.1590832 
   0.138584642     0.6701565   -0.0265191     0.0005317    0.0000257     0.0005770   -0.0000152    -0.0077068   -0.1593026 
   0.138684667     0.6740953   -0.0525868     0.0005725    0.0003729     0.0007732    0.0001747    -0.0079860   -0.1590938 
   0.138784692     0.6764103   -0.0776326     0.0009086   -0.0000042     0.0004325    0.0000118    -0.0080671   -0.1597369 
   0.138884717     0.6766539   -0.1075045     0.0004527    0.0000485     0.0005228    0.0000065    -0.0077869   -0.1590838 
   0.138984742     0.6749895   -0.1333813     0.0003983   -0.0000701     0.0006606    0.0002858    -0.0079232   -0.1591114 
   0.139084767     0.6758693   -0.1635061     0.0003834    0.0002692     0.0006249    0.0001864    -0.0083186   -0.1588223 
   0.139184792     0.6743139   -0.1887607     0.0006538   -0.0000532     0.0004971    0.0003009    -0.0081717   -0.1588604 
   0.139284817     0.6708385   -0.2171080     0.0002692    0.0003250     0.0004638    0.0001886    -0.0083520   -0.1588285 
   0.139384842     0.6655573   -0.2406278     0.0002269    0.0001846     0.0005662    0.0003148    -0.0084358   -0.1587009 
   0.139484867     0.6597878   -0.2672724     0.0003032    0.0004289     0.0004172    0.0000460    -0.0086800   -0.1587978 
   0.139584892     0.6536499   -0.2921177     0.0004723    0.0000019     0.0006102    0.0004397    -0.0078855   -0.1583823 
   0.139684917     0.6427558   -0.3143264     0.0006727    0.0004946     0.0002602    0.0003011    -0.0089376   -0.1592162 
   0.139784942     0.6369693   -0.3390358     0.0003874    0.0001283     0.0004062    0.0002650    -0.0087518   -0.1594768 
   0.139884967     0.6260657   -0.3627744     0.0001141    0.0003783     0.0003210    0.0001302    -0.0087637   -0.1585946 
   0.139984992     0.6174184   -0.3870371     0.0003466    0.0005257     0.0002492    0.0003120    -0.0083825   -0.1586477 
   0.140085018     0.6077830   -0.4079863     0.0002170    0.0002981     0.0003210    0.0001813    -0.0086654   -0.1583094 
   0.140185043     0.5984343   -0.4286991     0.0000544    0.0002735     0.0002049    0.0003630    -0.0091900   -0.1583389 
   0.140285068     0.5798578   -0.4466576     0.0008370    0.0007343     0.0003195    0.0005874    -0.0088371   -0.1586848 
   0.140385093     0.5707184   -0.4713920     0.0003905    0.0005132     0.0004246    0.0005910    -0.0086925   -0.1584338 
   0.140485118     0.5573951   -0.4895649     0.0004059    0.0004412     0.0004277    0.0002729    -0.0094933   -0.1580002 
   0.140585143     0.5443243   -0.5082010    -0.0000774    0.0000827     0.0002409    0.0005612    -0.0090133   -0.1583617 
   0.140685168     0.5273826   -0.5288345     0.0004817    0.0005924     0.0003616    0.0005139    -0.0092729   -0.1584461 
   0.140785193     0.5102609   -0.5421460     0.0004606    0.0001075     0.0003124    0.0005597    -0.0096099   -0.1578342 
   0.140885218     0.4972940   -0.5571988     0.0001523    0.0004475     0.0001374    0.0005531    -0.0091790   -0.1580121 
   0.140985243     0.4831675   -0.5745131     0.0003314    0.0007281     0.0002767    0.0003132    -0.0095627   -0.1583640 
   0.141085268     0.4705802   -0.5876791     0.0000602    0.0005622     0.0001298    0.0004019    -0.0096065   -0.1584618 
   0.141185293     0.4511822   -0.6057760     0.0005504    0.0005048     0.0000723    0.0002745    -0.0096596   -0.1576784 
   0.141285318     0.4351069   -0.6196048    -0.0000151    0.0002627     0.0001070    0.0008351    -0.0101474   -0.1577263 
   0.141385343     0.4150118   -0.6326784     0.0003727    0.0004972     0.0001913    0.0006342    -0.0104432   -0.1581916 
   0.141485368     0.4003081   -0.6457295     0.0005305    0.0004289     0.0001222    0.0006927    -0.0098191   -0.1584734 
   0.141585393     0.3834380   -0.6542485     0.0000997    0.0011098     0.0000835    0.0008295    -0.0099059   -0.1578368 
   0.141685418     0.3664923   -0.6655288     0.0006460    0.0009373     0.0001548    0.0008433    -0.0104355   -0.1577422 
   0.141785443     0.3438293   -0.6795118     0.0000142    0.0008556     0.0003682    0.0009425    -0.0102163   -0.1573406 
   0.141885468     0.3298630   -0.6848181     0.0005611    0.0004043    -0.0001034    0.0007250    -0.0099984   -0.1576900 
   0.141985493     0.3132603   -0.6948731     0.0001804    0.0011275    -0.0000272    0.0008713    -0.0105991   -0.1580401 
   0.142085518     0.2951586   -0.7051585    -0.0002033    0.0002638     0.0001130    0.0007198    -0.0106936   -0.1579110 
   0.142185543     0.2716611   -0.7149554     0.0002914    0.0004539     0.0004171    0.0004727    -0.0105185   -0.1576435 
   0.142285568     0.2587817   -0.7183712     0.0001821    0.0008062     0.0000996    0.0009116    -0.0110908   -0.1575152 
   0.142385593     0.2403040   -0.7203199    -0.0002128    0.0009982     0.0002917    0.0009638    -0.0110422   -0.1573054 
   0.142485618     0.2166172   -0.7336279     0.0005169    0.0006203     0.0002642    0.0006660    -0.0113112   -0.1574443 
   0.142585643     0.2033778   -0.7304557    -0.0000362    0.0008467     0.0001841    0.0009141    -0.0106851   -0.1575847 
   0.142685668     0.1839698   -0.7387736     0.0003457    0.0005330    -0.0001647    0.0006245    -0.0108700   -0.1575907 
   0.142785693     0.1652733   -0.7443220     0.0003535    0.0009489     0.0001373    0.0008021    -0.0111744   -0.1570797 
   0.142885718     0.1476294   -0.7484474     0.0002715    0.0009169     0.0002964    0.0009152    -0.0116462   -0.1571364 
   0.142985743     0.1284868   -0.7523347     0.0001132    0.0014225     0.0002355    0.0007657    -0.0111748   -0.1577089 
   0.143085768     0.1166596   -0.7539691     0.0005523    0.0009447     0.0001273    0.0008970    -0.0112554   -0.1574948 
   0.143185793     0.0921973   -0.7534914     0.0003717    0.0007638     0.0002973    0.0007356    -0.0118161   -0.1571717 
   0.143285818     0.0751427   -0.7534820     0.0003704    0.0008352     0.0001447    0.0010527    -0.0118465   -0.1571024 
   0.143385843     0.0575389   -0.7545844     0.0005519    0.0012931     0.0002203    0.0014337    -0.0115711   -0.1570484 
   0.143485868     0.0399350   -0.7566909     0.0008038    0.0012439     0.0000698    0.0008404    -0.0112345   -0.1568770 
   0.143585893     0.0233129   -0.7598994     0.0002525    0.0008400     0.0003855    0.0007921    -0.0121162   -0.1568337 
   0.143685918     0.0085137   -0.7500099    -0.0001275    0.0008359     0.0001239    0.0008877    -0.0117219   -0.1571101 
   0.143785943    -0.0086352   -0.7502835     0.0003125    0.0008917     0.0003927    0.0012265    -0.0122652   -0.1574617 
   0.143885968    -0.0268181   -0.7543868     0.0005991    0.0010836    -0.0000007    0.0009340    -0.0119640   -0.1570522 
   0.143985993    -0.0427363   -0.7504048    -0.0000357    0.0009255     0.0001522    0.0010062    -0.0119762   -0.1571510 
   0.144086018    -0.0608789   -0.7530937     0.0002686    0.0006047     0.0002748    0.0008908    -0.0119713   -0.1571387 
   0.144186043    -0.0785098   -0.7507242     0.0001891    0.0009863     0.0004178    0.0012959    -0.0127743   -0.1569090 
   0.144286068    -0.0886592   -0.7451575     0.0005347    0.0007394     0.0004772    0.0009409    -0.0122680   -0.1572455 
   0.144386093    -0.1097038   -0.7371736     0.0004013    0.0010687     0.0007391    0.0014990    -0.0119833   -0.1572751 
   0.144486118    -0.1231387   -0.7374838    -0.0000383    0.0016954     0.0005445    0.0013514    -0.0126140   -0.1570190 
   0.144586143    -0.1341109   -0.7307523     0.0001725    0.0010245     0.0003004    0.0009449    -0.0129927   -0.1566951 
   0.144686168    -0.1520237   -0.7238107     0.0005764    0.0019102     0.0003503    0.0013632    -0.0122717   -0.1561464 
   0.144786193    -0.1695325   -0.7215355     0.0000835    0.0011780     0.0003373    0.0014176    -0.0130147   -0.1565517 
   0.144886218    -0.1844104   -0.7161030     0.0011136    0.0008681     0.0003447    0.0012247    -0.0125917   -0.1566730 
   0.144986243    -0.1984479   -0.7093272     0.0006218    0.0012594     0.0004886    0.0015135    -0.0126880   -0.1566003 
   0.145086268    -0.2136086   -0.7070659     0.0004642    0.0008143     0.0006237    0.0009497    -0.0125980   -0.1564456 
   0.145186293    -0.2316510   -0.6994755     0.0004224    0.0009908     0.0004277    0.0012456    -0.0132352   -0.1571199 
   0.145286318    -0.2449745   -0.6932139     0.0003793    0.0016221     0.0004921    0.0013110    -0.0123779   -0.1565629 
   0.145386343    -0.2574257   -0.6834151     0.0001175    0.0011272     0.0003784    0.0013529    -0.0132781   -0.1562891 
   0.145486368    -0.2686706   -0.6756884     0.0011325    0.0010952     0.0005418    0.0013167    -0.0128980   -0.1558801 
   0.145586393    -0.2813902   -0.6672860     0.0006221    0.0009113     0.0004781    0.0013102    -0.0132377   -0.1565953 
   0.145686418    -0.2970752   -0.6633119     0.0006279    0.0015049     0.0005985    0.0013132    -0.0136303   -0.1563923 
   0.145786443    -0.3098908   -0.6518965     0.0002689    0.0014816     0.0006584    0.0012596    -0.0134632   -0.1558529 
   0.145886468    -0.3214768   -0.6458944     0.0002905    0.0012002     0.0003544    0.0012952    -0.0134520   -0.1568456 
   0.145986493    -0.3334965   -0.6399171     0.0004532    0.0014354     0.0007018    0.0014930    -0.0137664   -0.1555054 
   0.146086518    -0.3461409   -0.6284080     0.0005308    0.0012339     0.0006318    0.0014219    -0.0138843   -0.1557373 
   0.146186543    -0.3584183   -0.6224496     0.0004875    0.0015199     0.0006633    0.0013997    -0.0137986   -0.1557455 
   0.146286568    -0.3729033   -0.6085368     0.0008557    0.0014952     0.0004504    0.0012621    -0.0137808   -0.1562171 
   0.146386593    -0.3794086   -0.6005005     0.0004349    0.0010857     0.0008626    0.0014892    -0.0139102   -0.1560653 
   0.146486618    -0.3964850   -0.5912015     0.0010842    0.0009244     0.0004673    0.0010329    -0.0139490   -0.1566282 
   0.146586643    -0.4017612   -0.5823488     0.0008546    0.0012804     0.0007267    0.0010448    -0.0141972   -0.1557453 
   0.146686668    -0.4120986   -0.5725848     0.0002278    0.0015294     0.0006572    0.0014975    -0.0145529   -0.1557781 
   0.146786693    -0.4239340   -0.5600827     0.0006904    0.0015891     0.0006473    0.0013741    -0.0138737   -0.1557157 
   0.146886718    -0.4313009   -0.5471836     0.0006277    0.0013651     0.0012265    0.0016051    -0.0141309   -0.1550700 
   0.146986743    -0.4433910   -0.5404840     0.0006817    0.0008719     0.0004830    0.0010820    -0.0145076   -0.1556175 
   0.147086768    -0.4568157   -0.5233681     0.0010402    0.0015596     0.0006567    0.0012307    -0.0147410   -0.1559993 
   0.147186793    -0.4652915   -0.5142680     0.0006656    0.0011767     0.0005225    0.0014400    -0.0151095   -0.1558449 
   0.147286818    -0.4703324   -0.5079481     0.0008679    0.0012455     0.0006445    0.0013568    -0.0142486   -0.1555111 
   0.147386843    -0.4804688   -0.4930327     0.0002250    0.0014207     0.0010025    0.0014755    -0.0150855   -0.1557861 
   0.147486868    -0.4909215   -0.4795331     0.0010287    0.0010547     0.0006103    0.0015356    -0.0144779   -0.1556046 
   0.147586893    -0.4971299   -0.4649390     0.0007141    0.0014094     0.0011169    0.0012747    -0.0149457   -0.1554743 
   0.147686918    -0.5055289   -0.4514723     0.0003768    0.0011996     0.0007945    0.0012613    -0.0148339   -0.1558838 
   0.147786943    -0.5117278   -0.4398219     0.0004938    0.0015721     0.0009421    0.0017558    -0.0148551   -0.1553370 
   0.147886968    -0.5221732   -0.4278870     0.0012660    0.0014824     0.0009108    0.0014259    -0.0149827   -0.1553539 
   0.147986993    -0.5251611   -0.4150286     0.0006583    0.0016701     0.0006904    0.0014524    -0.0153965   -0.1551363 
   0.148087019    -0.5351040   -0.4074848     0.0008625    0.0014607     0.0010434    0.0017564    -0.0153569   -0.1550239 
   0.148187044    -0.5419232   -0.3923169     0.0010234    0.0013524     0.0011161    0.0016436    -0.0154861   -0.1555729 
   0.148287069    -0.5524234   -0.3794317     0.0010544    0.0015610     0.0009680    0.0015420    -0.0160464   -0.1551857 
   0.148387094    -0.5520973   -0.3647574     0.0014313    0.0015180     0.0010431    0.0014464    -0.0154271   -0.1549896 
   0.148487119    -0.5600085   -0.3504912     0.0008390    0.0012150     0.0011476    0.0014486    -0.0157549   -0.1552755 
   0.148587144    -0.5659769   -0.3369635     0.0009971    0.0015910     0.0012301    0.0012929    -0.0152958   -0.1553908 
   0.148687169    -0.5701796   -0.3245133     0.0008429    0.0014594     0.0011620    0.0013458    -0.0159644   -0.1548811 
   0.148787194    -0.5740269   -0.3043226     0.0010263    0.0015197     0.0009271    0.0014363    -0.0157917   -0.1550799 
   0.148887219    -0.5781831   -0.2957869     0.0012563    0.0015928     0.0009594    0.0011679    -0.0160781   -0.1546762 
   0.148987244    -0.5837928   -0.2768793     0.0010906    0.0013845     0.0009613    0.0012713    -0.0154882   -0.1554368 
   0.149087269    -0.5838543   -0.2638247     0.0010498    0.0018742     0.0011751    0.0014509    -0.0160110   -0.1545305 
   0.149187294    -0.5911061   -0.2456623     0.0012239    0.0014497     0.0008971    0.0014392    -0.0156784   -0.1549430 
   0.149287319    -0.5909863   -0.2343336     0.0006309    0.0012324     0.0011449    0.0010800    -0.0165604   -0.1552345 
   0.149387344    -0.5900310   -0.2189408     0.0011456    0.0011146     0.0010337    0.0011236    -0.0162110   -0.1548127 
   0.149487369    -0.5971253   -0.2048612     0.0011950    0.0013616     0.0012372    0.0013234    -0.0164344   -0.1553755 
   0.149587394    -0.5974106   -0.1877777     0.0014016    0.0014233     0.0010723    0.0015637    -0.0163824   -0.1553374 
   0.149687419    -0.6018844   -0.1733646     0.0011463    0.0017268     0.0010652    0.0014655    -0.0167767   -0.1549793 
   0.149787444    -0.6031393   -0.1571933     0.0016495    0.0012958     0.0013265    0.0012371    -0.0168764   -0.1544561 
   0.149887469    -0.6027977   -0.1408319     0.0015807    0.0010041     0.0010729    0.0017005    -0.0166501   -0.1546359 
   0.149987494    -0.6073642   -0.1282954     0.0015083    0.0013992     0.0011405    0.0015499    -0.0163554   -0.1545226 
   0.150087519    -0.6044201   -0.1101229     0.0012094    0.0013096     0.0010941    0.0012600    -0.0166057   -0.1547714 
   0.150187544    -0.6046264   -0.1004184     0.0012329    0.0010861     0.0012426    0.0016024    -0.0168087   -0.1545823 
   0.150287569    -0.6058192   -0.0801815     0.0012342    0.0018097     0.0014072    0.0014508    -0.0169217   -0.1546012 
   0.150387594    -0.6027634   -0.0626534     0.0016059    0.0011917     0.0013816    0.0013916    -0.0167156   -0.1543161 
   0.150487619    -0.6010967   -0.0478936     0.0011057    0.0012891     0.0013940    0.0012017    -0.0167284   -0.1544982 
   0.150587644    -0.5999329   -0.0310979     0.0012002    0.0011987     0.0012126    0.0012901    -0.0168971   -0.1542110 
   0.150687669    -0.5981253   -0.0151986     0.0010735    0.0015773     0.0013586    0.0013509    -0.0175850   -0.1548793 
   0.150787694    -0.5949749    0.0001353     0.0012053    0.0012143     0.0015736    0.0012975    -0.0171281   -0.1543450 
   0.150887719    -0.5880245    0.0202343     0.0011782    0.0015012     0.0013645    0.0012627    -0.0173290   -0.1546359 
   0.150987744    -0.5888308    0.0301798     0.0015910    0.0011957     0.0015295    0.0012467    -0.0173180   -0.1544682 
   0.151087769    -0.5836551    0.0498206     0.0014917    0.0010882     0.0014309    0.0012991    -0.0174727   -0.1539384 
   0.151187794    -0.5771796    0.0664246     0.0013537    0.0012137     0.0014397    0.0012133    -0.0176704   -0.1544271 
   0.151287819    -0.5740623    0.0845694     0.0016139    0.0014208     0.0014130    0.0012113    -0.0172300   -0.1540684 
   0.151387844    -0.5692502    0.0973065     0.0017141    0.0011280     0.0014676    0.0011000    -0.0179323   -0.1540558 
   0.151487869    -0.5619560    0.1172788     0.0016042    0.0014107     0.0014656    0.0013497    -0.0175658   -0.1539327 
   0.151587894    -0.5576430    0.1305281     0.0013785    0.0012834     0.0014854    0.0012601    -0.0176986   -0.1540703 
   0.151687919    -0.5469357    0.1484413     0.0014674    0.0013545     0.0015345    0.0011558    -0.0177909   -0.1530568 
   0.151787944    -0.5446939    0.1640683     0.0015932    0.0012015     0.0015650    0.0009740    -0.0180005   -0.1537928 
   0.151887969    -0.5325279    0.1799128     0.0014918    0.0011573     0.0013902    0.0012361    -0.0180782   -0.1540754 
   0.151987994    -0.5263474    0.1957591     0.0016243    0.0010116     0.0017323    0.0011121    -0.0183465   -0.1530253 
   0.152088019    -0.5179663    0.2113854     0.0015251    0.0009949     0.0015970    0.0008966    -0.0181893   -0.1535926 
   0.152188044    -0.5070506    0.2252403     0.0015907    0.0010434     0.0016173    0.0010115    -0.0184167   -0.1537000 
   0.152288069    -0.4980170    0.2423784     0.0018133    0.0010558     0.0015311    0.0010435    -0.0182099   -0.1539486 
   0.152388094    -0.4861353    0.2569917     0.0016182    0.0009496     0.0013659    0.0007189    -0.0187495   -0.1535584 
   0.152488119    -0.4734854    0.2710130     0.0014530    0.0008343     0.0015641    0.0009667    -0.0192319   -0.1536944 
   0.152588144    -0.4624908    0.2860761     0.0016632    0.0009499     0.0015629    0.0010192    -0.0185530   -0.1533119 
   0.152688169    -0.4485760    0.3003621     0.0018804    0.0010990     0.0018175    0.0008365    -0.0187006   -0.1543647 
   0.152788194    -0.4381950    0.3166575     0.0017368    0.0012088     0.0016071    0.0008881    -0.0188917   -0.1531261 
   0.152888219    -0.4261789    0.3304857     0.0016445    0.0006811     0.0017067    0.0008862    -0.0190922   -0.1529338 
   0.152988244    -0.4100579    0.3458605     0.0019315    0.0007881     0.0018552    0.0008691    -0.0194478   -0.1538896 
   0.153088269    -0.3978089    0.3588821     0.0017840    0.0008550     0.0017278    0.0010484    -0.0184866   -0.1530239 
   0.153188294    -0.3816946    0.3702673     0.0015882    0.0009346     0.0016414    0.0008738    -0.0193480   -0.1532670 
   0.153288319    -0.3664758    0.3859397     0.0015976    0.0007866     0.0017203    0.0007543    -0.0187297   -0.1531184 
   0.153388344    -0.3496976    0.3963616     0.0017822    0.0007548     0.0018519    0.0007669    -0.0189387   -0.1529125 
   0.153488369    -0.3348455    0.4072799     0.0017962    0.0008098     0.0017923    0.0008025    -0.0189056   -0.1526908 
   0.153588394    -0.3171000    0.4188361     0.0017720    0.0007227     0.0018065    0.0006076    -0.0189432   -0.1532469 
   0.153688419    -0.2982014    0.4328198     0.0014510    0.0007922     0.0015831    0.0006697    -0.0193926   -0.1529969 
   0.153788444    -0.2788944    0.4422133     0.0017507    0.0008260     0.0016753    0.0006407    -0.0196514   -0.1528560 
   0.153888469    -0.2608478    0.4506925     0.0015879    0.0006883     0.0016443    0.0007005    -0.0199654   -0.1530678 
   0.153988494    -0.2428872    0.4624074     0.0016197    0.0004956     0.0018709    0.0007188    -0.0199904   -0.1525280 
   0.154088519    -0.2226133    0.4714409     0.0017915    0.0007903     0.0018787    0.0006931    -0.0198631   -0.1525824 
   0.154188544    -0.2017937    0.4800266     0.0014847    0.0004212     0.0016706    0.0006387    -0.0199114   -0.1527802 
   0.154288569    -0.1808563    0.4875326     0.0017910    0.0006742     0.0017666    0.0005404    -0.0201011   -0.1530558 
   0.154388594    -0.1569716    0.4920041     0.0016900    0.0006254     0.0015932    0.0005667    -0.0198715   -0.1523474 
   0.154488619    -0.1392554    0.5002854     0.0015875    0.0004773     0.0017482    0.0006104    -0.0196829   -0.1528436 
   0.154588644    -0.1151715    0.5065377     0.0017882    0.0002850     0.0018030    0.0005518    -0.0202094   -0.1529832 
   0.154688669    -0.0947395    0.5120912     0.0016810    0.0005436     0.0018542    0.0004007    -0.0198903   -0.1529890 
   0.154788694    -0.0705906    0.5147939     0.0016281    0.0003462     0.0015905    0.0005642    -0.0200708   -0.1522900 
   0.154888719    -0.0468664    0.5163617     0.0019058    0.0004525     0.0016266    0.0003984    -0.0202463   -0.1524097 
   0.154988744    -0.0256916    0.5194355     0.0016710    0.0003058     0.0016324    0.0004286    -0.0209543   -0.1526631 
   0.155088769    -0.0011497    0.5245010     0.0015219    0.0003865     0.0015986    0.0005102    -0.0206958   -0.1530788 
   0.155188794     0.0234585    0.5225188     0.0016761    0.0004995     0.0016750    0.0003088    -0.0205967   -0.1523621 
   0.155288819     0.0470487    0.5210354     0.0016228    0.0002066     0.0016364    0.0002960    -0.0205710   -0.1524983 
   0.155388844     0.0705455    0.5206748     0.0018285    0.0001376     0.0015243    0.0003251    -0.0207236   -0.1521065 
   0.155488869     0.0961501    0.5190389     0.0017652    0.0001213     0.0014291    0.0002102    -0.0207740   -0.1522806 
   0.155588894     0.1231976    0.5135840     0.0016638    0.0001239     0.0015540    0.0002809    -0.0210748   -0.1527094 
   0.155688919     0.1468090    0.5119066     0.0015519    0.0000572     0.0015885    0.0002313    -0.0207931   -0.1519783 
   0.155788944     0.1706506    0.5054606     0.0015350    0.0002651     0.0013595    0.0000684    -0.0203374   -0.1520608 
   0.155888969     0.1951731    0.4999920     0.0017729    0.0001540     0.0014831    0.0000133    -0.0210795   -0.1524149 
   0.155988994     0.2197201    0.4942349     0.0014838    0.0001169     0.0014466    0.0001893    -0.0214372   -0.1521583 
   0.156089020     0.2441808    0.4835129     0.0016509   -0.0000931     0.0014017    0.0001683    -0.0212342   -0.1523892 
   0.156189045     0.2683506    0.4725338     0.0015815    0.0002794     0.0016412    0.0001578    -0.0210392   -0.1519358 
   0.156289070     0.2924234    0.4633867     0.0017771    0.0000283     0.0013856    0.0002200    -0.0215152   -0.1514464 
   0.156389095     0.3142663    0.4547750     0.0014681    0.0000269     0.0013256    0.0000696    -0.0217111   -0.1524508 
   0.156489120     0.3366781    0.4391140     0.0014837    0.0001983     0.0013259   -0.0000906    -0.0215952   -0.1516136 
   0.156589145     0.3608972    0.4263510     0.0016801    0.0002067     0.0014372    0.0000019    -0.0211401   -0.1519693 
   0.156689170     0.3835844    0.4083699     0.0017305    0.0001067     0.0014543    0.0000670    -0.0214717   -0.1511045 
   0.156789195     0.4018836    0.3951558     0.0013569    0.0000037     0.0014989   -0.0001108    -0.0218033   -0.1515546 
   0.156889220     0.4242145    0.3800017     0.0010960    0.0000085     0.0015149    0.0001632    -0.0219003   -0.1520072 
   0.156989245     0.4463545    0.3606826     0.0011746    0.0001895     0.0012169   -0.0000739    -0.0219330   -0.1515911 
   0.157089270     0.4667026    0.3437031     0.0012232   -0.0000633     0.0011588   -0.0002116    -0.0223414   -0.1519139 
   0.157189295     0.4848418    0.3246199     0.0006491   -0.0002177     0.0013075    0.0000520    -0.0222360   -0.1517707 
   0.157289320     0.5027177    0.3036893     0.0011609    0.0000742     0.0011121    0.0001860    -0.0218662   -0.1520024 
   0.157389345     0.5193213    0.2808233     0.0015327    0.0001121     0.0012309   -0.0001305    -0.0225094   -0.1512141 
   0.157489370     0.5364529    0.2590100     0.0011489    0.0001472     0.0012473   -0.0001749    -0.0214822   -0.1505683 
   0.157589395     0.5516366    0.2351168     0.0011356   -0.0003159     0.0009726   -0.0000961    -0.0218244   -0.1515028 
   0.157689420     0.5662147    0.2173017     0.0009577    0.0001515     0.0012267    0.0000804    -0.0225281   -0.1517008 
   0.157789445     0.5800384    0.1925039     0.0009226   -0.0006203     0.0011412    0.0000719    -0.0227675   -0.1512770 
   0.157889470     0.5903513    0.1650852     0.0010115   -0.0000925     0.0009661    0.0002007    -0.0225578   -0.1514057 
   0.157989495     0.6033033    0.1423052     0.0011652   -0.0002146     0.0010948    0.0003089    -0.0232785   -0.1510870 
   0.158089520     0.6138146    0.1180878     0.0008593   -0.0001918     0.0009211    0.0001064    -0.0218378   -0.1515657 
   0.158189545     0.6232516    0.0909740     0.0007235    0.0000290     0.0010672   -0.0001860    -0.0228273   -0.1511510 
   0.158289570     0.6319465    0.0675446     0.0007747   -0.0000974     0.0009473    0.0000882    -0.0228848   -0.1513613 
   0.158389595     0.6379585    0.0391935     0.0007173   -0.0002127     0.0008817    0.0001109    -0.0227195   -0.1512993 
   0.158489620     0.6404166    0.0098052     0.0006175   -0.0000044     0.0007008   -0.0001212    -0.0233832   -0.1509779 
   0.158589645     0.6490158   -0.0183295     0.0008773   -0.0001448     0.0011369   -0.0003346    -0.0233103   -0.1505592 
   0.158689670     0.6519476   -0.0425625     0.0010494    0.0002183     0.0008876    0.0000007    -0.0230885   -0.1511783 
   0.158789695     0.6546656   -0.0644698    -0.0000663    0.0000848     0.0005950    0.0001648    -0.0233467   -0.1512783 
   0.158889720     0.6546663   -0.0931633     0.0010208    0.0000230     0.0004987   -0.0002081    -0.0231360   -0.1507792 
   0.158989745     0.6570342   -0.1219843     0.0004737    0.0000675     0.0007208   -0.0000307    -0.0229694   -0.1505380 
   0.159089770     0.6548946   -0.1477114     0.0007765    0.0001634     0.0008279    0.0000121    -0.0234402   -0.1499783 
   0.159189795     0.6518655   -0.1786465     0.0007480    0.0000582     0.0005878    0.0001090    -0.0233820   -0.1508672 
   0.159289820     0.6487952   -0.2031236     0.0006007    0.0002478     0.0005449    0.0001665    -0.0237957   -0.1506629 
   0.159389845     0.6400923   -0.2297501     0.0004395    0.0001949     0.0005595    0.0000346    -0.0234887   -0.1508538 
   0.159489870     0.6360602   -0.2532222     0.0010516   -0.0003063     0.0007023    0.0004209    -0.0239686   -0.1509954 
   0.159589895     0.6277788   -0.2775574     0.0004105    0.0000359     0.0004655    0.0000376    -0.0237512   -0.1507559 
   0.159689920     0.6224615   -0.3042108     0.0010203    0.0003032     0.0009206    0.0001016    -0.0238578   -0.1506646 
   0.159789945     0.6126269   -0.3249840     0.0002741    0.0001100     0.0006468    0.0003356    -0.0233687   -0.1506763 
   0.159889970     0.6045265   -0.3516551     0.0005440   -0.0000699     0.0002905    0.0003986    -0.0238581   -0.1501473 
   0.159989995     0.5952754   -0.3742088     0.0006813    0.0002434     0.0003753    0.0000546    -0.0242930   -0.1503937 
   0.160090020     0.5835644   -0.3943847     0.0001614    0.0003008     0.0008808    0.0002528    -0.0240661   -0.1508421 
   0.160190045     0.5703909   -0.4188342     0.0007414    0.0003407     0.0006931    0.0000974    -0.0245055   -0.1500541 
   0.160290070     0.5583232   -0.4403175     0.0005289    0.0002204     0.0003219    0.0004190    -0.0242074   -0.1500480 
   0.160390095     0.5448837   -0.4591303     0.0006132    0.0001787     0.0004557    0.0003051    -0.0236900   -0.1502401 
   0.160490120     0.5260197   -0.4798238     0.0007457    0.0005539     0.0005334    0.0003738    -0.0250783   -0.1496682 
   0.160590145     0.5134251   -0.4994493    -0.0001458   -0.0001506     0.0002177    0.0002493    -0.0243497   -0.1500642 
   0.160690170     0.4971503   -0.5208274    -0.0002274    0.0000232     0.0001262    0.0005802    -0.0248276   -0.1504033 
   0.160790195     0.4822850   -0.5333614     0.0006028    0.0006176     0.0006876    0.0004403    -0.0242900   -0.1499924 
   0.160890220     0.4661186   -0.5462762     0.0005842    0.0007786     0.0004902    0.0004325    -0.0247019   -0.1501202 
   0.160990245     0.4479270   -0.5690371     0.0000421    0.0003555     0.0007573    0.0004685    -0.0241707   -0.1500341 
   0.161090270     0.4335387   -0.5865357     0.0003425    0.0006633     0.0003060    0.0005495    -0.0246161   -0.1496188 
   0.161190295     0.4111360   -0.5958612     0.0002338    0.0002994     0.0004192    0.0003678    -0.0253857   -0.1494795 
   0.161290320     0.3941071   -0.6108573     0.0008664    0.0007337     0.0004281    0.0005623    -0.0250151   -0.1500669 
   0.161390345     0.3746106   -0.6249525    -0.0001347    0.0002500     0.0002049    0.0004799    -0.0252095   -0.1496565 
   0.161490370     0.3606843   -0.6363255     0.0008758    0.0010133     0.0003352    0.0005460    -0.0248452   -0.1498177 
   0.161590395     0.3389838   -0.6457270     0.0002604    0.0009714     0.0003744    0.0007310    -0.0250209   -0.1503215 
   0.161690420     0.3164089   -0.6595997     0.0004059    0.0005624     0.0003546    0.0008379    -0.0249717   -0.1496404 
   0.161790445     0.3031749   -0.6655391     0.0003828    0.0009278     0.0002977    0.0010491    -0.0251874   -0.1493033 
   0.161890470     0.2792907   -0.6741169     0.0003166    0.0007952     0.0004218    0.0008754    -0.0251951   -0.1491475 
   0.161990495     0.2638423   -0.6848544     0.0000842    0.0008786     0.0003190    0.0007502    -0.0253335   -0.1493136 
   0.162090520     0.2431467   -0.6927062     0.0006352    0.0006371     0.0005181    0.0007220    -0.0255020   -0.1493473 
   0.162190545     0.2233387   -0.6985486     0.0006624    0.0005649     0.0004217    0.0005151    -0.0260219   -0.1493719 
   0.162290570     0.2061653   -0.7060961     0.0008213    0.0010426     0.0004305    0.0008228    -0.0256019   -0.1500346 
   0.162390595     0.1862393   -0.7109192     0.0002643    0.0012446     0.0006622    0.0007566    -0.0262599   -0.1495917 
   0.162490620     0.1599371   -0.7150985     0.0003501    0.0012566     0.0003882    0.0005677    -0.0256625   -0.1496326 
   0.162590645     0.1434826   -0.7169799     0.0004152    0.0007847     0.0005253    0.0009805    -0.0261165   -0.1496216 
   0.162690670     0.1222084   -0.7235427     0.0006695    0.0012539     0.0003797    0.0009268    -0.0260854   -0.1497020 
   0.162790695     0.1044022   -0.7262865     0.0002126    0.0011004     0.0004635    0.0007598    -0.0257016   -0.1495783 
   0.162890720     0.0878684   -0.7281498     0.0007330    0.0010974     0.0004180    0.0009699    -0.0268536   -0.1494602 
   0.162990745     0.0696586   -0.7294689     0.0003218    0.0012260     0.0004041    0.0008619    -0.0261362   -0.1486492 
   0.163090770     0.0443130   -0.7308903     0.0005472    0.0009345     0.0004931    0.0011979    -0.0265220   -0.1488260 
   0.163190795     0.0299921   -0.7321750     0.0006396    0.0008599     0.0002716    0.0009238    -0.0258196   -0.1486522 
   0.163290820     0.0048688   -0.7299494     0.0007102    0.0009574     0.0004104    0.0008827    -0.0264943   -0.1486250 
   0.163390845    -0.0108922   -0.7301534     0.0010731    0.0007353     0.0003726    0.0008696    -0.0269737   -0.1494084 
   0.163490870    -0.0292117   -0.7304950    -0.0000488    0.0009915     0.0002920    0.0012960    -0.0267116   -0.1484853 
   0.163590895    -0.0456805   -0.7272003     0.0005425    0.0010865     0.0003205    0.0010208    -0.0268491   -0.1485494 
   0.163690920    -0.0706989   -0.7265878     0.0004090    0.0011209     0.0005747    0.0011450    -0.0265211   -0.1483135 
   0.163790945    -0.0863521   -0.7155845     0.0005663    0.0012992     0.0007070    0.0012587    -0.0268711   -0.1485249 
   0.163890970    -0.1026979   -0.7173612     0.0007346    0.0010370     0.0003890    0.0010055    -0.0278019   -0.1487786 
   0.163990995    -0.1214364   -0.7121456     0.0006346    0.0012407     0.0005841    0.0013574    -0.0273740   -0.1487387 
   0.164091021    -0.1346628   -0.7089741     0.0003078    0.0013715     0.0007233    0.0010724    -0.0269113   -0.1492564 
   0.164191046    -0.1532779   -0.7022720     0.0004321    0.0011402     0.0004938    0.0011674    -0.0270468   -0.1482720 
   0.164291071    -0.1644409   -0.6999804     0.0005730    0.0012893     0.0005874    0.0015001    -0.0271697   -0.1485030 
   0.164391096    -0.1890285   -0.6907314     0.0004221    0.0011660     0.0006623    0.0012485    -0.0279131   -0.1484385 
   0.164491121    -0.2050368   -0.6850342     0.0007994    0.0015371     0.0005623    0.0011518    -0.0276968   -0.1482452 
   0.164591146    -0.2191313   -0.6763222     0.0003855    0.0010666     0.0006590    0.0012844    -0.0271479   -0.1484775 
   0.164691171    -0.2360244   -0.6713428     0.0005691    0.0013773     0.0006014    0.0015367    -0.0275959   -0.1483624 
   0.164791196    -0.2506720   -0.6637363     0.0006086    0.0012958     0.0007594    0.0013110    -0.0274728   -0.1479610 
   0.164891221    -0.2669149   -0.6601982     0.0007262    0.0010933     0.0008953    0.0013990    -0.0280090   -0.1484536 
   0.164991246    -0.2796917   -0.6488325     0.0008658    0.0014971     0.0007674    0.0013166    -0.0277521   -0.1478172 
   0.165091271    -0.2943670   -0.6413256     0.0008522    0.0011715     0.0008469    0.0014399    -0.0277593   -0.1479235 
   0.165191296    -0.3052939   -0.6324271     0.0010501    0.0011747     0.0008233    0.0013044    -0.0275127   -0.1481964 
   0.165291321    -0.3193869   -0.6222191     0.0006027    0.0015977     0.0009190    0.0013763    -0.0276240   -0.1478073 
   0.165391346    -0.3337796   -0.6163973     0.0009995    0.0015551     0.0009824    0.0013126    -0.0280151   -0.1473448 
   0.165491371    -0.3479815   -0.6044982     0.0011920    0.0013949     0.0007914    0.0012195    -0.0279118   -0.1480670 
   0.165591396    -0.3612125   -0.5964100     0.0008091    0.0017283     0.0008948    0.0012980    -0.0280871   -0.1473088 
   0.165691421    -0.3748357   -0.5829890     0.0011137    0.0011571     0.0009206    0.0013830    -0.0289211   -0.1475920 
   0.165791446    -0.3841262   -0.5731774     0.0009565    0.0011590     0.0009568    0.0013364    -0.0288381   -0.1478070 
   0.165891471    -0.3965491   -0.5663695     0.0009705    0.0013710     0.0011098    0.0015069    -0.0278355   -0.1479630 
   0.165991496    -0.4120067   -0.5532475     0.0010468    0.0014131     0.0011317    0.0014047    -0.0287948   -0.1478843 
   0.166091521    -0.4218415   -0.5418967     0.0006695    0.0014934     0.0009681    0.0014143    -0.0288132   -0.1473338 
   0.166191546    -0.4314352   -0.5290144     0.0010030    0.0015547     0.0010734    0.0015107    -0.0289620   -0.1480097 
   0.166291571    -0.4430292   -0.5185825     0.0011194    0.0015333     0.0009039    0.0013303    -0.0291330   -0.1475054 
   0.166391596    -0.4558703   -0.5095735     0.0009450    0.0016535     0.0011107    0.0014574    -0.0286550   -0.1477300 
   0.166491621    -0.4684125   -0.4944928     0.0012977    0.0013787     0.0011949    0.0015094    -0.0286200   -0.1478001 
   0.166591646    -0.4733149   -0.4800690     0.0010773    0.0017130     0.0010995    0.0014052    -0.0293734   -0.1471581 
   0.166691671    -0.4815663   -0.4697991     0.0006805    0.0011232     0.0012934    0.0012975    -0.0295833   -0.1472971 
   0.166791696    -0.4924506   -0.4585485     0.0014473    0.0016402     0.0011793    0.0012611    -0.0294025   -0.1468522 
   0.166891721    -0.5004589   -0.4447221     0.0011428    0.0015751     0.0012669    0.0015065    -0.0297487   -0.1473140 
   0.166991746    -0.5076745   -0.4297883     0.0011361    0.0011633     0.0012209    0.0014598    -0.0292609   -0.1470217 
   0.167091771    -0.5173709   -0.4208786     0.0011854    0.0016337     0.0010839    0.0015096    -0.0298258   -0.1476141 
   0.167191796    -0.5237423   -0.4051481     0.0011502    0.0013076     0.0011352    0.0015762    -0.0295794   -0.1468915 
   0.167291821    -0.5325255   -0.3941437     0.0013294    0.0012996     0.0014304    0.0013757    -0.0291000   -0.1471440 
   0.167391846    -0.5368304   -0.3782322     0.0012257    0.0012039     0.0014623    0.0013746    -0.0296003   -0.1472447 
   0.167491871    -0.5452173   -0.3648622     0.0010804    0.0015336     0.0012855    0.0012945    -0.0296234   -0.1472425 
   0.167591896    -0.5497007   -0.3510962     0.0013684    0.0010637     0.0012920    0.0014186    -0.0298922   -0.1465364 
   0.167691921    -0.5576013   -0.3362156     0.0014925    0.0016397     0.0013063    0.0013668    -0.0299946   -0.1473817 
   0.167791946    -0.5627118   -0.3233355     0.0013055    0.0014419     0.0013605    0.0013652    -0.0296180   -0.1469928 
   0.167891971    -0.5683176   -0.3085845     0.0016403    0.0016026     0.0012532    0.0012740    -0.0293925   -0.1470572 
   0.167991996    -0.5734986   -0.2941817     0.0015098    0.0015369     0.0013972    0.0013713    -0.0293153   -0.1463902 
   0.168092021    -0.5765868   -0.2804954     0.0014278    0.0013782     0.0014949    0.0014251    -0.0306942   -0.1467790 
   0.168192046    -0.5835123   -0.2656433     0.0015057    0.0013025     0.0014340    0.0013000    -0.0302024   -0.1463817 
   0.168292071    -0.5855476   -0.2519137     0.0015877    0.0014595     0.0014428    0.0012692    -0.0301238   -0.1476707 
   0.168392096    -0.5898746   -0.2369231     0.0015578    0.0014326     0.0016878    0.0014100    -0.0303692   -0.1472291 
   0.168492121    -0.5894874   -0.2226193     0.0016233    0.0013038     0.0015766    0.0013512    -0.0305415   -0.1470516 
   0.168592146    -0.5937672   -0.2054098     0.0015226    0.0010920     0.0015941    0.0013856    -0.0302878   -0.1466835 
   0.168692171    -0.5974067   -0.1922970     0.0015857    0.0012828     0.0015709    0.0012702    -0.0310135   -0.1463092 
   0.168792196    -0.5989205   -0.1767747     0.0015185    0.0013891     0.0014649    0.0011967    -0.0305192   -0.1462733 
   0.168892221    -0.5999064   -0.1610742     0.0015512    0.0013441     0.0016115    0.0015023    -0.0309381   -0.1458369 
   0.168992246    -0.6030935   -0.1460190     0.0014643    0.0015019     0.0014937    0.0011291    -0.0308756   -0.1463998 
   0.169092271    -0.6036209   -0.1307435     0.0014264    0.0011881     0.0015728    0.0013213    -0.0313496   -0.1459034 
   0.169192296    -0.6027077   -0.1157378     0.0015698    0.0013870     0.0016801    0.0013538    -0.0313776   -0.1462858 
   0.169292321    -0.6036471   -0.0984279     0.0016585    0.0012834     0.0015901    0.0011544    -0.0309973   -0.1458916 
   0.169392346    -0.6035851   -0.0851167     0.0015411    0.0014642     0.0017369    0.0011773    -0.0306677   -0.1454534 
   0.169492371    -0.6041656   -0.0708009     0.0015400    0.0011396     0.0016478    0.0011739    -0.0309594   -0.1460502 
   0.169592396    -0.6023512   -0.0548956     0.0016957    0.0011873     0.0016093    0.0012690    -0.0312287   -0.1460954 
   0.169692421    -0.6011072   -0.0401034     0.0017971    0.0013901     0.0017553    0.0010988    -0.0321169   -0.1464998 
   0.169792446    -0.5986682   -0.0238297     0.0017127    0.0013356     0.0017810    0.0011744    -0.0319114   -0.1461961 
   0.169892471    -0.5972378   -0.0079059     0.0017671    0.0012248     0.0015571    0.0011342    -0.0315215   -0.1452959 
   0.169992496    -0.5946722    0.0056719     0.0019089    0.0012837     0.0017036    0.0011271    -0.0314551   -0.1454695 
   0.170092521    -0.5922446    0.0224671     0.0018469    0.0012916     0.0017674    0.0012115    -0.0319170   -0.1450710 
   0.170192546    -0.5878983    0.0386044     0.0015972    0.0011036     0.0017738    0.0011180    -0.0322349   -0.1448801 
   0.170292571    -0.5842021    0.0523595     0.0017249    0.0010847     0.0017739    0.0011092    -0.0321494   -0.1456998 
   0.170392596    -0.5813887    0.0649507     0.0017061    0.0011071     0.0017350    0.0009318    -0.0314134   -0.1457611 
   0.170492621    -0.5760827    0.0830795     0.0018799    0.0010507     0.0017605    0.0009831    -0.0326446   -0.1455069 
   0.170592646    -0.5726162    0.0970094     0.0017615    0.0008658     0.0017943    0.0010818    -0.0326056   -0.1460931 
   0.170692671    -0.5665681    0.1103949     0.0019068    0.0010495     0.0017412    0.0010796    -0.0327445   -0.1458024 
   0.170792696    -0.5626908    0.1270337     0.0020640    0.0011094     0.0018889    0.0010566    -0.0324177   -0.1455586 
   0.170892721    -0.5556702    0.1419747     0.0019707    0.0011194     0.0018380    0.0010175    -0.0319210   -0.1458446 
   0.170992746    -0.5495527    0.1582859     0.0018544    0.0009758     0.0017880    0.0010304    -0.0321260   -0.1453868 
   0.171092771    -0.5431896    0.1723555     0.0021023    0.0009340     0.0021039    0.0009508    -0.0326749   -0.1455327 
   0.171192796    -0.5365033    0.1854983     0.0022387    0.0009790     0.0018560    0.0008569    -0.0328633   -0.1451922 
   0.171292821    -0.5280631    0.2015535     0.0019547    0.0010799     0.0019907    0.0010374    -0.0327960   -0.1450852 
   0.171392846    -0.5200848    0.2149292     0.0018957    0.0009462     0.0019161    0.0010158    -0.0326717   -0.1452371 
   0.171492871    -0.5118405    0.2293957     0.0021903    0.0008994     0.0017554    0.0008859    -0.0329117   -0.1452269 
   0.171592896    -0.5024189    0.2446983     0.0020827    0.0009157     0.0019133    0.0008819    -0.0334713   -0.1451047 
   0.171692921    -0.4918857    0.2578842     0.0017583    0.0009798     0.0020189    0.0009580    -0.0327601   -0.1449724 
   0.171792946    -0.4835729    0.2694469     0.0020618    0.0009571     0.0018612    0.0007986    -0.0333330   -0.1456450 
   0.171892971    -0.4732325    0.2857669     0.0022980    0.0004971     0.0018932    0.0007915    -0.0332166   -0.1454762 
   0.171992996    -0.4621715    0.2974420     0.0021358    0.0008994     0.0019771    0.0007905    -0.0339279   -0.1447772 
   0.172093022    -0.4535205    0.3109019     0.0019067    0.0006434     0.0019897    0.0006840    -0.0331136   -0.1448976 
   0.172193047    -0.4410074    0.3237221     0.0021860    0.0007282     0.0019580    0.0007486    -0.0333784   -0.1450271 
   0.172293072    -0.4295097    0.3381201     0.0022222    0.0007481     0.0020339    0.0007290    -0.0331435   -0.1448779 
   0.172393097    -0.4169331    0.3463682     0.0021431    0.0006727     0.0018876    0.0006571    -0.0341379   -0.1448499 
   0.172493122    -0.4036096    0.3609821     0.0017771    0.0009801     0.0020641    0.0005821    -0.0335082   -0.1444786 
   0.172593147    -0.3921728    0.3748547     0.0020646    0.0005763     0.0019612    0.0008382    -0.0338845   -0.1449861 
   0.172693172    -0.3774554    0.3842066     0.0018541    0.0004376     0.0020860    0.0007074    -0.0336279   -0.1444349 
   0.172793197    -0.3645515    0.3941154     0.0019664    0.0006221     0.0019237    0.0005889    -0.0342579   -0.1449446 
   0.172893222    -0.3503749    0.4073552     0.0019528    0.0009273     0.0021214    0.0006926    -0.0340113   -0.1440973 
   0.172993247    -0.3344501    0.4180775     0.0019989    0.0009190     0.0020598    0.0007583    -0.0337587   -0.1445769 
   0.173093272    -0.3182790    0.4288694     0.0019514    0.0006100     0.0019420    0.0006161    -0.0337111   -0.1436964 
   0.173193297    -0.3037262    0.4393776     0.0018573    0.0005318     0.0018343    0.0004608    -0.0336249   -0.1446368 
   0.173293322    -0.2871520    0.4461209     0.0019266    0.0002188     0.0020081    0.0006205    -0.0342204   -0.1446235 
   0.173393347    -0.2723525    0.4556733     0.0019459    0.0005809     0.0020062    0.0006282    -0.0342358   -0.1444331 
   0.173493372    -0.2544751    0.4648177     0.0022023    0.0003782     0.0019846    0.0005213    -0.0341951   -0.1443251 
   0.173593397    -0.2386061    0.4734056     0.0021672    0.0002718     0.0021228    0.0002724    -0.0344762   -0.1445208 
   0.173693422    -0.2210586    0.4801163     0.0018913    0.0005914     0.0019907    0.0006502    -0.0354248   -0.1438455 
   0.173793447    -0.2015333    0.4852336     0.0016739    0.0005012     0.0019320    0.0003322    -0.0343185   -0.1436964 
   0.173893472    -0.1836761    0.4925332     0.0021452    0.0003958     0.0020312    0.0000414    -0.0348882   -0.1440263 
   0.173993497    -0.1637788    0.5004695     0.0018060    0.0003354     0.0018267    0.0003822    -0.0347287   -0.1437357 
   0.174093522    -0.1474485    0.5032302     0.0020734    0.0003576     0.0019113    0.0004965    -0.0351503   -0.1441692 
   0.174193547    -0.1278219    0.5112156     0.0016654    0.0003248     0.0019656    0.0004579    -0.0349531   -0.1434036 
   0.174293572    -0.1076622    0.5164410     0.0023510    0.0002701     0.0018923    0.0004092    -0.0346448   -0.1435290 
   0.174393597    -0.0866318    0.5202793     0.0020311    0.0001506     0.0020149    0.0002777    -0.0348045   -0.1432921 
   0.174493622    -0.0666886    0.5242510     0.0016960    0.0003801     0.0019554    0.0001290    -0.0348749   -0.1438771 
   0.174593647    -0.0488528    0.5252233     0.0023818    0.0005214     0.0021134    0.0002326    -0.0348477   -0.1440540 
   0.174693672    -0.0257474    0.5250114     0.0019127    0.0001047     0.0019358    0.0001119    -0.0360665   -0.1434457 
   0.174793697    -0.0035304    0.5307354     0.0018537   -0.0000909     0.0021071   -0.0000197    -0.0358674   -0.1440957 
   0.174893722     0.0160275    0.5286486     0.0018003   -0.0000756     0.0018092    0.0003115    -0.0357766   -0.1433317 
   0.174993747     0.0388477    0.5287870     0.0020121    0.0001339     0.0019349    0.0003004    -0.0349343   -0.1439424 
   0.175093772     0.0569950    0.5289702     0.0019530    0.0002185     0.0019255    0.0002400    -0.0354794   -0.1441047 
   0.175193797     0.0799056    0.5232158     0.0024523    0.0004052     0.0020713    0.0000420    -0.0356224   -0.1434897 
   0.175293822     0.1035410    0.5256895     0.0018725    0.0001113     0.0018274   -0.0001046    -0.0363207   -0.1436339 
   0.175393847     0.1251354    0.5202004     0.0016596   -0.0001518     0.0020733    0.0001989    -0.0354747   -0.1436685 
   0.175493872     0.1446956    0.5161528     0.0018021   -0.0000580     0.0018505   -0.0000931    -0.0363426   -0.1436932 
   0.175593897     0.1663152    0.5115582     0.0019821    0.0000828     0.0018302    0.0001225    -0.0355922   -0.1435272 
   0.175693922     0.1864499    0.5071009     0.0017141    0.0000868     0.0019180   -0.0001290    -0.0353911   -0.1432818 
   0.175793947     0.2109175    0.4989399     0.0020439   -0.0002118     0.0017922   -0.0001165    -0.0365336   -0.1433152 
   0.175893972     0.2324422    0.4917075     0.0020724    0.0001221     0.0017860    0.0001905    -0.0358413   -0.1433107 
   0.175993997     0.2532804    0.4834526     0.0016169    0.0001909     0.0016054   -0.0002113    -0.0360875   -0.1433870 
   0.176094022     0.2739836    0.4737376     0.0021248   -0.0001651     0.0018172   -0.0002365    -0.0361929   -0.1426637 
   0.176194047     0.2962731    0.4629211     0.0015939   -0.0002410     0.0017599   -0.0000133    -0.0359743   -0.1429488 
   0.176294072     0.3189756    0.4535669     0.0018621    0.0001003     0.0017073    0.0001092    -0.0369331   -0.1427823 
   0.176394097     0.3408118    0.4432159     0.0016829    0.0000431     0.0015882    0.0000166    -0.0369673   -0.1427859 
   0.176494122     0.3593021    0.4299114     0.0016028   -0.0002219     0.0019520   -0.0002492    -0.0368806   -0.1427123 
   0.176594147     0.3789113    0.4138552     0.0017913   -0.0005207     0.0018294   -0.0002620    -0.0360687   -0.1425956 
   0.176694172     0.3952705    0.4004776     0.0016574   -0.0003157     0.0013349    0.0000652    -0.0374380   -0.1424796 
   0.176794197     0.4198753    0.3885744     0.0012555    0.0000687     0.0016759   -0.0002604    -0.0377963   -0.1424608 
   0.176894222     0.4352449    0.3715396     0.0015534   -0.0005437     0.0016734    0.0000578    -0.0370969   -0.1417985 
   0.176994247     0.4527193    0.3551917     0.0015969   -0.0004075     0.0016677   -0.0003771    -0.0365753   -0.1424845 
   0.177094272     0.4690696    0.3372586     0.0017711   -0.0001459     0.0012751   -0.0001150    -0.0373244   -0.1421775 
   0.177194297     0.4861209    0.3174105     0.0016167   -0.0003715     0.0013143   -0.0004007    -0.0372049   -0.1422742 
   0.177294322     0.5034466    0.3010768     0.0017261   -0.0003972     0.0014676   -0.0001549    -0.0373049   -0.1425936 
   0.177394347     0.5177732    0.2780343     0.0011165   -0.0001296     0.0013033   -0.0003156    -0.0373297   -0.1422572 
   0.177494372     0.5323662    0.2604238     0.0011426   -0.0001554     0.0014219   -0.0002160    -0.0372802   -0.1421606 
   0.177594397     0.5485131    0.2372112     0.0011963   -0.0003837     0.0011325   -0.0002990    -0.0379685   -0.1428505 
   0.177694422     0.5605153    0.2167399     0.0011486   -0.0007894     0.0014124   -0.0003054    -0.0374035   -0.1419928 
   0.177794447     0.5715615    0.1936195     0.0011897   -0.0004443     0.0013231   -0.0002721    -0.0376364   -0.1424310 
   0.177894472     0.5806524    0.1695764     0.0012644   -0.0000202     0.0008723   -0.0002411    -0.0376072   -0.1422683 
   0.177994497     0.5921392    0.1438368     0.0014843   -0.0004712     0.0011823    0.0001546    -0.0380442   -0.1418102 
   0.178094522     0.6030883    0.1217994     0.0012516   -0.0004034     0.0009536   -0.0003665    -0.0373135   -0.1416743 
   0.178194547     0.6109391    0.0969439     0.0010620   -0.0000107     0.0010910   -0.0002423    -0.0382546   -0.1420593 
   0.178294572     0.6147730    0.0742091     0.0007522   -0.0003687     0.0009244   -0.0004005    -0.0375958   -0.1420240 
   0.178394597     0.6241577    0.0482344     0.0009663   -0.0001369     0.0010541   -0.0002321    -0.0382977   -0.1417896 
   0.178494622     0.6257789    0.0229250     0.0008851   -0.0001365     0.0007519   -0.0001508    -0.0381220   -0.1421864 
   0.178594647     0.6328636   -0.0023663     0.0011980   -0.0004153     0.0009700   -0.0001678    -0.0381183   -0.1416118 
   0.178694672     0.6364594   -0.0256410     0.0009016   -0.0002693     0.0010394   -0.0003917    -0.0391013   -0.1413060 
   0.178794697     0.6374532   -0.0511592     0.0008904    0.0001398     0.0009998   -0.0002359    -0.0380674   -0.1418332 
   0.178894722     0.6391712   -0.0755917     0.0011606   -0.0001676     0.0008520   -0.0003182    -0.0377399   -0.1417094 
   0.178994747     0.6368254   -0.1045778     0.0013443   -0.0004508     0.0009190    0.0001047    -0.0388952   -0.1415175 
   0.179094772     0.6372385   -0.1318357     0.0008610   -0.0000929     0.0009850    0.0000735    -0.0381857   -0.1413012 
   0.179194797     0.6332092   -0.1584209     0.0006128   -0.0000061     0.0008801   -0.0002221    -0.0392571   -0.1413282 
   0.179294822     0.6290811   -0.1834388     0.0006634    0.0001610     0.0009926    0.0000422    -0.0389196   -0.1416542 
   0.179394847     0.6248269   -0.2093824     0.0005405   -0.0002009     0.0007569   -0.0000185    -0.0380865   -0.1407346 
   0.179494872     0.6201388   -0.2348854     0.0007975   -0.0000363     0.0003972    0.0000862    -0.0396008   -0.1415707 
   0.179594897     0.6153769   -0.2579582     0.0007985    0.0002086     0.0007169    0.0001488    -0.0384665   -0.1413224 
   0.179694922     0.6091089   -0.2814216     0.0008184   -0.0000307     0.0007323   -0.0000264    -0.0393516   -0.1412818 
   0.179794947     0.5979440   -0.3062184     0.0006665    0.0000151     0.0005359    0.0001467    -0.0392764   -0.1410075 
   0.179894972     0.5897444   -0.3318624     0.0005078    0.0001694     0.0008878    0.0002093    -0.0398253   -0.1412755 
   0.179994997     0.5778912   -0.3525006     0.0007878   -0.0002526     0.0006200    0.0000417    -0.0389072   -0.1412207 
   0.180095023     0.5675127   -0.3755987     0.0009100    0.0004481     0.0006283    0.0001089    -0.0396904   -0.1410679 
   0.180195048     0.5541334   -0.3973605     0.0010162    0.0003536     0.0004762    0.0002625    -0.0396278   -0.1413608 
   0.180295073     0.5412189   -0.4194061     0.0004712    0.0004264     0.0006344    0.0001763    -0.0395439   -0.1403565 
   0.180395098     0.5315919   -0.4378621     0.0003697    0.0002672     0.0004944   -0.0000105    -0.0397764   -0.1409346 
   0.180495123     0.5115767   -0.4590732     0.0005166   -0.0000734     0.0006913    0.0004471    -0.0397805   -0.1409172 
   0.180595148     0.4994709   -0.4790936     0.0006297    0.0004102     0.0006537    0.0002623    -0.0401475   -0.1404719 
   0.180695173     0.4847203   -0.4966177     0.0003920    0.0003579     0.0007445    0.0002251    -0.0398243   -0.1413244 
   0.180795198     0.4691754   -0.5135882     0.0005119    0.0004071     0.0005273    0.0002342    -0.0400291   -0.1406229 
   0.180895223     0.4469583   -0.5314073     0.0003385    0.0003206     0.0004870    0.0003778    -0.0403029   -0.1402870 
   0.180995248     0.4318050   -0.5485434     0.0005882    0.0003338     0.0008795    0.0005197    -0.0402297   -0.1404822 
   0.181095273     0.4124892   -0.5644369     0.0003773    0.0006881     0.0007023    0.0004895    -0.0397436   -0.1407054 
   0.181195298     0.3912615   -0.5785713     0.0004417    0.0003845     0.0006617    0.0006129    -0.0403689   -0.1408250 
   0.181295323     0.3749519   -0.5947121     0.0003035    0.0005942     0.0005606    0.0005898    -0.0401639   -0.1405791 
   0.181395348     0.3551307   -0.6073683     0.0003800    0.0007029     0.0004454    0.0004411    -0.0400325   -0.1405629 
   0.181495373     0.3345564   -0.6179785     0.0007428    0.0003245     0.0006455    0.0005290    -0.0404527   -0.1405622 
   0.181595398     0.3169622   -0.6300497     0.0006164    0.0006226     0.0005300    0.0005583    -0.0408360   -0.1407026 
   0.181695423     0.2933574   -0.6418871     0.0005440    0.0008364     0.0004873    0.0007699    -0.0402964   -0.1401602 
   0.181795448     0.2733002   -0.6495445     0.0005516    0.0006808     0.0005754    0.0006931    -0.0407654   -0.1398513 
   0.181895473     0.2554344   -0.6578006     0.0006051    0.0007987     0.0005315    0.0006897    -0.0408876   -0.1398875 
   0.181995498     0.2307208   -0.6675227     0.0005794    0.0007402     0.0005102    0.0008104    -0.0409838   -0.1396050 
   0.182095523     0.2118598   -0.6732503     0.0005683    0.0008330     0.0005497    0.0008476    -0.0400117   -0.1391722 
   0.182195548     0.1876391   -0.6788626     0.0007465    0.0007266     0.0007828    0.0006058    -0.0410655   -0.1399228 
   0.182295573     0.1704621   -0.6869736     0.0004856    0.0009107     0.0005611    0.0007656    -0.0414817   -0.1398807 
   0.182395598     0.1475071   -0.6901504     0.0005652    0.0007561     0.0006224    0.0008848    -0.0414705   -0.1398911 
   0.182495623     0.1246037   -0.6956240     0.0002847    0.0010911     0.0005483    0.0007697    -0.0414498   -0.1401372 
   0.182595648     0.1043691   -0.6981655     0.0005753    0.0007983     0.0006954    0.0009171    -0.0413545   -0.1400149 
   0.182695673     0.0831559   -0.7013939     0.0005144    0.0007992     0.0006264    0.0008982    -0.0423499   -0.1398593 
   0.182795698     0.0610257   -0.7047691     0.0007142    0.0009088     0.0006917    0.0008062    -0.0415322   -0.1391492 
   0.182895723     0.0418031   -0.7030860     0.0008363    0.0009125     0.0007948    0.0010695    -0.0412298   -0.1397095 
   0.182995748     0.0220693   -0.7047619     0.0006465    0.0009915     0.0006620    0.0009417    -0.0421251   -0.1392920 
   0.183095773    -0.0000971   -0.7038982     0.0005692    0.0009281     0.0007737    0.0009065    -0.0420108   -0.1396330 
   0.183195798    -0.0207741   -0.7019995     0.0007250    0.0011567     0.0008212    0.0010235    -0.0418147   -0.1389282 
   0.183295823    -0.0404975   -0.7005396     0.0007134    0.0010645     0.0007816    0.0009566    -0.0422464   -0.1400293 
   0.183395848    -0.0586053   -0.7006293     0.0006042    0.0008604     0.0007189    0.0010821    -0.0422713   -0.1392166 
   0.183495873    -0.0800849   -0.6971803     0.0006514    0.0009900     0.0007256    0.0011169    -0.0420903   -0.1397080 
   0.183595898    -0.1007351   -0.6929718     0.0009188    0.0009633     0.0009298    0.0011547    -0.0423969   -0.1400186 
   0.183695923    -0.1212866   -0.6888613     0.0008680    0.0012293     0.0008420    0.0011935    -0.0421670   -0.1395176 
   0.183795948    -0.1364916   -0.6841501     0.0006924    0.0011522     0.0008401    0.0011665    -0.0422914   -0.1392579 
   0.183895973    -0.1572014   -0.6776838     0.0008541    0.0012426     0.0009310    0.0010103    -0.0428941   -0.1392100 
   0.183995998    -0.1774719   -0.6719682     0.0008536    0.0013162     0.0008935    0.0010797    -0.0423295   -0.1388839 
   0.184096023    -0.1931783   -0.6670014     0.0010118    0.0011508     0.0010180    0.0011147    -0.0428857   -0.1393338 
   0.184196048    -0.2111781   -0.6604565     0.0010210    0.0012185     0.0010163    0.0011587    -0.0429199   -0.1391403 
   0.184296073    -0.2268331   -0.6543660     0.0009167    0.0011973     0.0009219    0.0011713    -0.0422849   -0.1388529 
   0.184396098    -0.2457142   -0.6451023     0.0009634    0.0012550     0.0009607    0.0012623    -0.0426944   -0.1387406 
   0.184496123    -0.2618017   -0.6377535     0.0010093    0.0013367     0.0009531    0.0012749    -0.0424857   -0.1391519 
   0.184596148    -0.2785602   -0.6288206     0.0011235    0.0012335     0.0011689    0.0010495    -0.0427161   -0.1385802 
   0.184696173    -0.2946874   -0.6178997     0.0011529    0.0013221     0.0010262    0.0011483    -0.0434479   -0.1395067 
   0.184796198    -0.3104688   -0.6089661     0.0009479    0.0011814     0.0009861    0.0011383    -0.0431775   -0.1390270 
   0.184896223    -0.3285675   -0.6007163     0.0012289    0.0012999     0.0011590    0.0012518    -0.0434723   -0.1393800 
   0.184996248    -0.3416336   -0.5899225     0.0011603    0.0012451     0.0011669    0.0012246    -0.0432506   -0.1386532 
   0.185096273    -0.3548381   -0.5768728     0.0010916    0.0013658     0.0011283    0.0012079    -0.0432609   -0.1378898 
   0.185196298    -0.3702992   -0.5678502     0.0011984    0.0013944     0.0012859    0.0012365    -0.0428125   -0.1391341 
   0.185296323    -0.3836746   -0.5562012     0.0012344    0.0012620     0.0011451    0.0012628    -0.0431901   -0.1385143 
   0.185396348    -0.3943943   -0.5453818     0.0012308    0.0013331     0.0012657    0.0011719    -0.0442452   -0.1384516 
   0.185496373    -0.4077402   -0.5337383     0.0014362    0.0013393     0.0011751    0.0012949    -0.0428259   -0.1382585 
   0.185596398    -0.4201753   -0.5194016     0.0013525    0.0010986     0.0012292    0.0012034    -0.0440121   -0.1376298 
   0.185696423    -0.4324334   -0.5062656     0.0012824    0.0013154     0.0011193    0.0012335    -0.0435753   -0.1376426 
   0.185796448    -0.4435956   -0.4957089     0.0012484    0.0014739     0.0011755    0.0013550    -0.0438336   -0.1381939 
   0.185896473    -0.4555396   -0.4813798     0.0013831    0.0012738     0.0013092    0.0012986    -0.0446212   -0.1384815 
   0.185996498    -0.4636760   -0.4693305     0.0015469    0.0012687     0.0013761    0.0011685    -0.0446632   -0.1380762 
   0.186096523    -0.4766681   -0.4575468     0.0014389    0.0013791     0.0013960    0.0013363    -0.0438999   -0.1375582 
   0.186196548    -0.4845913   -0.4421083     0.0013439    0.0013604     0.0013949    0.0013349    -0.0445929   -0.1377763 
   0.186296573    -0.4950601   -0.4307415     0.0013624    0.0013679     0.0013450    0.0013702    -0.0440831   -0.1386144 
   0.186396598    -0.5054289   -0.4141177     0.0012452    0.0009479     0.0014245    0.0012561    -0.0442407   -0.1378635 
   0.186496623    -0.5107328   -0.4003631     0.0016006    0.0014589     0.0015363    0.0012620    -0.0446238   -0.1373944 
   0.186596648    -0.5224798   -0.3859858     0.0016968    0.0012408     0.0014412    0.0011778    -0.0442492   -0.1377530 
   0.186696673    -0.5285865   -0.3730269     0.0014824    0.0011957     0.0014633    0.0011372    -0.0443988   -0.1374486 
   0.186796698    -0.5373060   -0.3596818     0.0017007    0.0013607     0.0015403    0.0012331    -0.0443922   -0.1376461 
   0.186896723    -0.5425918   -0.3462059     0.0014710    0.0014125     0.0015403    0.0012391    -0.0446463   -0.1372913 
   0.186996748    -0.5474543   -0.3275692     0.0014211    0.0014897     0.0016532    0.0013370    -0.0444912   -0.1374151 
   0.187096773    -0.5537879   -0.3115483     0.0015602    0.0012601     0.0017389    0.0012299    -0.0453365   -0.1372462 
   0.187196798    -0.5592050   -0.2988530     0.0017703    0.0010587     0.0016252    0.0012889    -0.0454079   -0.1380090 
   0.187296823    -0.5658612   -0.2826346     0.0014753    0.0014203     0.0016756    0.0011489    -0.0455928   -0.1374920 
   0.187396848    -0.5712619   -0.2667189     0.0016401    0.0011534     0.0016313    0.0014097    -0.0451134   -0.1375233 
   0.187496873    -0.5780051   -0.2533093     0.0014847    0.0011853     0.0017576    0.0013202    -0.0453367   -0.1370732 
   0.187596898    -0.5807123   -0.2360004     0.0018093    0.0013203     0.0015964    0.0014350    -0.0449558   -0.1374231 
   0.187696923    -0.5844010   -0.2214948     0.0015656    0.0013682     0.0017501    0.0011172    -0.0453288   -0.1370174 
   0.187796948    -0.5879079   -0.2063764     0.0017836    0.0013399     0.0016290    0.0012673    -0.0456383   -0.1370227 
   0.187896973    -0.5899258   -0.1955567     0.0017122    0.0011194     0.0016945    0.0011922    -0.0452663   -0.1375608 
   0.187996998    -0.5902665   -0.1757116     0.0018449    0.0013647     0.0018377    0.0012123    -0.0454536   -0.1363271 
   0.188097024    -0.5958229   -0.1594254     0.0016619    0.0011969     0.0017365    0.0013822    -0.0460134   -0.1373214 
   0.188197049    -0.5962265   -0.1450863     0.0019654    0.0012696     0.0016925    0.0012296    -0.0455915   -0.1371456 
   0.188297074    -0.5989746   -0.1294567     0.0017564    0.0011911     0.0019401    0.0010897    -0.0456283   -0.1368039 
   0.188397099    -0.5997672   -0.1130172     0.0017897    0.0010257     0.0017749    0.0010851    -0.0467565   -0.1362519 
   0.188497124    -0.5981998   -0.0994927     0.0017812    0.0012396     0.0018130    0.0010417    -0.0454550   -0.1374061 
   0.188597149    -0.6001993   -0.0840409     0.0018233    0.0012009     0.0018868    0.0011214    -0.0463878   -0.1365873 
   0.188697174    -0.6005039   -0.0691645     0.0020728    0.0011578     0.0019321    0.0010494    -0.0455957   -0.1366103 
   0.188797199    -0.5993606   -0.0518767     0.0017564    0.0012186     0.0018267    0.0012038    -0.0471488   -0.1374067 
   0.188897224    -0.5990472   -0.0354476     0.0020810    0.0009727     0.0019512    0.0012004    -0.0465011   -0.1360570 
   0.188997249    -0.5981582   -0.0199271     0.0020188    0.0008980     0.0019528    0.0011882    -0.0460252   -0.1369763 
   0.189097274    -0.5984215   -0.0082599     0.0018006    0.0011276     0.0021051    0.0009782    -0.0472990   -0.1358429 
   0.189197299    -0.5952911    0.0077833     0.0020005    0.0008611     0.0019838    0.0010636    -0.0470182   -0.1367719 
   0.189297324    -0.5894132    0.0245271     0.0021822    0.0009266     0.0020910    0.0008240    -0.0472612   -0.1360896 
   0.189397349    -0.5860851    0.0378809     0.0017779    0.0009405     0.0020758    0.0010610    -0.0470891   -0.1357513 
   0.189497374    -0.5854256    0.0522636     0.0021502    0.0010259     0.0021496    0.0009075    -0.0466562   -0.1362192 
   0.189597399    -0.5821098    0.0697797     0.0018399    0.0009793     0.0018272    0.0011709    -0.0472549   -0.1358786 
   0.189697424    -0.5768406    0.0845174     0.0021838    0.0013032     0.0021706    0.0010574    -0.0470526   -0.1358113 
   0.189797449    -0.5734627    0.0973867     0.0022278    0.0006894     0.0022598    0.0010137    -0.0468916   -0.1367981 
   0.189897474    -0.5675139    0.1154209     0.0020199    0.0011030     0.0020615    0.0009099    -0.0479571   -0.1360769 
   0.189997499    -0.5630941    0.1274831     0.0020089    0.0012511     0.0020707    0.0009231    -0.0464634   -0.1356732 
   0.190097524    -0.5605355    0.1429065     0.0022723    0.0009057     0.0022194    0.0009011    -0.0472214   -0.1360009 
   0.190197549    -0.5531505    0.1578054     0.0024164    0.0010888     0.0022651    0.0011583    -0.0473387   -0.1359846 
   0.190297574    -0.5481668    0.1709979     0.0020628    0.0011002     0.0020225    0.0007072    -0.0480392   -0.1357068 
   0.190397599    -0.5410874    0.1846184     0.0021112    0.0010967     0.0020774    0.0010043    -0.0474326   -0.1352665 
   0.190497624    -0.5328649    0.1997206     0.0017582    0.0011398     0.0023214    0.0009541    -0.0483856   -0.1355630 
   0.190597649    -0.5246784    0.2118091     0.0026426    0.0006989     0.0022183    0.0009996    -0.0481775   -0.1357351 
   0.190697674    -0.5184739    0.2262769     0.0018279    0.0005612     0.0022934    0.0008177    -0.0479071   -0.1359064 
   0.190797699    -0.5114268    0.2407337     0.0022923    0.0006007     0.0024009    0.0008130    -0.0484409   -0.1357683 
   0.190897724    -0.5009663    0.2529398     0.0023767    0.0009541     0.0020649    0.0005054    -0.0479746   -0.1351075 
   0.190997749    -0.4924679    0.2677526     0.0022648    0.0007891     0.0019788    0.0006460    -0.0486604   -0.1352069 
   0.191097774    -0.4872230    0.2797366     0.0020121    0.0003170     0.0022308    0.0004927    -0.0483109   -0.1346152 
   0.191197799    -0.4760647    0.2914009     0.0021558    0.0006299     0.0021178    0.0007040    -0.0480921   -0.1352134 
   0.191297824    -0.4682400    0.3037505     0.0022607    0.0005098     0.0021967    0.0004279    -0.0484594   -0.1360004 
   0.191397849    -0.4562699    0.3186643     0.0023354    0.0006924     0.0024980    0.0007526    -0.0481595   -0.1348070 
   0.191497874    -0.4451144    0.3298765     0.0022113    0.0004265     0.0023871    0.0006194    -0.0483973   -0.1355188 
   0.191597899    -0.4351422    0.3414421     0.0023460    0.0009542     0.0022991    0.0007264    -0.0485679   -0.1349546 
   0.191697924    -0.4255532    0.3526099     0.0023936    0.0002229     0.0024041    0.0006080    -0.0487687   -0.1357951 
   0.191797949    -0.4121155    0.3642358     0.0022240    0.0002834     0.0023845    0.0005711    -0.0479168   -0.1344069 
   0.191897974    -0.4020122    0.3761277     0.0024083    0.0004153     0.0021337    0.0008000    -0.0487215   -0.1353674 
   0.191997999    -0.3881859    0.3869472     0.0019975    0.0003193     0.0023168    0.0006596    -0.0488341   -0.1356006 
   0.192098024    -0.3757258    0.3979274     0.0025273    0.0006202     0.0022982    0.0006113    -0.0491433   -0.1350955 
   0.192198049    -0.3633999    0.4053988     0.0020607    0.0006208     0.0024243    0.0007144    -0.0492485   -0.1345525 
   0.192298074    -0.3527186    0.4180508     0.0022622    0.0004906     0.0023149    0.0004459    -0.0494323   -0.1348291 
   0.192398099    -0.3358410    0.4275894     0.0022790    0.0004928     0.0023466    0.0003291    -0.0491862   -0.1344642 
   0.192498124    -0.3239383    0.4372641     0.0023731    0.0006604     0.0024912    0.0005264    -0.0494464   -0.1343041 
   0.192598149    -0.3083997    0.4452653     0.0025622    0.0004761     0.0022359    0.0004917    -0.0498442   -0.1354197 
   0.192698174    -0.2945670    0.4534970     0.0022195    0.0002326     0.0023129    0.0002618    -0.0496809   -0.1343031 
   0.192798199    -0.2794297    0.4622487     0.0023255    0.0005986     0.0025214    0.0003627    -0.0498381   -0.1343993 
   0.192898224    -0.2655640    0.4723045     0.0022874    0.0003452     0.0027173    0.0003473    -0.0495956   -0.1343966 
   0.192998249    -0.2495275    0.4779328     0.0026675    0.0005141     0.0023671    0.0004654    -0.0500228   -0.1345893 
   0.193098274    -0.2338746    0.4863381     0.0024498   -0.0001577     0.0024552    0.0002551    -0.0497502   -0.1344379 
   0.193198299    -0.2177667    0.4917401     0.0024066    0.0004845     0.0020751    0.0002227    -0.0502569   -0.1343583 
   0.193298324    -0.2019654    0.4982530     0.0022178    0.0001045     0.0025064    0.0004420    -0.0499561   -0.1345689 
   0.193398349    -0.1877771    0.5045511     0.0024770    0.0000265     0.0019944    0.0001923    -0.0501112   -0.1346348 
   0.193498374    -0.1714526    0.5103548     0.0020775    0.0003831     0.0022945    0.0001083    -0.0506412   -0.1341131 
   0.193598399    -0.1525785    0.5174341     0.0025681   -0.0000302     0.0023970    0.0001468    -0.0499922   -0.1343291 
   0.193698424    -0.1353706    0.5210089     0.0022660   -0.0000032     0.0025475    0.0002226    -0.0505438   -0.1335340 
   0.193798449    -0.1185619    0.5258670     0.0019634    0.0003200     0.0022480    0.0001671    -0.0502916   -0.1345939 
   0.193898474    -0.1004497    0.5307755     0.0023706   -0.0000085     0.0022354    0.0001252    -0.0506592   -0.1338543 
   0.193998499    -0.0823976    0.5319515     0.0023716   -0.0002747     0.0021161    0.0002459    -0.0507797   -0.1343005 
   0.194098524    -0.0634657    0.5352548     0.0026040   -0.0003584     0.0024351    0.0001213    -0.0504316   -0.1342892 
   0.194198549    -0.0455234    0.5357564     0.0021373    0.0000579     0.0021908    0.0000040    -0.0504300   -0.1338511 
   0.194298574    -0.0288556    0.5359603     0.0022078   -0.0003806     0.0021452    0.0003017    -0.0516416   -0.1339852 
   0.194398599    -0.0083920    0.5397377     0.0021064    0.0000924     0.0024167   -0.0001581    -0.0504597   -0.1340860 
   0.194498624     0.0090741    0.5397265     0.0022061   -0.0000287     0.0021455   -0.0000605    -0.0504822   -0.1334824 
   0.194598649     0.0265164    0.5393046     0.0022448   -0.0001984     0.0022917   -0.0000346    -0.0514475   -0.1338784 
   0.194698674     0.0464863    0.5405170     0.0017690    0.0002083     0.0021636   -0.0001890    -0.0510522   -0.1336824 
   0.194798699     0.0663506    0.5372876     0.0022905   -0.0001970     0.0023485   -0.0003031    -0.0511858   -0.1332019 
   0.194898724     0.0863249    0.5377495     0.0021542   -0.0000879     0.0019876   -0.0002761    -0.0508209   -0.1336658 
   0.194998749     0.1052620    0.5346543     0.0022655    0.0001432     0.0022778    0.0000158    -0.0510099   -0.1328632 
   0.195098774     0.1231694    0.5316721     0.0021653    0.0001423     0.0020881    0.0000295    -0.0510059   -0.1341682 
   0.195198799     0.1401302    0.5267068     0.0020462   -0.0005278     0.0018852   -0.0003849    -0.0508276   -0.1330823 
   0.195298824     0.1644187    0.5245885     0.0017030   -0.0000555     0.0017371   -0.0001938    -0.0513261   -0.1330844 
   0.195398849     0.1832849    0.5151600     0.0020070   -0.0003633     0.0022482   -0.0003242    -0.0516155   -0.1336154 
   0.195498874     0.2005192    0.5115132     0.0018668   -0.0001646     0.0020668   -0.0003327    -0.0517103   -0.1331346 
   0.195598899     0.2196842    0.5060869     0.0022959   -0.0003769     0.0022756   -0.0003402    -0.0514464   -0.1331947 
   0.195698924     0.2383327    0.4983482     0.0020889   -0.0002158     0.0019613   -0.0004627    -0.0516672   -0.1333200 
   0.195798949     0.2568958    0.4912985     0.0019010   -0.0002455     0.0021355   -0.0004591    -0.0514857   -0.1331449 
   0.195898974     0.2762969    0.4806538     0.0022310   -0.0005568     0.0018246   -0.0004297    -0.0525306   -0.1327757 
   0.195998999     0.2939232    0.4734224     0.0017387   -0.0002735     0.0018505   -0.0003698    -0.0513512   -0.1327696 
   0.196099025     0.3132327    0.4618208     0.0020158   -0.0004780     0.0019043   -0.0004236    -0.0519316   -0.1329529 
   0.196199050     0.3328444    0.4517038     0.0018199   -0.0006467     0.0020196   -0.0004412    -0.0524896   -0.1336489 
   0.196299075     0.3491191    0.4422984     0.0020820   -0.0006072     0.0020474   -0.0005477    -0.0528681   -0.1330503 
   0.196399100     0.3697162    0.4288024     0.0014892   -0.0003779     0.0016649   -0.0005138    -0.0520023   -0.1328065 
   0.196499125     0.3857378    0.4176534     0.0020378   -0.0006954     0.0018616   -0.0003453    -0.0522724   -0.1327274 
   0.196599150     0.4033648    0.4022462     0.0020471   -0.0005220     0.0015777   -0.0003818    -0.0536282   -0.1331501 
   0.196699175     0.4178073    0.3891861     0.0019396   -0.0003630     0.0017891   -0.0006172    -0.0525412   -0.1324598 
   0.196799200     0.4353044    0.3749168     0.0019661   -0.0005667     0.0014743   -0.0005377    -0.0528546   -0.1322847 
   0.196899225     0.4521507    0.3584162     0.0016160   -0.0004960     0.0016354   -0.0005433    -0.0530122   -0.1322968 
   0.196999250     0.4678715    0.3429576     0.0013993   -0.0004100     0.0017018   -0.0007250    -0.0534222   -0.1326474 
   0.197099275     0.4827767    0.3270882     0.0013889   -0.0004882     0.0012451   -0.0004723    -0.0530173   -0.1321016 
   0.197199300     0.4964268    0.3080291     0.0014380   -0.0005899     0.0015725   -0.0006692    -0.0529164   -0.1318016 
   0.197299325     0.5094849    0.2915093     0.0013818   -0.0006749     0.0017205   -0.0006976    -0.0530482   -0.1323784 
   0.197399350     0.5212732    0.2717879     0.0012244   -0.0004774     0.0014979   -0.0003043    -0.0537030   -0.1319918 
   0.197499375     0.5367140    0.2553933     0.0015870   -0.0006114     0.0014091   -0.0004931    -0.0534237   -0.1316739 
   0.197599400     0.5473130    0.2319441     0.0014189   -0.0005227     0.0013525   -0.0006075    -0.0532864   -0.1323703 
   0.197699425     0.5587521    0.2125488     0.0014486   -0.0007413     0.0014492   -0.0005078    -0.0536672   -0.1320328 
   0.197799450     0.5694482    0.1922804     0.0012262   -0.0004905     0.0013859   -0.0005489    -0.0536965   -0.1317302 
   0.197899475     0.5774317    0.1712499     0.0011953   -0.0004957     0.0014291   -0.0003140    -0.0538399   -0.1315223 
   0.197999500     0.5874557    0.1496979     0.0014061   -0.0004359     0.0011487   -0.0005238    -0.0541070   -0.1313598 
   0.198099525     0.5978665    0.1277319     0.0008714   -0.0004866     0.0012802   -0.0004181    -0.0536054   -0.1313860 
   0.198199550     0.6030182    0.1060427     0.0011517   -0.0004023     0.0012913   -0.0005417    -0.0535265   -0.1319179 
   0.198299575     0.6089666    0.0823690     0.0012550   -0.0004451     0.0012089   -0.0004586    -0.0543258   -0.1321454 
   0.198399600     0.6148130    0.0586808     0.0011584   -0.0005403     0.0013055   -0.0004642    -0.0539377   -0.1312805 
   0.198499625     0.6202741    0.0346593     0.0010313   -0.0001323     0.0011859   -0.0005264    -0.0545776   -0.1317160 
   0.198599650     0.6233165    0.0115167     0.0008366   -0.0002590     0.0011432   -0.0003640    -0.0540616   -0.1321143 
   0.198699675     0.6255761   -0.0123916     0.0008438   -0.0005821     0.0011815   -0.0004567    -0.0546771   -0.1315522 
   0.198799700     0.6273574   -0.0360596     0.0010901   -0.0004154     0.0010065   -0.0004016    -0.0544977   -0.1309340 
   0.198899725     0.6299425   -0.0607418     0.0011421   -0.0002428     0.0011957   -0.0003128    -0.0549266   -0.1315709 
   0.198999750     0.6292601   -0.0861558     0.0011020   -0.0004759     0.0009883   -0.0004233    -0.0546646   -0.1309059 
   0.199099775     0.6280313   -0.1105862     0.0010016   -0.0004431     0.0010704   -0.0002434    -0.0554553   -0.1311018 
   0.199199800     0.6265722   -0.1346225     0.0010881   -0.0003407     0.0009580   -0.0002455    -0.0557075   -0.1312661 
   0.199299825     0.6212416   -0.1587127     0.0009213   -0.0000842     0.0008669   -0.0001750    -0.0549540   -0.1308922 
   0.199399850     0.6184356   -0.1839759     0.0009186    0.0000091     0.0011267   -0.0004405    -0.0551384   -0.1310664 
   0.199499875     0.6139274   -0.2074567     0.0008583   -0.0001181     0.0008057   -0.0002749    -0.0551440   -0.1317204 
   0.199599900     0.6088138   -0.2313162     0.0007042   -0.0001451     0.0009494   -0.0000688    -0.0549487   -0.1311748 
   0.199699925     0.6000829   -0.2531352     0.0009194   -0.0000107     0.0008375   -0.0002781    -0.0552473   -0.1309200 
   0.199799950     0.5930122   -0.2776820     0.0008901   -0.0001690     0.0007775   -0.0000105    -0.0547588   -0.1310004 
   0.199899975     0.5839254   -0.3013923     0.0007317    0.0000323     0.0006956   -0.0000942    -0.0558658   -0.1297584 
   0.200000000     0.5743448   -0.3237387     0.0007168   -0.0000833     0.0007702   -0.0001254    -0.0551184   -0.1303986 
