! 27-Aug-26 2:30:55 PM
! E:\20260827_VNA\T1T1E1_LOAD_2.S2P
! CHANNEL.1
! TR.MEASUREMENT
! CORRECTED.DATA
# GHZ S RI R 50.0
! FREQ.GHZ         S11RE         S11IM         S21RE         S21IM         S12RE         S12IM         S22RE         S22IM         
!; PortSelection: Port_12
   0.000050000     0.2790635   -0.0209291    -0.1571939    0.0237041     0.0014807   -0.0033771     0.9754176    0.0427959 
   0.000150025    -0.1553075    0.0933376    -0.1725692   -0.3171407     0.0010328   -0.0000411     0.9897035   -0.0091480 
   0.000250050    -0.1671722    0.1672770     0.0078479    0.0008560     0.0005303    0.0004416     1.0107410   -0.0169873 
   0.000350075     1.0033440   -0.0236894     0.0064920   -0.0162449     0.0006723   -0.0001997     1.0061850   -0.0270647 
   0.000450100     1.0117290   -0.0412693    -0.0033908   -0.0104235    -0.0000645   -0.0008889     0.9976463   -0.0189657 
   0.000550125     0.9788058   -0.0331406    -0.0040974   -0.0107151     0.0002995   -0.0007233     0.9907406   -0.0475343 
   0.000650150     0.9829909    0.0192254    -0.0036856   -0.0067100     0.0005579    0.0008992     1.0004110   -0.0614523 
   0.000750175     0.9865334   -0.0599516    -0.0058488   -0.0060767     0.0005124    0.0019176     0.9975138   -0.0561384 
   0.000850200     1.0028890   -0.0826584    -0.0102607   -0.0103663    -0.0010674    0.0001118     0.9920470   -0.0591344 
   0.000950225     1.0267070   -0.0378225    -0.0063407   -0.0086272     0.0003266    0.0004081     0.9949912   -0.0764513 
   0.001050250     0.9656859   -0.0645154    -0.0090035   -0.0023464     0.0003313   -0.0008679     0.9950799   -0.0694652 
   0.001150275     1.0142890   -0.0523101    -0.0091786   -0.0054805    -0.0000201   -0.0004658     0.9891601   -0.0724842 
   0.001250300     0.9996470   -0.0382900    -0.0088853   -0.0075722     0.0009450   -0.0002104     0.9983237   -0.0940520 
   0.001350325     1.0061040   -0.0767722    -0.0090039   -0.0003620    -0.0000455    0.0007005     0.9901814   -0.0986353 
   0.001450350     0.9983945   -0.0397792    -0.0125445   -0.0033180    -0.0003037   -0.0006701     0.9886141   -0.1059806 
   0.001550375     0.9760152   -0.0798614    -0.0126029   -0.0027278     0.0003408    0.0000348     0.9962953   -0.1084528 
   0.001650400     1.0168620   -0.0271978    -0.0095243   -0.0019860     0.0011628   -0.0001361     0.9815652   -0.1168155 
   0.001750425     1.0332020   -0.0584894    -0.0088992   -0.0000899     0.0003240    0.0014127     0.9861922   -0.1250186 
   0.001850450     1.0095870   -0.0540472    -0.0128536    0.0003032    -0.0009403    0.0001336     0.9859444   -0.1231255 
   0.001950475     1.0225330   -0.0286685    -0.0064071   -0.0010630     0.0002470   -0.0003783     0.9809921   -0.1298812 
   0.002050500     0.9647083   -0.0641777    -0.0095025   -0.0040953     0.0003752    0.0007778     0.9807064   -0.1511641 
   0.002150525     1.0282990   -0.0842498    -0.0081814    0.0040317     0.0001365   -0.0009643     0.9779670   -0.1557263 
   0.002250550     0.9771224   -0.0728432    -0.0096613    0.0020836     0.0003008   -0.0000656     0.9754317   -0.1582227 
   0.002350575     0.9654689   -0.1255363    -0.0035616    0.0036171     0.0002608    0.0001420     0.9695316   -0.1572021 
   0.002450600     0.9515528   -0.0703065    -0.0091753    0.0056930     0.0005636   -0.0006230     0.9742638   -0.1770126 
   0.002550625     1.0349160   -0.1076888    -0.0031762    0.0013271    -0.0000437   -0.0006665     0.9708306   -0.1807223 
   0.002650650     1.0156030   -0.0493205    -0.0024356    0.0050622     0.0002754   -0.0001287     0.9700896   -0.1879942 
   0.002750675     0.9770907   -0.0330893    -0.0008986    0.0047752     0.0003381    0.0007875     0.9585171   -0.1986637 
   0.002850700     1.0143860   -0.1013456    -0.0032854    0.0023496    -0.0002384    0.0001282     0.9577767   -0.2051562 
   0.002950725     0.9521731   -0.0802066    -0.0033213    0.0022449     0.0009060   -0.0001595     0.9589350   -0.2050245 
   0.003050750     1.0211170   -0.1048770    -0.0019353    0.0015171    -0.0003151   -0.0000974     0.9549659   -0.2183819 
   0.003150775     0.9926088   -0.0825494    -0.0003663    0.0039728     0.0000182    0.0001463     0.9414130   -0.2198326 
   0.003250800     0.9628905   -0.0483643     0.0000535    0.0062216     0.0003555   -0.0003406     0.9482229   -0.2244771 
   0.003350825     0.9550266   -0.1179702    -0.0037756    0.0004838     0.0001849   -0.0005540     0.9420996   -0.2308053 
   0.003450850     0.9498884   -0.1445437    -0.0061735    0.0025042     0.0003152    0.0002621     0.9452331   -0.2388368 
   0.003550875     0.9641511   -0.1495032     0.0024869    0.0030248    -0.0000862    0.0004235     0.9343290   -0.2471125 
   0.003650900     0.9759410   -0.1378558    -0.0011767    0.0044566     0.0004444    0.0002586     0.9360399   -0.2544279 
   0.003750925     0.9545563   -0.1240634    -0.0007870    0.0014742     0.0000312   -0.0000932     0.9220307   -0.2589775 
   0.003850950     0.9988371   -0.1526043    -0.0008975    0.0041911    -0.0004048   -0.0003211     0.9260789   -0.2642630 
   0.003950975     0.9916449   -0.1263356    -0.0041061    0.0009248     0.0001039    0.0003258     0.9223146   -0.2655074 
   0.004051001     0.9385761   -0.1838216    -0.0007550   -0.0002649     0.0004543    0.0002047     0.9155134   -0.2704735 
   0.004151026     0.9759573   -0.1814546     0.0002762    0.0031661     0.0002675   -0.0002222     0.9115221   -0.2828718 
   0.004251051     0.9730483   -0.1499454    -0.0007361    0.0000302    -0.0005017   -0.0005493     0.9140526   -0.2868586 
   0.004351076     0.9620103   -0.1325271    -0.0019410    0.0045344     0.0002210   -0.0000697     0.9022887   -0.2916860 
   0.004451101     0.9981252   -0.1839241    -0.0002008    0.0007599    -0.0000626   -0.0001722     0.9020022   -0.2880026 
   0.004551126     0.9878058   -0.1734056    -0.0009238    0.0001010    -0.0004628   -0.0000821     0.9072881   -0.2951938 
   0.004651151     0.9656714   -0.1774106     0.0013832    0.0009594    -0.0000463   -0.0009386     0.8955651   -0.3058061 
   0.004751176     0.9576503   -0.1801429    -0.0001989   -0.0000231    -0.0002709    0.0002905     0.8894993   -0.3095113 
   0.004851201     0.9214042   -0.1643633     0.0003599   -0.0027461     0.0002397   -0.0002892     0.8858747   -0.3142377 
   0.004951226     0.9442361   -0.1614106    -0.0006866    0.0016595     0.0002025   -0.0000927     0.8816943   -0.3191276 
   0.005051251     0.9643290   -0.1749028    -0.0008571    0.0005861    -0.0001115    0.0004309     0.8848047   -0.3230798 
   0.005151276     0.9407056   -0.1735009     0.0007596   -0.0009155     0.0006151    0.0002273     0.8728001   -0.3302123 
   0.005251301     0.9642078   -0.1795593    -0.0003289    0.0015187     0.0003585   -0.0003725     0.8726559   -0.3338839 
   0.005351326     0.9483023   -0.1714895     0.0020008    0.0016074     0.0000789    0.0000110     0.8649556   -0.3381425 
   0.005451351     0.9751647   -0.1877160    -0.0020830    0.0003933    -0.0001583   -0.0000468     0.8623262   -0.3468516 
   0.005551376     0.9847040   -0.1984029    -0.0002061    0.0006890     0.0001052    0.0002328     0.8584992   -0.3446774 
   0.005651401     0.9550241   -0.1869075    -0.0000472    0.0011949    -0.0002481   -0.0000063     0.8519672   -0.3561241 
   0.005751426     0.9401078   -0.1943158     0.0003617    0.0003569    -0.0002310    0.0000532     0.8424665   -0.3569787 
   0.005851451     0.9600211   -0.2403900    -0.0011144    0.0013463     0.0004269    0.0000569     0.8445089   -0.3618496 
   0.005951476     0.9381416   -0.1994376     0.0010920    0.0007638     0.0001895    0.0003449     0.8425556   -0.3688008 
   0.006051501     0.9579647   -0.2163430    -0.0002509    0.0024342    -0.0002787   -0.0003375     0.8332777   -0.3705515 
   0.006151526     0.9157938   -0.2174210     0.0010427   -0.0010747    -0.0000899   -0.0004010     0.8327032   -0.3691795 
   0.006251551     0.9533442   -0.1846064    -0.0015216    0.0011984     0.0000027    0.0000301     0.8250854   -0.3771835 
   0.006351576     0.9367679   -0.2337933     0.0016382   -0.0020083    -0.0000613   -0.0001012     0.8211929   -0.3810258 
   0.006451601     0.9509037   -0.2202720     0.0007848    0.0020084    -0.0004309   -0.0002921     0.8162099   -0.3855995 
   0.006551626     0.9133825   -0.2443592    -0.0004107    0.0013489    -0.0001846   -0.0001158     0.8117576   -0.3895552 
   0.006651651     0.9351282   -0.2228450    -0.0006725   -0.0022270    -0.0000940    0.0001629     0.8060070   -0.3946869 
   0.006751676     0.9254290   -0.2232247    -0.0005416    0.0012477    -0.0001523   -0.0002286     0.8061387   -0.3940979 
   0.006851701     0.9483459   -0.2209473    -0.0005984    0.0009003     0.0000652   -0.0000900     0.7966948   -0.4018608 
   0.006951726     0.9154301   -0.2357749     0.0015312   -0.0000559    -0.0000406    0.0002190     0.7915026   -0.4011223 
   0.007051751     0.9439951   -0.2457710    -0.0005333    0.0022940     0.0000780   -0.0002806     0.7848490   -0.4039124 
   0.007151776     0.9100357   -0.2524324     0.0001921   -0.0004864     0.0000129    0.0000652     0.7771086   -0.4075797 
   0.007251801     0.9563990   -0.2460699     0.0006491    0.0014278    -0.0001620   -0.0000240     0.7757944   -0.4136142 
   0.007351826     0.9307337   -0.2528653    -0.0013294   -0.0006183    -0.0000828    0.0003315     0.7716708   -0.4171505 
   0.007451851     0.9109877   -0.2431537     0.0009871    0.0000278     0.0004020   -0.0001151     0.7702265   -0.4188223 
   0.007551876     0.9192631   -0.2509944    -0.0002544    0.0007582     0.0001327    0.0002350     0.7660722   -0.4219222 
   0.007651901     0.9287792   -0.2823109    -0.0014469   -0.0001961    -0.0002452    0.0004408     0.7584859   -0.4244592 
   0.007751926     0.9192408   -0.2482917    -0.0009172    0.0008682     0.0001686    0.0000295     0.7507913   -0.4289463 
   0.007851951     0.9202812   -0.2632113    -0.0022268    0.0010202     0.0001273   -0.0002303     0.7503227   -0.4303033 
   0.007951976     0.9250546   -0.2814192    -0.0018613    0.0000906     0.0000367    0.0004427     0.7405359   -0.4312291 
   0.008052001     0.9200815   -0.2781123     0.0001627    0.0001174    -0.0001378   -0.0008646     0.7413270   -0.4340416 
   0.008152026     0.9255207   -0.2783766     0.0000074    0.0011817    -0.0002167    0.0001316     0.7352421   -0.4388667 
   0.008252051     0.8973078   -0.2753160     0.0000421    0.0003907     0.0001024   -0.0000520     0.7284630   -0.4408130 
   0.008352076     0.9083806   -0.2990879    -0.0026487   -0.0008158    -0.0004185    0.0005323     0.7259792   -0.4443071 
   0.008452101     0.9038410   -0.2749731    -0.0015251   -0.0006362     0.0001355    0.0001943     0.7230830   -0.4440869 
   0.008552126     0.9045237   -0.2824341    -0.0011562    0.0011792     0.0001369    0.0002897     0.7170594   -0.4466487 
   0.008652151     0.9118872   -0.2684551    -0.0017757   -0.0003374     0.0001234   -0.0002001     0.7116235   -0.4502233 
   0.008752176     0.9066678   -0.2866832     0.0004298   -0.0001110    -0.0001328    0.0002679     0.7080470   -0.4539096 
   0.008852201     0.8908907   -0.2767370     0.0013282   -0.0005401     0.0001032    0.0000679     0.7006620   -0.4505930 
   0.008952226     0.9271078   -0.3029764     0.0001532   -0.0009583     0.0000550   -0.0001933     0.6967694   -0.4549084 
   0.009052251     0.9132848   -0.2976414     0.0005960    0.0024124    -0.0002755    0.0000743     0.6894326   -0.4597891 
   0.009152276     0.9068284   -0.3124250    -0.0011208    0.0000610     0.0002029    0.0003111     0.6847109   -0.4600423 
   0.009252301     0.9005446   -0.2942240    -0.0001470    0.0004445     0.0003954    0.0001312     0.6830158   -0.4631885 
   0.009352326     0.9104957   -0.3070171    -0.0003058    0.0003408    -0.0003458    0.0001267     0.6764701   -0.4600972 
   0.009452351     0.8817645   -0.3113910     0.0007493   -0.0002616    -0.0001924    0.0000702     0.6734831   -0.4636204 
   0.009552376     0.8978267   -0.3132865    -0.0011319   -0.0001729    -0.0004319   -0.0001534     0.6678439   -0.4644301 
   0.009652401     0.8856526   -0.3139567    -0.0007515    0.0000795    -0.0002374    0.0000557     0.6641030   -0.4658320 
   0.009752426     0.8952015   -0.3139417    -0.0003461   -0.0009842    -0.0000238   -0.0003476     0.6594956   -0.4683074 
   0.009852451     0.8831478   -0.3311244    -0.0000088   -0.0004361     0.0003243    0.0002632     0.6559106   -0.4708526 
   0.009952476     0.8983697   -0.3255561     0.0003471    0.0004703     0.0001872    0.0001763     0.6483473   -0.4678245 
   0.010052501     0.8893044   -0.3265937    -0.0014635    0.0011538    -0.0003357    0.0001434     0.6469370   -0.4689436 
   0.010152526     0.8808455   -0.3067545    -0.0006421    0.0003514    -0.0001864   -0.0001332     0.6423572   -0.4714564 
   0.010252551     0.8674135   -0.3298576    -0.0000757    0.0009690    -0.0001000    0.0003356     0.6386767   -0.4754328 
   0.010352576     0.8936130   -0.3450909    -0.0004154    0.0008154     0.0002957   -0.0004309     0.6313452   -0.4791762 
   0.010452601     0.8835283   -0.3273312     0.0010622    0.0005220    -0.0001865    0.0000916     0.6272255   -0.4783266 
   0.010552626     0.8600352   -0.3376662     0.0000606    0.0005568     0.0000356   -0.0003099     0.6217391   -0.4815634 
   0.010652651     0.8701945   -0.3387321     0.0006829   -0.0006352    -0.0001433    0.0000826     0.6194553   -0.4811943 
   0.010752676     0.8730787   -0.3491808    -0.0005550    0.0009580     0.0001741    0.0001059     0.6145434   -0.4802865 
   0.010852701     0.8701468   -0.3283719    -0.0008843    0.0006033    -0.0001256    0.0000232     0.6122379   -0.4826428 
   0.010952726     0.8629010   -0.3402373    -0.0017340    0.0001179     0.0000421   -0.0000036     0.6043853   -0.4832117 
   0.011052751     0.8652605   -0.3573233     0.0007055    0.0006730     0.0002206    0.0001072     0.6005912   -0.4856440 
   0.011152776     0.8621176   -0.3450974     0.0012865   -0.0001470     0.0000898    0.0001123     0.5955884   -0.4860122 
   0.011252801     0.8641169   -0.3609597     0.0009194   -0.0004420    -0.0003660   -0.0001138     0.5911201   -0.4853223 
   0.011352826     0.8649011   -0.3798607    -0.0005837   -0.0006570     0.0000094    0.0002445     0.5907698   -0.4847250 
   0.011452851     0.8477297   -0.3526106     0.0005556   -0.0001987     0.0000374   -0.0003401     0.5843408   -0.4887874 
   0.011552876     0.8500715   -0.3624550    -0.0008104    0.0006375     0.0000863   -0.0000195     0.5794855   -0.4895108 
   0.011652901     0.8460114   -0.3843774    -0.0005654   -0.0000117     0.0001474   -0.0003970     0.5785049   -0.4869925 
   0.011752926     0.8320174   -0.3607175    -0.0005844    0.0010493     0.0001332    0.0002389     0.5752576   -0.4879367 
   0.011852951     0.8469052   -0.3711952     0.0009900    0.0003516    -0.0001341   -0.0000710     0.5714059   -0.4887179 
   0.011952976     0.8296055   -0.3739040     0.0000047    0.0004000    -0.0003176    0.0001281     0.5653046   -0.4873039 
   0.012053002     0.8330583   -0.3857639     0.0001925    0.0008628    -0.0001346    0.0000884     0.5597012   -0.4880806 
   0.012153027     0.8274482   -0.3911048    -0.0001218   -0.0002900    -0.0000666   -0.0000020     0.5555353   -0.4915906 
   0.012253052     0.8306630   -0.3797838    -0.0006499    0.0010315    -0.0003100   -0.0001369     0.5535410   -0.4900630 
   0.012353077     0.8276133   -0.3704750     0.0001938    0.0001022    -0.0001425    0.0000988     0.5501620   -0.4897212 
   0.012453102     0.8308719   -0.3829128     0.0001769   -0.0000708    -0.0001532    0.0000151     0.5438531   -0.4921496 
   0.012553127     0.8162863   -0.3955612    -0.0003847    0.0005671    -0.0001029   -0.0000867     0.5394835   -0.4891477 
   0.012653152     0.8399149   -0.3752935    -0.0001427   -0.0005568    -0.0000985   -0.0001542     0.5357850   -0.4925703 
   0.012753177     0.8187935   -0.3923042    -0.0009694   -0.0002665     0.0000761    0.0000485     0.5343865   -0.4909965 
   0.012853202     0.8223223   -0.3773136    -0.0007316    0.0006173     0.0000009    0.0002739     0.5262718   -0.4901906 
   0.012953227     0.8279146   -0.3724782     0.0007563    0.0005225    -0.0000655    0.0001126     0.5279209   -0.4941299 
   0.013053252     0.8033589   -0.4027359    -0.0012097    0.0008394    -0.0003635   -0.0000909     0.5242252   -0.4931863 
   0.013153277     0.8146828   -0.3920210    -0.0002288   -0.0000552    -0.0001123   -0.0000332     0.5188805   -0.4952679 
   0.013253302     0.8139649   -0.3930905     0.0007881   -0.0009914     0.0002707   -0.0002958     0.5169368   -0.4908756 
   0.013353327     0.8034992   -0.3918453     0.0001526    0.0006285    -0.0001240    0.0003135     0.5112541   -0.4916308 
   0.013453352     0.8123454   -0.3896959    -0.0000265    0.0002013     0.0003824    0.0003853     0.5087601   -0.4925412 
   0.013553377     0.7951568   -0.3887597     0.0006485   -0.0008716    -0.0000186    0.0000279     0.5032236   -0.4914226 
   0.013653402     0.8087727   -0.4059745     0.0004055    0.0002046    -0.0000460    0.0003336     0.5009418   -0.4930462 
   0.013753427     0.8132767   -0.4002480     0.0005818    0.0002555     0.0001294   -0.0000225     0.4974328   -0.4919303 
   0.013853452     0.8047229   -0.4239022    -0.0001937    0.0005132     0.0000387    0.0002578     0.4970238   -0.4928437 
   0.013953477     0.7953163   -0.3969187     0.0004582    0.0006887    -0.0002164   -0.0000610     0.4901812   -0.4927126 
   0.014053502     0.8088832   -0.4268131    -0.0007168   -0.0000649    -0.0001664   -0.0000340     0.4858990   -0.4925308 
   0.014153527     0.7901329   -0.4162159    -0.0004406    0.0000500     0.0000075    0.0002338     0.4838025   -0.4922692 
   0.014253552     0.8094426   -0.4073773     0.0003281   -0.0009283     0.0000037    0.0001458     0.4813975   -0.4930795 
   0.014353577     0.7944343   -0.4125287    -0.0006705    0.0003080    -0.0001415   -0.0001991     0.4751397   -0.4913972 
   0.014453602     0.7745986   -0.4149482    -0.0000129    0.0011499    -0.0000291   -0.0001942     0.4755034   -0.4907628 
   0.014553627     0.7807765   -0.4130898     0.0006366    0.0001838    -0.0000480    0.0002095     0.4706292   -0.4924707 
   0.014653652     0.7832871   -0.4273488     0.0007987    0.0005848     0.0000902    0.0000187     0.4667481   -0.4920101 
   0.014753677     0.7712896   -0.4257070    -0.0002746   -0.0001387     0.0002044   -0.0001100     0.4647102   -0.4907275 
   0.014853702     0.7886629   -0.4209155    -0.0000649    0.0006079     0.0002643   -0.0002408     0.4592863   -0.4895334 
   0.014953727     0.7750762   -0.4397696     0.0003781   -0.0000900    -0.0000854   -0.0001056     0.4571142   -0.4886050 
   0.015053752     0.7703221   -0.4252387    -0.0009996    0.0005455    -0.0000118   -0.0001925     0.4532458   -0.4900871 
   0.015153777     0.7778878   -0.4430476     0.0001767   -0.0004199     0.0001061   -0.0000723     0.4531336   -0.4892595 
   0.015253802     0.7692389   -0.4366771    -0.0003103   -0.0011443     0.0001224   -0.0000744     0.4487690   -0.4893074 
   0.015353827     0.7632962   -0.4370769    -0.0001838   -0.0000016     0.0000410   -0.0001214     0.4461254   -0.4870002 
   0.015453852     0.7677817   -0.4394485     0.0004321   -0.0000723     0.0001940    0.0001540     0.4420915   -0.4872663 
   0.015553877     0.7612894   -0.4471756     0.0001824   -0.0003030     0.0000079    0.0001098     0.4426007   -0.4874812 
   0.015653902     0.7640690   -0.4410681     0.0002916    0.0009282    -0.0002785   -0.0002416     0.4351650   -0.4883606 
   0.015753927     0.7600785   -0.4351590    -0.0001367    0.0000340     0.0001206   -0.0000672     0.4329633   -0.4877905 
   0.015853952     0.7496030   -0.4498950     0.0003564   -0.0007104    -0.0001646    0.0000176     0.4309624   -0.4862673 
   0.015953977     0.7659363   -0.4466683    -0.0004143    0.0000372     0.0000996   -0.0000933     0.4260896   -0.4843910 
   0.016054002     0.7481127   -0.4357886    -0.0003724   -0.0000839    -0.0001090    0.0000057     0.4230454   -0.4853103 
   0.016154027     0.7610791   -0.4462880     0.0002852   -0.0003147    -0.0003371   -0.0002883     0.4186742   -0.4857256 
   0.016254052     0.7371724   -0.4481058    -0.0001720    0.0006733    -0.0000804   -0.0001902     0.4174311   -0.4826577 
   0.016354077     0.7444242   -0.4427140     0.0001155    0.0001542    -0.0000153    0.0002397     0.4153932   -0.4823333 
   0.016454102     0.7408634   -0.4549230     0.0002099   -0.0008254     0.0001316   -0.0001823     0.4133802   -0.4844663 
   0.016554127     0.7416100   -0.4448608     0.0001182   -0.0004789    -0.0000162   -0.0000979     0.4076642   -0.4822999 
   0.016654152     0.7326045   -0.4531028    -0.0000183    0.0001587    -0.0001586    0.0001693     0.4060711   -0.4823414 
   0.016754177     0.7299460   -0.4574941    -0.0003732   -0.0003284     0.0000141    0.0000094     0.4041392   -0.4804823 
   0.016854202     0.7338355   -0.4567793    -0.0009120   -0.0002434     0.0000562    0.0001000     0.4007225   -0.4814320 
   0.016954227     0.7401170   -0.4732014     0.0000727    0.0002032    -0.0001845   -0.0000776     0.3998057   -0.4792663 
   0.017054252     0.7239596   -0.4637097    -0.0005925   -0.0007762    -0.0001707   -0.0002045     0.3964193   -0.4785735 
   0.017154277     0.7219137   -0.4535768     0.0003448    0.0005591    -0.0000052   -0.0000360     0.3921315   -0.4777705 
   0.017254302     0.7269074   -0.4684221    -0.0001976    0.0003431    -0.0001353   -0.0001760     0.3906313   -0.4786117 
   0.017354327     0.7304496   -0.4746753     0.0002424    0.0002304     0.0000367   -0.0000014     0.3874406   -0.4775017 
   0.017454352     0.7119262   -0.4751863     0.0005210    0.0005843     0.0000081    0.0001641     0.3846211   -0.4766356 
   0.017554377     0.7042052   -0.4696439     0.0000930   -0.0001581    -0.0002501    0.0000184     0.3838079   -0.4762063 
   0.017654402     0.7187443   -0.4645079     0.0002574   -0.0005338    -0.0000864   -0.0002784     0.3787959   -0.4757914 
   0.017754427     0.6986298   -0.4738173     0.0001407   -0.0006416    -0.0001828   -0.0001409     0.3782306   -0.4746738 
   0.017854452     0.7083470   -0.4810362    -0.0005603    0.0000310     0.0000541    0.0001565     0.3756850   -0.4734947 
   0.017954477     0.6997203   -0.4622479    -0.0004775    0.0004378     0.0000949   -0.0001812     0.3743493   -0.4724663 
   0.018054502     0.7023123   -0.4770499     0.0007666   -0.0005703    -0.0001734    0.0000253     0.3703093   -0.4731558 
   0.018154527     0.7031667   -0.4761572     0.0004480   -0.0001287     0.0001769   -0.0000688     0.3683577   -0.4720775 
   0.018254552     0.7001678   -0.4803552    -0.0002610    0.0001008     0.0002009   -0.0001458     0.3647076   -0.4712213 
   0.018354577     0.6943519   -0.4821829    -0.0002370    0.0003799    -0.0001283    0.0000792     0.3621248   -0.4702082 
   0.018454602     0.6854845   -0.4787944     0.0004495   -0.0003241     0.0001511    0.0000641     0.3589775   -0.4707778 
   0.018554627     0.6834337   -0.4879002     0.0006605    0.0003427     0.0000320    0.0001759     0.3570136   -0.4686542 
   0.018654652     0.6908630   -0.4898300     0.0003855   -0.0005351    -0.0000915   -0.0001391     0.3543521   -0.4670993 
   0.018754677     0.6813997   -0.4804758     0.0001036   -0.0002685     0.0002020   -0.0001292     0.3518105   -0.4675766 
   0.018854702     0.6910031   -0.4848117    -0.0000069   -0.0001297    -0.0000817    0.0001634     0.3526206   -0.4658439 
   0.018954727     0.6827118   -0.4805199    -0.0000010   -0.0005260     0.0001984    0.0001187     0.3473518   -0.4657011 
   0.019054752     0.6832818   -0.4849338    -0.0001283    0.0001007     0.0000451   -0.0000244     0.3466913   -0.4668642 
   0.019154777     0.6715703   -0.4839849     0.0004101   -0.0003104    -0.0000469    0.0001464     0.3437066   -0.4638147 
   0.019254802     0.6661401   -0.4918012    -0.0007695   -0.0002941     0.0000139    0.0000897     0.3398737   -0.4642742 
   0.019354827     0.6608538   -0.4831266    -0.0000716    0.0001127     0.0000382    0.0000443     0.3396795   -0.4621893 
   0.019454852     0.6643541   -0.4861845    -0.0002578    0.0001453    -0.0000796    0.0000228     0.3373434   -0.4632799 
   0.019554877     0.6549309   -0.4815210    -0.0000363    0.0001665     0.0000028   -0.0000425     0.3369828   -0.4632972 
   0.019654902     0.6735289   -0.4927629    -0.0001981   -0.0004990    -0.0000547   -0.0000660     0.3342118   -0.4620256 
   0.019754927     0.6554912   -0.4902053    -0.0006543   -0.0003478    -0.0001066    0.0000630     0.3309362   -0.4605115 
   0.019854952     0.6514398   -0.4944317     0.0000889    0.0004262    -0.0000579   -0.0000133     0.3280031   -0.4581881 
   0.019954977     0.6552905   -0.4962199     0.0001269    0.0001423    -0.0000435    0.0000752     0.3276881   -0.4574784 
   0.020055003     0.6534534   -0.4934502    -0.0004449    0.0004058    -0.0001076    0.0001421     0.3256660   -0.4567000 
   0.020155028     0.6519512   -0.4898309    -0.0010957    0.0004542    -0.0002000   -0.0000300     0.3228590   -0.4578848 
   0.020255053     0.6495238   -0.4988435     0.0000809    0.0006143    -0.0001248    0.0001126     0.3217345   -0.4570611 
   0.020355078     0.6440862   -0.4980616    -0.0002191    0.0002120    -0.0001011    0.0001427     0.3185532   -0.4567298 
   0.020455103     0.6483397   -0.4982203     0.0006577    0.0003439    -0.0000200   -0.0000080     0.3165129   -0.4547771 
   0.020555128     0.6426458   -0.5087451    -0.0001936   -0.0006123    -0.0000927    0.0000488     0.3143859   -0.4545718 
   0.020655153     0.6427394   -0.4955525     0.0002062   -0.0003072     0.0000195    0.0000747     0.3131714   -0.4520485 
   0.020755178     0.6333864   -0.5008011    -0.0003093   -0.0001952    -0.0001010    0.0000100     0.3104616   -0.4521820 
   0.020855203     0.6340763   -0.4996037    -0.0000229   -0.0002665    -0.0001036   -0.0001314     0.3079219   -0.4519675 
   0.020955228     0.6306708   -0.4986963    -0.0005113   -0.0001175    -0.0000052    0.0000686     0.3066190   -0.4483304 
   0.021055253     0.6250191   -0.5095426    -0.0000675    0.0002490    -0.0001521    0.0001629     0.3053516   -0.4484176 
   0.021155278     0.6269954   -0.5140944    -0.0003290    0.0000054    -0.0000397   -0.0001672     0.3062271   -0.4492663 
   0.021255303     0.6200405   -0.5023258    -0.0003134   -0.0000291    -0.0000782    0.0000360     0.3024719   -0.4480307 
   0.021355328     0.6330582   -0.5042440     0.0000034    0.0000135    -0.0000393   -0.0000093     0.3009807   -0.4462482 
   0.021455353     0.6134896   -0.5078970     0.0002451   -0.0003248    -0.0000975   -0.0002183     0.2986164   -0.4454935 
   0.021555378     0.6222537   -0.5074829    -0.0001158   -0.0001570    -0.0000659   -0.0001388     0.2962684   -0.4440744 
   0.021655403     0.6194119   -0.5091321    -0.0001546    0.0003701    -0.0001577   -0.0000227     0.2958454   -0.4438999 
   0.021755428     0.6170242   -0.5120372    -0.0000034   -0.0003491    -0.0000857   -0.0002321     0.2930494   -0.4439812 
   0.021855453     0.6146109   -0.5116894     0.0000972    0.0001927     0.0000079    0.0000231     0.2907627   -0.4413554 
   0.021955478     0.6040915   -0.5114720     0.0002310    0.0002392    -0.0000645    0.0000438     0.2899385   -0.4420168 
   0.022055503     0.6101440   -0.5109770     0.0000495   -0.0000456    -0.0000246    0.0000146     0.2885997   -0.4395901 
   0.022155528     0.6046447   -0.5128311    -0.0001608    0.0001811     0.0000061    0.0000364     0.2851209   -0.4398192 
   0.022255553     0.5976450   -0.5131475    -0.0002346   -0.0001819     0.0000147   -0.0000294     0.2838375   -0.4384823 
   0.022355578     0.5969898   -0.5099853    -0.0000283    0.0000993     0.0001449   -0.0000779     0.2823167   -0.4369892 
   0.022455603     0.5951363   -0.5198275    -0.0006006    0.0002944     0.0000747    0.0000025     0.2797527   -0.4377474 
   0.022555628     0.5968241   -0.5176373     0.0006507   -0.0001653    -0.0000332    0.0000123     0.2800915   -0.4374690 
   0.022655653     0.6041270   -0.5142252    -0.0000910    0.0002803     0.0000198    0.0001236     0.2774670   -0.4358247 
   0.022755678     0.5888332   -0.5161508     0.0000122   -0.0000971     0.0000420   -0.0001040     0.2759492   -0.4350443 
   0.022855703     0.5879397   -0.5124874    -0.0000226   -0.0001035    -0.0000862    0.0000288     0.2752322   -0.4343472 
   0.022955728     0.5919595   -0.5112612    -0.0000749    0.0002192    -0.0000678    0.0000115     0.2720937   -0.4326493 
   0.023055753     0.5870708   -0.5177997    -0.0001842   -0.0004502     0.0000554    0.0000694     0.2710275   -0.4314755 
   0.023155778     0.5880437   -0.5203689    -0.0009410    0.0001304     0.0000589    0.0001038     0.2706152   -0.4322222 
   0.023255803     0.5768996   -0.5229891     0.0004075    0.0000954     0.0000963    0.0000367     0.2675281   -0.4297486 
   0.023355828     0.5768429   -0.5179057     0.0003189    0.0002823    -0.0002291   -0.0000518     0.2662100   -0.4295939 
   0.023455853     0.5780318   -0.5193375     0.0000877    0.0002601    -0.0000698    0.0001129     0.2640693   -0.4287943 
   0.023555878     0.5746394   -0.5210394     0.0002225    0.0002365    -0.0001059    0.0000629     0.2631498   -0.4276362 
   0.023655903     0.5734954   -0.5185739     0.0001612   -0.0000480    -0.0000815    0.0001624     0.2625275   -0.4272072 
   0.023755928     0.5689973   -0.5183334    -0.0002183    0.0002806    -0.0001220    0.0000056     0.2611610   -0.4242510 
   0.023855953     0.5703539   -0.5192739    -0.0001243    0.0000890    -0.0000382    0.0001831     0.2583026   -0.4250928 
   0.023955978     0.5613422   -0.5228238     0.0007862    0.0003211    -0.0000870   -0.0000916     0.2577212   -0.4242255 
   0.024056003     0.5697626   -0.5236076    -0.0002441   -0.0002030    -0.0000693    0.0000273     0.2551114   -0.4247675 
   0.024156028     0.5583156   -0.5198381    -0.0001863   -0.0001195    -0.0001159   -0.0000714     0.2551762   -0.4239780 
   0.024256053     0.5608985   -0.5206421    -0.0001132    0.0000640    -0.0000367    0.0001205     0.2529398   -0.4217565 
   0.024356078     0.5549931   -0.5235371     0.0003234   -0.0000904    -0.0001145    0.0001216     0.2524181   -0.4208072 
   0.024456103     0.5492398   -0.5167225     0.0002813   -0.0002127    -0.0002502    0.0001444     0.2506137   -0.4201589 
   0.024556128     0.5612909   -0.5184307    -0.0000940   -0.0001457    -0.0001183   -0.0000241     0.2495838   -0.4208922 
   0.024656153     0.5506405   -0.5246032    -0.0000556   -0.0006024     0.0000667    0.0000276     0.2477032   -0.4179310 
   0.024756178     0.5477126   -0.5279618    -0.0009265   -0.0003898    -0.0000463    0.0000458     0.2465934   -0.4177979 
   0.024856203     0.5504102   -0.5276642     0.0002042   -0.0000518    -0.0000266   -0.0000184     0.2440603   -0.4155284 
   0.024956228     0.5463127   -0.5222951    -0.0003600    0.0001553    -0.0000161    0.0000950     0.2435623   -0.4159901 
   0.025056253     0.5419966   -0.5256343     0.0003301    0.0004316    -0.0001838    0.0000855     0.2422601   -0.4174222 
   0.025156278     0.5456072   -0.5281488     0.0001001   -0.0001110    -0.0001096   -0.0000455     0.2405000   -0.4145760 
   0.025256303     0.5364450   -0.5219611    -0.0002289   -0.0002210    -0.0000935    0.0000781     0.2402808   -0.4140290 
   0.025356328     0.5419075   -0.5263826    -0.0003581    0.0001464    -0.0000156    0.0000692     0.2391169   -0.4130550 
   0.025456353     0.5331812   -0.5278273     0.0001582    0.0004826    -0.0000755    0.0000301     0.2366896   -0.4117326 
   0.025556378     0.5343455   -0.5273966    -0.0001141   -0.0002338     0.0000316    0.0001444     0.2366768   -0.4112099 
   0.025656403     0.5321890   -0.5313300     0.0000943    0.0001717    -0.0000737    0.0001575     0.2346493   -0.4098980 
   0.025756428     0.5337213   -0.5324747    -0.0000860   -0.0000988    -0.0000980    0.0000392     0.2317729   -0.4088221 
   0.025856453     0.5287530   -0.5316896     0.0002687   -0.0002406    -0.0001417   -0.0000264     0.2311020   -0.4075220 
   0.025956478     0.5303268   -0.5255274     0.0000230   -0.0002133    -0.0001512    0.0002102     0.2308612   -0.4079026 
   0.026056503     0.5234563   -0.5291386    -0.0001489   -0.0000147    -0.0000699    0.0000386     0.2306793   -0.4067536 
   0.026156528     0.5182797   -0.5272648     0.0000957    0.0001028    -0.0001408    0.0001042     0.2287560   -0.4060365 
   0.026256553     0.5248263   -0.5242907    -0.0004201    0.0001069    -0.0001396   -0.0000001     0.2268598   -0.4052153 
   0.026356578     0.5191174   -0.5323880     0.0000823   -0.0003321    -0.0001407    0.0000447     0.2254592   -0.4047796 
   0.026456603     0.5125535   -0.5310891    -0.0000780   -0.0001524    -0.0000491   -0.0000623     0.2246693   -0.4029427 
   0.026556628     0.5138232   -0.5318421    -0.0001405   -0.0000108    -0.0000755    0.0000706     0.2239399   -0.4026867 
   0.026656653     0.5092657   -0.5254580    -0.0000921    0.0002319    -0.0000060    0.0001212     0.2226119   -0.4020875 
   0.026756678     0.5057173   -0.5325167    -0.0002622    0.0002630    -0.0001586    0.0000528     0.2220197   -0.4010721 
   0.026856703     0.5100700   -0.5341839    -0.0002102    0.0002116    -0.0000648   -0.0000486     0.2214124   -0.4003036 
   0.026956728     0.5098310   -0.5292615    -0.0001624   -0.0001317    -0.0001473    0.0000325     0.2196102   -0.3994567 
   0.027056753     0.5056018   -0.5345827     0.0001426   -0.0000005    -0.0000303    0.0001792     0.2167912   -0.3976494 
   0.027156778     0.5013775   -0.5304036    -0.0000041    0.0005257    -0.0001080   -0.0000525     0.2168799   -0.3972964 
   0.027256803     0.5010382   -0.5257922    -0.0001692    0.0000653    -0.0000327    0.0001647     0.2149575   -0.3970450 
   0.027356828     0.5016654   -0.5329472    -0.0002395    0.0001633    -0.0002156    0.0000843     0.2145211   -0.3953258 
   0.027456853     0.4920910   -0.5363141     0.0002578    0.0003089    -0.0000451    0.0000204     0.2134241   -0.3963979 
   0.027556878     0.4951581   -0.5287211    -0.0007052    0.0001509    -0.0000870   -0.0000058     0.2118757   -0.3937300 
   0.027656903     0.4939607   -0.5352471     0.0001822   -0.0000527     0.0000240    0.0001721     0.2107098   -0.3933814 
   0.027756928     0.4891384   -0.5312594    -0.0001092    0.0001506    -0.0000874    0.0000304     0.2100717   -0.3937344 
   0.027856953     0.4881581   -0.5320839    -0.0001934    0.0000141    -0.0001578   -0.0000019     0.2094950   -0.3911110 
   0.027956978     0.4853409   -0.5284790    -0.0000069   -0.0001155    -0.0001944    0.0000744     0.2066547   -0.3908364 
   0.028057004     0.4817353   -0.5299761     0.0001618    0.0002219    -0.0001339    0.0000870     0.2065978   -0.3893654 
   0.028157029     0.4775254   -0.5315451     0.0001748   -0.0000264    -0.0001098    0.0000623     0.2058169   -0.3898195 
   0.028257054     0.4782173   -0.5336272     0.0000477    0.0001836    -0.0000911    0.0000966     0.2055004   -0.3901211 
   0.028357079     0.4712629   -0.5293617    -0.0001985    0.0001631    -0.0001050    0.0001885     0.2024684   -0.3870435 
   0.028457104     0.4748117   -0.5322228     0.0002131    0.0000669    -0.0000846    0.0000140     0.2034772   -0.3867067 
   0.028557129     0.4718461   -0.5327297    -0.0003134    0.0001120    -0.0000818    0.0001020     0.2027226   -0.3879560 
   0.028657154     0.4752745   -0.5301254     0.0000199   -0.0000909    -0.0000376   -0.0001608     0.2012714   -0.3853028 
   0.028757179     0.4742040   -0.5293304     0.0001046   -0.0001509    -0.0001930   -0.0000801     0.2002337   -0.3861490 
   0.028857204     0.4696036   -0.5318296     0.0001068   -0.0000401    -0.0001299   -0.0000345     0.1995641   -0.3845566 
   0.028957229     0.4645133   -0.5323592    -0.0004454   -0.0001227     0.0000103   -0.0000712     0.1981779   -0.3838011 
   0.029057254     0.4689806   -0.5347291     0.0001219    0.0001362    -0.0001183    0.0001032     0.1979239   -0.3831437 
   0.029157279     0.4612872   -0.5330148    -0.0001497   -0.0001301    -0.0001937    0.0001123     0.1961119   -0.3825633 
   0.029257304     0.4605425   -0.5379580    -0.0001207    0.0001848    -0.0000189   -0.0000346     0.1944203   -0.3805042 
   0.029357329     0.4575477   -0.5311288     0.0003012    0.0002861    -0.0001609    0.0000230     0.1944561   -0.3801127 
   0.029457354     0.4602494   -0.5334544     0.0002917    0.0006369    -0.0000522    0.0002000     0.1937096   -0.3798413 
   0.029557379     0.4503788   -0.5362100     0.0000828    0.0000220    -0.0001792   -0.0000143     0.1922306   -0.3783788 
   0.029657404     0.4546669   -0.5360969     0.0002891    0.0000703    -0.0000531    0.0000802     0.1920089   -0.3784405 
   0.029757429     0.4503898   -0.5345773     0.0000517    0.0001162    -0.0000894    0.0000183     0.1906248   -0.3773232 
   0.029857454     0.4444907   -0.5339285    -0.0002270    0.0002536    -0.0000462    0.0000627     0.1892233   -0.3761100 
   0.029957479     0.4490332   -0.5297839    -0.0002741   -0.0001235    -0.0001002    0.0000355     0.1895305   -0.3757628 
   0.030057504     0.4445183   -0.5359349    -0.0000548    0.0000871    -0.0000608    0.0001177     0.1885892   -0.3749468 
   0.030157529     0.4450200   -0.5294667     0.0003316    0.0001997    -0.0001016    0.0001214     0.1862184   -0.3742304 
   0.030257554     0.4400874   -0.5283544    -0.0000453   -0.0001391    -0.0000545    0.0001396     0.1862907   -0.3730963 
   0.030357579     0.4447191   -0.5252578    -0.0000835    0.0000524    -0.0000697    0.0000497     0.1853944   -0.3722594 
   0.030457604     0.4396879   -0.5313256    -0.0004002    0.0001263    -0.0000732    0.0000407     0.1846756   -0.3724214 
   0.030557629     0.4383618   -0.5300213    -0.0001741    0.0003333    -0.0000145   -0.0000267     0.1832049   -0.3711095 
   0.030657654     0.4363246   -0.5320935    -0.0000209   -0.0000239    -0.0001196    0.0000451     0.1828890   -0.3708455 
   0.030757679     0.4309151   -0.5331842     0.0003620    0.0000332     0.0000242    0.0002152     0.1822716   -0.3700403 
   0.030857704     0.4313951   -0.5322840     0.0000188    0.0001696    -0.0000284    0.0000899     0.1810912   -0.3692529 
   0.030957729     0.4315105   -0.5347198    -0.0005834    0.0005974    -0.0000114    0.0000151     0.1795894   -0.3692955 
   0.031057754     0.4296789   -0.5296183    -0.0002335    0.0001081     0.0000117    0.0000543     0.1800081   -0.3677165 
   0.031157779     0.4291040   -0.5360849     0.0000787    0.0001878    -0.0001100    0.0001369     0.1791033   -0.3666046 
   0.031257804     0.4238189   -0.5318308    -0.0001838    0.0002464    -0.0001239    0.0000510     0.1776491   -0.3673160 
   0.031357829     0.4222024   -0.5350716    -0.0002387    0.0003333    -0.0001815    0.0000424     0.1762540   -0.3661627 
   0.031457854     0.4205068   -0.5289868     0.0000439   -0.0001427    -0.0000383   -0.0000287     0.1756561   -0.3658767 
   0.031557879     0.4170050   -0.5331733     0.0001628   -0.0002144    -0.0000578    0.0000741     0.1753487   -0.3644862 
   0.031657904     0.4150835   -0.5287568    -0.0000676    0.0000341    -0.0000437    0.0000630     0.1746678   -0.3631354 
   0.031757929     0.4163516   -0.5330015    -0.0000238    0.0003051    -0.0000806    0.0002012     0.1734024   -0.3624022 
   0.031857954     0.4117745   -0.5311905    -0.0003722    0.0000047    -0.0000808   -0.0000145     0.1741733   -0.3621108 
   0.031957979     0.4133159   -0.5320241     0.0001474   -0.0001261    -0.0001756    0.0002571     0.1726598   -0.3607129 
   0.032058004     0.4160843   -0.5306909     0.0002067   -0.0001766    -0.0001230    0.0001745     0.1708044   -0.3613788 
   0.032158029     0.4125672   -0.5324475    -0.0000589    0.0000392    -0.0001862    0.0000294     0.1712939   -0.3608220 
   0.032258054     0.4103879   -0.5310013    -0.0002835   -0.0000731    -0.0000611    0.0001797     0.1697810   -0.3594800 
   0.032358079     0.4086801   -0.5295878    -0.0002343   -0.0000526    -0.0001598    0.0000958     0.1689931   -0.3577950 
   0.032458104     0.4054718   -0.5314723    -0.0002036    0.0002544    -0.0001429    0.0002188     0.1682445   -0.3582892 
   0.032558129     0.4018112   -0.5254329    -0.0000861    0.0001539    -0.0001608    0.0001943     0.1684293   -0.3575426 
   0.032658154     0.3999600   -0.5316423    -0.0001296    0.0003630    -0.0000024    0.0001780     0.1663655   -0.3564066 
   0.032758179     0.4000367   -0.5280702    -0.0002035    0.0002239    -0.0001491    0.0001012     0.1664195   -0.3561927 
   0.032858204     0.3970161   -0.5279110    -0.0000081   -0.0002754    -0.0000696    0.0001110     0.1648113   -0.3560449 
   0.032958229     0.3973924   -0.5284798    -0.0003676    0.0003897    -0.0001202    0.0001143     0.1647923   -0.3541698 
   0.033058254     0.3926007   -0.5279087     0.0000202   -0.0002292    -0.0002561    0.0001406     0.1644378   -0.3542457 
   0.033158279     0.3892577   -0.5279980     0.0000515    0.0003837    -0.0000062    0.0000302     0.1636989   -0.3528703 
   0.033258304     0.3897012   -0.5285522     0.0003531    0.0001521    -0.0001394    0.0002302     0.1620777   -0.3524877 
   0.033358329     0.3873123   -0.5267279    -0.0000115   -0.0003572    -0.0001328    0.0001586     0.1623135   -0.3518422 
   0.033458354     0.3862641   -0.5257782    -0.0001613    0.0002607    -0.0001243    0.0001329     0.1615844   -0.3516783 
   0.033558379     0.3843337   -0.5284595     0.0001372    0.0001357    -0.0001122    0.0000560     0.1618350   -0.3501707 
   0.033658404     0.3814909   -0.5257672     0.0000835    0.0002323    -0.0001451    0.0001337     0.1599641   -0.3500415 
   0.033758429     0.3800994   -0.5249280    -0.0001631   -0.0000033    -0.0000759    0.0000093     0.1592482   -0.3488505 
   0.033858454     0.3791362   -0.5262048    -0.0005187    0.0001026     0.0000308    0.0001846     0.1588515   -0.3490241 
   0.033958479     0.3794460   -0.5296264    -0.0001613   -0.0001576    -0.0000610   -0.0000085     0.1580200   -0.3483462 
   0.034058504     0.3787592   -0.5241279    -0.0002601    0.0003690    -0.0002499    0.0001384     0.1567374   -0.3477283 
   0.034158529     0.3757111   -0.5268010    -0.0002420    0.0001016    -0.0001494    0.0002861     0.1576718   -0.3462842 
   0.034258554     0.3735193   -0.5267601     0.0000279    0.0002599    -0.0002079   -0.0001092     0.1563324   -0.3463514 
   0.034358579     0.3698241   -0.5228668    -0.0000153    0.0004877    -0.0000942    0.0001740     0.1548413   -0.3459271 
   0.034458604     0.3737306   -0.5284257    -0.0003963   -0.0000250    -0.0000286    0.0001812     0.1560140   -0.3441818 
   0.034558629     0.3707991   -0.5233040     0.0002734    0.0001560    -0.0001004    0.0001623     0.1533069   -0.3442244 
   0.034658654     0.3666591   -0.5255718    -0.0003240    0.0000996    -0.0000456    0.0001321     0.1530690   -0.3426820 
   0.034758679     0.3656090   -0.5267772    -0.0000034   -0.0000726     0.0000300    0.0000761     0.1540803   -0.3428486 
   0.034858704     0.3661248   -0.5249293    -0.0002725    0.0001438    -0.0001143    0.0000788     0.1516725   -0.3420667 
   0.034958729     0.3664768   -0.5198525     0.0000307    0.0000479    -0.0001419    0.0001886     0.1520524   -0.3415477 
   0.035058754     0.3642229   -0.5222490     0.0001046    0.0001345    -0.0000222    0.0002856     0.1505622   -0.3414122 
   0.035158779     0.3640788   -0.5251107    -0.0003082    0.0000173    -0.0001554    0.0000303     0.1491323   -0.3399436 
   0.035258804     0.3618017   -0.5247261    -0.0003175    0.0001713    -0.0001393    0.0002794     0.1495387   -0.3394505 
   0.035358829     0.3583389   -0.5193768    -0.0000094    0.0002225    -0.0001405    0.0000334     0.1493447   -0.3382519 
   0.035458854     0.3568664   -0.5177665    -0.0002308   -0.0002704    -0.0000401    0.0000004     0.1477798   -0.3386097 
   0.035558879     0.3567379   -0.5200083    -0.0000821    0.0001005    -0.0000915   -0.0001188     0.1490009   -0.3375756 
   0.035658904     0.3511885   -0.5205944    -0.0000554    0.0004404    -0.0001271    0.0000547     0.1465237   -0.3373175 
   0.035758929     0.3495793   -0.5174449    -0.0002823   -0.0000994    -0.0001766    0.0001324     0.1477733   -0.3364112 
   0.035858954     0.3525290   -0.5181977    -0.0004242    0.0001263    -0.0002410    0.0000775     0.1467579   -0.3359535 
   0.035958979     0.3492444   -0.5200781     0.0001311    0.0004016    -0.0000140    0.0000444     0.1454403   -0.3351132 
   0.036059005     0.3516843   -0.5188602     0.0000071   -0.0001360     0.0000187   -0.0000219     0.1452943   -0.3346300 
   0.036159030     0.3456794   -0.5184038     0.0000583    0.0000170    -0.0001613    0.0001285     0.1446140   -0.3343785 
   0.036259055     0.3424179   -0.5174537    -0.0000340    0.0003195    -0.0001390    0.0002072     0.1437288   -0.3341442 
   0.036359080     0.3399388   -0.5140848    -0.0002091    0.0004636    -0.0000349    0.0001034     0.1431846   -0.3332540 
   0.036459105     0.3419528   -0.5212216     0.0002775    0.0001500    -0.0000591    0.0002180     0.1433027   -0.3320332 
   0.036559130     0.3383518   -0.5131587    -0.0001778   -0.0001964    -0.0001929    0.0001644     0.1410416   -0.3314944 
   0.036659155     0.3377164   -0.5189232    -0.0004849    0.0007691    -0.0001057   -0.0000494     0.1405327   -0.3308841 
   0.036759180     0.3405045   -0.5161867     0.0001884    0.0000405    -0.0000297    0.0001609     0.1416683   -0.3308759 
   0.036859205     0.3382861   -0.5161312    -0.0001036    0.0002657     0.0000173    0.0001832     0.1400222   -0.3301059 
   0.036959230     0.3332551   -0.5190024    -0.0005116    0.0002024    -0.0000044   -0.0000232     0.1392813   -0.3299276 
   0.037059255     0.3345742   -0.5197449    -0.0002190    0.0000708    -0.0000585    0.0001771     0.1392702   -0.3290946 
   0.037159280     0.3324520   -0.5154749     0.0002065    0.0002113    -0.0001429    0.0000970     0.1393527   -0.3282903 
   0.037259305     0.3282238   -0.5197256     0.0000089    0.0006432    -0.0000083    0.0001724     0.1383846   -0.3274027 
   0.037359330     0.3287412   -0.5190523     0.0000070   -0.0000218    -0.0000220   -0.0000315     0.1373342   -0.3282312 
   0.037459355     0.3310704   -0.5161888    -0.0001503   -0.0002642    -0.0000821    0.0000788     0.1368180   -0.3267361 
   0.037559380     0.3243726   -0.5153258    -0.0000973    0.0001028    -0.0000811    0.0002487     0.1367274   -0.3252402 
   0.037659405     0.3223965   -0.5133606    -0.0002854    0.0003952    -0.0000191    0.0000851     0.1364371   -0.3252525 
   0.037759430     0.3251199   -0.5156481    -0.0002574   -0.0001467    -0.0001605    0.0001571     0.1362936   -0.3241104 
   0.037859455     0.3222784   -0.5108072    -0.0000585    0.0004074    -0.0002803    0.0002147     0.1352874   -0.3240330 
   0.037959480     0.3199113   -0.5120339    -0.0006587    0.0000461    -0.0000551   -0.0000190     0.1342876   -0.3231975 
   0.038059505     0.3202460   -0.5113001     0.0002204   -0.0000911    -0.0000581   -0.0000779     0.1343233   -0.3235623 
   0.038159530     0.3170967   -0.5145124    -0.0000738    0.0001300    -0.0001163    0.0000174     0.1337409   -0.3224839 
   0.038259555     0.3132301   -0.5111431    -0.0000973    0.0005794    -0.0001073    0.0002459     0.1332164   -0.3220560 
   0.038359580     0.3161733   -0.5082258    -0.0001504   -0.0002850     0.0000348    0.0001956     0.1328115   -0.3209643 
   0.038459605     0.3151177   -0.5127770     0.0004662    0.0005457     0.0000495   -0.0000542     0.1320641   -0.3209868 
   0.038559630     0.3127533   -0.5118861    -0.0001111    0.0000712    -0.0002130    0.0001237     0.1313232   -0.3214171 
   0.038659655     0.3144032   -0.5154595     0.0001561    0.0002852    -0.0000737    0.0001216     0.1317441   -0.3197422 
   0.038759680     0.3112394   -0.5071490    -0.0003938    0.0002490    -0.0000555    0.0000161     0.1304458   -0.3198741 
   0.038859705     0.3079463   -0.5069945     0.0000379    0.0000931    -0.0000205    0.0002610     0.1304995   -0.3190666 
   0.038959730     0.3059247   -0.5063842    -0.0006249    0.0004008     0.0001461    0.0002063     0.1306919   -0.3187765 
   0.039059755     0.3049920   -0.5097414    -0.0001745    0.0000519    -0.0001117    0.0002148     0.1300501   -0.3175083 
   0.039159780     0.3020551   -0.5048354    -0.0000127   -0.0003003    -0.0002192    0.0001215     0.1286599   -0.3176318 
   0.039259805     0.3043533   -0.5098211     0.0005547   -0.0000057    -0.0002325    0.0001286     0.1281532   -0.3173400 
   0.039359830     0.3008020   -0.5054561     0.0001341    0.0001134     0.0001385    0.0000038     0.1280147   -0.3164177 
   0.039459855     0.2978800   -0.5048951    -0.0006351    0.0002714    -0.0000760    0.0001806     0.1274816   -0.3157457 
   0.039559880     0.3007281   -0.5056986     0.0000935   -0.0000015    -0.0000326    0.0002388     0.1274191   -0.3152820 
   0.039659905     0.2973021   -0.5048800     0.0002209   -0.0000480    -0.0001642   -0.0000102     0.1264835   -0.3140636 
   0.039759930     0.2967861   -0.5058968     0.0002951   -0.0000125    -0.0001049    0.0001167     0.1255524   -0.3131900 
   0.039859955     0.2957164   -0.5030327     0.0001036   -0.0003979    -0.0000626    0.0001607     0.1257467   -0.3140432 
   0.039959980     0.2936980   -0.5068237     0.0002520    0.0002387    -0.0003259    0.0002216     0.1251197   -0.3131035 
   0.040060005     0.2943959   -0.5065619     0.0002904   -0.0003602    -0.0001038    0.0001894     0.1253277   -0.3122663 
   0.040160030     0.2931689   -0.5017013     0.0001406   -0.0001365    -0.0002037    0.0001064     0.1245429   -0.3112220 
   0.040260055     0.2914997   -0.5014935    -0.0002304    0.0000155    -0.0000774    0.0000335     0.1236754   -0.3112475 
   0.040360080     0.2850046   -0.5018777    -0.0002828    0.0001796    -0.0000549    0.0001237     0.1224119   -0.3105083 
   0.040460105     0.2923778   -0.5039731    -0.0002754   -0.0004723    -0.0000619    0.0001312     0.1217737   -0.3104861 
   0.040560130     0.2880267   -0.5006267     0.0001169    0.0001829    -0.0002570    0.0001994     0.1226564   -0.3098246 
   0.040660155     0.2908038   -0.5052417    -0.0003885    0.0001351     0.0000412    0.0003263     0.1219789   -0.3085408 
   0.040760180     0.2870165   -0.4964582     0.0001195    0.0000499    -0.0000917    0.0002134     0.1212202   -0.3089290 
   0.040860205     0.2807424   -0.4996555     0.0001503    0.0001727    -0.0002406    0.0002330     0.1219254   -0.3079647 
   0.040960230     0.2816134   -0.5054694    -0.0007694    0.0000219    -0.0001893    0.0002178     0.1207905   -0.3078029 
   0.041060255     0.2864601   -0.5016190    -0.0006180   -0.0001760     0.0000245    0.0003050     0.1199849   -0.3080985 
   0.041160280     0.2760476   -0.5027753     0.0000247   -0.0001949    -0.0001414    0.0001211     0.1193129   -0.3060361 
   0.041260305     0.2793075   -0.4969607    -0.0004311    0.0004505     0.0000570    0.0003626     0.1191555   -0.3050193 
   0.041360330     0.2767535   -0.4994758     0.0008177   -0.0000206    -0.0002017    0.0001599     0.1192651   -0.3062808 
   0.041460355     0.2732115   -0.4904719     0.0002729    0.0006023     0.0000062    0.0001129     0.1186944   -0.3054588 
   0.041560380     0.2787335   -0.4949333    -0.0000604    0.0003333    -0.0002591    0.0000710     0.1187008   -0.3048203 
   0.041660405     0.2742639   -0.5009112    -0.0012806    0.0000845    -0.0001146    0.0000456     0.1178006   -0.3040104 
   0.041760430     0.2712598   -0.4987133    -0.0000042    0.0003848    -0.0002610    0.0000904     0.1179905   -0.3033698 
   0.041860455     0.2734622   -0.4999657    -0.0000560    0.0000587    -0.0000718    0.0001069     0.1164382   -0.3029974 
   0.041960480     0.2658093   -0.4967305    -0.0002129   -0.0000247    -0.0000541    0.0002847     0.1160677   -0.3027940 
   0.042060505     0.2688168   -0.4984001    -0.0003838    0.0004518    -0.0000124    0.0000894     0.1157215   -0.3013495 
   0.042160530     0.2669934   -0.4910710     0.0000989    0.0006007    -0.0000027    0.0000019     0.1153663   -0.3018670 
   0.042260555     0.2641641   -0.4943438     0.0000330    0.0004628    -0.0000030    0.0000572     0.1157193   -0.3009053 
   0.042360580     0.2633817   -0.4932593    -0.0005745    0.0002325    -0.0001269    0.0001438     0.1146523   -0.3015750 
   0.042460605     0.2632011   -0.4932452     0.0000940   -0.0000216    -0.0000796    0.0000235     0.1147051   -0.3004722 
   0.042560630     0.2622240   -0.4922915     0.0002293    0.0002388    -0.0000738    0.0001451     0.1147684   -0.2997669 
   0.042660655     0.2618355   -0.4930308    -0.0001449    0.0005269    -0.0003179    0.0002874     0.1146374   -0.2992783 
   0.042760680     0.2612786   -0.4936417    -0.0004350   -0.0001485    -0.0002769   -0.0000459     0.1131799   -0.2990433 
   0.042860705     0.2610815   -0.4930731     0.0000357    0.0000340    -0.0001330    0.0002428     0.1131745   -0.2983468 
   0.042960730     0.2584451   -0.4892232     0.0005304    0.0006516    -0.0000060    0.0001820     0.1130358   -0.2979435 
   0.043060755     0.2567275   -0.4906173    -0.0003017    0.0003057    -0.0002212    0.0000624     0.1125672   -0.2972299 
   0.043160780     0.2535015   -0.4895725    -0.0003199    0.0003396    -0.0000304    0.0002212     0.1118430   -0.2972515 
   0.043260805     0.2547155   -0.4927942    -0.0003969    0.0001519    -0.0000426    0.0004042     0.1116531   -0.2971728 
   0.043360830     0.2576506   -0.4887279    -0.0005270    0.0002594    -0.0000266    0.0001041     0.1120718   -0.2957989 
   0.043460855     0.2542415   -0.4878145    -0.0001281    0.0002212     0.0001292    0.0001859     0.1113330   -0.2951142 
   0.043560880     0.2528551   -0.4840612    -0.0001086   -0.0002612    -0.0002899    0.0002473     0.1112072   -0.2960681 
   0.043660905     0.2543097   -0.4906492    -0.0001990    0.0001217    -0.0001283    0.0001561     0.1096515   -0.2951192 
   0.043760930     0.2490839   -0.4929986     0.0000495    0.0005106     0.0000148    0.0003115     0.1094114   -0.2942949 
   0.043860955     0.2516161   -0.4856603    -0.0001564   -0.0000367    -0.0002382    0.0000221     0.1097712   -0.2935461 
   0.043960980     0.2470554   -0.4844055    -0.0002545    0.0002613    -0.0000760    0.0001146     0.1090577   -0.2927906 
   0.044061006     0.2511140   -0.4835531    -0.0005518    0.0004135     0.0000532    0.0000730     0.1094133   -0.2932887 
   0.044161031     0.2482754   -0.4887461    -0.0007660    0.0004512    -0.0001467   -0.0000554     0.1085137   -0.2924102 
   0.044261056     0.2473368   -0.4870468     0.0002741    0.0003280    -0.0001560    0.0002586     0.1076920   -0.2922245 
   0.044361081     0.2469969   -0.4829968    -0.0005615    0.0001148    -0.0002316    0.0001707     0.1073550   -0.2917330 
   0.044461106     0.2458762   -0.4792750     0.0002974   -0.0000258    -0.0001449    0.0001990     0.1069500   -0.2906450 
   0.044561131     0.2479135   -0.4850849    -0.0001821    0.0007587    -0.0001089    0.0002135     0.1077795   -0.2903609 
   0.044661156     0.2367046   -0.4860670     0.0005603    0.0002151    -0.0000281    0.0003546     0.1069344   -0.2911395 
   0.044761181     0.2375467   -0.4821916     0.0000160    0.0005889    -0.0000751    0.0002614     0.1063794   -0.2906861 
   0.044861206     0.2411488   -0.4832408    -0.0001801   -0.0005987    -0.0001956    0.0000257     0.1066744   -0.2891232 
   0.044961231     0.2343398   -0.4816944     0.0002036    0.0004325    -0.0000989    0.0000896     0.1046720   -0.2891157 
   0.045061256     0.2340250   -0.4827850    -0.0004230   -0.0000439    -0.0000310    0.0000585     0.1051299   -0.2888562 
   0.045161281     0.2383022   -0.4816300    -0.0000776    0.0003463     0.0000533    0.0001588     0.1047399   -0.2876055 
   0.045261306     0.2345830   -0.4803724     0.0001943    0.0003442    -0.0001352    0.0000322     0.1047397   -0.2886453 
   0.045361331     0.2333745   -0.4820257     0.0001826    0.0001313    -0.0001748    0.0001761     0.1037463   -0.2870586 
   0.045461356     0.2288737   -0.4818216    -0.0003718    0.0007947    -0.0002739    0.0000619     0.1033654   -0.2870138 
   0.045561381     0.2325740   -0.4804178     0.0000330    0.0005839     0.0001585    0.0001496     0.1039515   -0.2855490 
   0.045661406     0.2274545   -0.4786701    -0.0001335    0.0004519     0.0001580    0.0000001     0.1030625   -0.2853845 
   0.045761431     0.2312085   -0.4829306     0.0002863    0.0008103     0.0000059    0.0002850     0.1027058   -0.2855739 
   0.045861456     0.2308421   -0.4806843     0.0000063   -0.0001324    -0.0000008    0.0001554     0.1026347   -0.2849657 
   0.045961481     0.2259106   -0.4741357     0.0001925    0.0000965     0.0000571    0.0003416     0.1021269   -0.2848735 
   0.046061506     0.2247613   -0.4722141     0.0006003    0.0002455    -0.0000891    0.0001162     0.1022482   -0.2846069 
   0.046161531     0.2282740   -0.4787191     0.0005645    0.0001577    -0.0002820    0.0002766     0.1019409   -0.2844832 
   0.046261556     0.2239110   -0.4767829     0.0000449    0.0010427    -0.0000410    0.0003276     0.1016087   -0.2832108 
   0.046361581     0.2252150   -0.4735371    -0.0000871    0.0003272    -0.0001118    0.0002843     0.1005257   -0.2826048 
   0.046461606     0.2222484   -0.4762799    -0.0008088    0.0005535     0.0000170    0.0002149     0.1015980   -0.2817749 
   0.046561631     0.2158781   -0.4708668     0.0004640    0.0007866    -0.0002885    0.0003466     0.0999204   -0.2816416 
   0.046661656     0.2190778   -0.4786393    -0.0001633    0.0002653    -0.0001912    0.0000054     0.0997904   -0.2820514 
   0.046761681     0.2189482   -0.4734066    -0.0001291   -0.0005424    -0.0000892    0.0001223     0.0991743   -0.2814831 
   0.046861706     0.2206821   -0.4727685    -0.0004398   -0.0002932    -0.0003487    0.0001528     0.0991180   -0.2808388 
   0.046961731     0.2216734   -0.4727393    -0.0005154   -0.0001657    -0.0003072    0.0001008     0.0992073   -0.2798761 
   0.047061756     0.2221024   -0.4716421    -0.0001441   -0.0001579     0.0000439    0.0000568     0.0983212   -0.2806651 
   0.047161781     0.2162455   -0.4744449    -0.0001355    0.0006926    -0.0001325    0.0002173     0.0992862   -0.2797701 
   0.047261806     0.2160429   -0.4711436    -0.0003031    0.0005480     0.0000528    0.0001908     0.0985419   -0.2792662 
   0.047361831     0.2172770   -0.4705647    -0.0003242    0.0004185    -0.0000515    0.0001775     0.0971510   -0.2793667 
   0.047461856     0.2146830   -0.4696492     0.0003381   -0.0005800    -0.0001338    0.0002179     0.0967721   -0.2799030 
   0.047561881     0.2165326   -0.4700923     0.0000360    0.0001952    -0.0000492    0.0005053     0.0978504   -0.2778886 
   0.047661906     0.2162985   -0.4716955    -0.0005081    0.0001164    -0.0000742    0.0002472     0.0977633   -0.2776020 
   0.047761931     0.2151801   -0.4698604    -0.0001479    0.0005069    -0.0000277    0.0001704     0.0971422   -0.2770739 
   0.047861956     0.2089425   -0.4673400    -0.0000753   -0.0001774    -0.0002423    0.0002836     0.0974151   -0.2772200 
   0.047961981     0.2094660   -0.4646219    -0.0003959    0.0002031     0.0000268    0.0004535     0.0964958   -0.2763086 
   0.048062006     0.2071140   -0.4695320    -0.0003319    0.0005883    -0.0000583    0.0001194     0.0959546   -0.2763655 
   0.048162031     0.2074065   -0.4675340    -0.0004642   -0.0000437     0.0002791    0.0001929     0.0955911   -0.2752375 
   0.048262056     0.2056928   -0.4630714    -0.0003079    0.0000405     0.0000317    0.0000855     0.0956433   -0.2758984 
   0.048362081     0.2047867   -0.4636447    -0.0005146   -0.0000036     0.0000493    0.0002518     0.0952472   -0.2753803 
   0.048462106     0.2079674   -0.4622453     0.0000846    0.0011078     0.0000447    0.0005228     0.0946971   -0.2739233 
   0.048562131     0.2043068   -0.4656532    -0.0002099    0.0003398     0.0000479    0.0003247     0.0950790   -0.2745048 
   0.048662156     0.2005530   -0.4600192    -0.0001307    0.0001757    -0.0001540    0.0001817     0.0944060   -0.2733744 
   0.048762181     0.2030093   -0.4609532    -0.0004566   -0.0001210    -0.0000692    0.0002446     0.0940284   -0.2733896 
   0.048862206     0.2002741   -0.4651572    -0.0005085    0.0005906     0.0001739    0.0002289     0.0938264   -0.2742769 
   0.048962231     0.2052119   -0.4624496    -0.0004036   -0.0001201    -0.0002758    0.0001974     0.0932993   -0.2737216 
   0.049062256     0.1992114   -0.4603808     0.0000963   -0.0006224    -0.0001883    0.0003635     0.0933367   -0.2724129 
   0.049162281     0.1990367   -0.4594262     0.0002280    0.0001942    -0.0001376    0.0002951     0.0921042   -0.2721648 
   0.049262306     0.2004465   -0.4643603    -0.0005173    0.0007590    -0.0000648    0.0001604     0.0922787   -0.2716512 
   0.049362331     0.2004878   -0.4576442    -0.0002366   -0.0002032     0.0001838    0.0002750     0.0937645   -0.2712043 
   0.049462356     0.1944081   -0.4592444     0.0000110    0.0003956     0.0000829    0.0000249     0.0917867   -0.2711768 
   0.049562381     0.1950136   -0.4586418    -0.0005515   -0.0000823    -0.0001658    0.0002052     0.0918244   -0.2704231 
   0.049662406     0.1976697   -0.4603713    -0.0004172    0.0008636    -0.0000647    0.0001292     0.0925124   -0.2704403 
   0.049762431     0.1933015   -0.4610272    -0.0000227    0.0000217    -0.0000591    0.0002729     0.0912882   -0.2691454 
   0.049862456     0.1908175   -0.4587877     0.0001081    0.0005623     0.0000447    0.0002842     0.0907766   -0.2690342 
   0.049962481     0.1938710   -0.4595942     0.0005045    0.0005251    -0.0001863    0.0002015     0.0912359   -0.2695197 
   0.050062506     0.1918936   -0.4592347    -0.0002505    0.0009145    -0.0000071   -0.0000660     0.0901056   -0.2690235 
   0.050162531     0.1896935   -0.4513362    -0.0001703    0.0004654    -0.0003120    0.0003009     0.0897673   -0.2679705 
   0.050262556     0.1879152   -0.4545949     0.0002440    0.0002154    -0.0002115    0.0003065     0.0895581   -0.2673613 
   0.050362581     0.1868619   -0.4562281     0.0000283    0.0007285    -0.0000435    0.0004081     0.0887460   -0.2674769 
   0.050462606     0.1875358   -0.4539277     0.0000890   -0.0010219     0.0001070    0.0004641     0.0899538   -0.2669148 
   0.050562631     0.1853487   -0.4530126    -0.0005970    0.0003757    -0.0002386    0.0002445     0.0887353   -0.2667123 
   0.050662656     0.1873227   -0.4516861     0.0000856    0.0001719     0.0001638    0.0002605     0.0893984   -0.2668423 
   0.050762681     0.1863385   -0.4511666    -0.0001534   -0.0000786    -0.0000281    0.0003285     0.0886570   -0.2659202 
   0.050862706     0.1811797   -0.4569755     0.0005277    0.0003766     0.0001306    0.0001911     0.0876058   -0.2658274 
   0.050962731     0.1820646   -0.4525716     0.0000078    0.0002288     0.0000454    0.0001740     0.0884922   -0.2657714 
   0.051062756     0.1864904   -0.4546566     0.0000658   -0.0000694    -0.0001648    0.0004975     0.0873837   -0.2655772 
   0.051162781     0.1806567   -0.4494830    -0.0006272   -0.0006933    -0.0000808    0.0002006     0.0877636   -0.2650349 
   0.051262806     0.1800668   -0.4537706    -0.0004994    0.0006460    -0.0000672    0.0002515     0.0872636   -0.2642850 
   0.051362831     0.1771276   -0.4536391     0.0001632    0.0003436    -0.0002513    0.0003671     0.0873839   -0.2644972 
   0.051462856     0.1790497   -0.4531568    -0.0006023   -0.0000564    -0.0000552    0.0001919     0.0876442   -0.2633196 
   0.051562881     0.1783066   -0.4510247    -0.0002043    0.0004659    -0.0002184    0.0001316     0.0870624   -0.2633810 
   0.051662906     0.1777041   -0.4478126    -0.0001340    0.0006354    -0.0002761    0.0004761     0.0860814   -0.2627281 
   0.051762931     0.1765530   -0.4510947     0.0002202    0.0007049    -0.0001340   -0.0000349     0.0855921   -0.2626651 
   0.051862956     0.1727995   -0.4515790    -0.0009541    0.0010364    -0.0000554    0.0001946     0.0862162   -0.2627580 
   0.051962981     0.1737544   -0.4484513    -0.0004000    0.0004888    -0.0001735    0.0003671     0.0856692   -0.2625238 
   0.052063007     0.1758995   -0.4504260     0.0001752    0.0006666    -0.0002556    0.0002137     0.0853397   -0.2613495 
   0.052163032     0.1770296   -0.4449910    -0.0001486    0.0003618     0.0000081   -0.0000895     0.0857348   -0.2609583 
   0.052263057     0.1748020   -0.4469554     0.0001631   -0.0004471    -0.0001557    0.0001365     0.0848239   -0.2607569 
   0.052363082     0.1740457   -0.4455253    -0.0004931   -0.0000928    -0.0001299    0.0002787     0.0844313   -0.2600979 
   0.052463107     0.1682830   -0.4475446    -0.0001423    0.0001906    -0.0002565    0.0002430     0.0842482   -0.2612692 
   0.052563132     0.1697294   -0.4421522     0.0001732    0.0000380    -0.0001212    0.0003593     0.0848639   -0.2598647 
   0.052663157     0.1695483   -0.4442942     0.0007951   -0.0002502    -0.0001803    0.0003891     0.0839309   -0.2599393 
   0.052763182     0.1677720   -0.4409427    -0.0003301    0.0010335     0.0000569    0.0002085     0.0834512   -0.2588343 
   0.052863207     0.1707497   -0.4412837    -0.0002921   -0.0001955     0.0002615    0.0006088     0.0844959   -0.2591669 
   0.052963232     0.1688576   -0.4438001     0.0002561   -0.0000196     0.0000253    0.0003507     0.0831884   -0.2585188 
   0.053063257     0.1663754   -0.4426913    -0.0006345    0.0005733     0.0000532    0.0002310     0.0834285   -0.2575398 
   0.053163282     0.1658475   -0.4381735     0.0000310    0.0010415    -0.0000492    0.0002705     0.0822193   -0.2586160 
   0.053263307     0.1705352   -0.4420723    -0.0011692    0.0004175    -0.0000876    0.0001473     0.0831989   -0.2575079 
   0.053363332     0.1672427   -0.4393916     0.0007878    0.0003816    -0.0001839    0.0001688     0.0825557   -0.2572882 
   0.053463357     0.1656652   -0.4430453     0.0002990   -0.0008801    -0.0000743    0.0005539     0.0829772   -0.2566839 
   0.053563382     0.1669246   -0.4405804     0.0005273    0.0002206    -0.0002835    0.0004084     0.0815174   -0.2575093 
   0.053663407     0.1662378   -0.4390604    -0.0004979    0.0001449    -0.0001509    0.0003862     0.0824138   -0.2561429 
   0.053763432     0.1657566   -0.4372773     0.0000542   -0.0001051     0.0000409    0.0001494     0.0819010   -0.2558050 
   0.053863457     0.1633417   -0.4442413    -0.0001865   -0.0004197     0.0000780    0.0001175     0.0804564   -0.2560582 
   0.053963482     0.1566162   -0.4371057    -0.0005107    0.0004540     0.0000269    0.0003364     0.0814395   -0.2552123 
   0.054063507     0.1599594   -0.4348898    -0.0000326   -0.0005937     0.0001096    0.0000774     0.0807799   -0.2552695 
   0.054163532     0.1585031   -0.4335536    -0.0000052    0.0002776    -0.0000170    0.0001353     0.0810371   -0.2541987 
   0.054263557     0.1573898   -0.4379206     0.0000071    0.0002486     0.0000797    0.0003396     0.0798490   -0.2540776 
   0.054363582     0.1534343   -0.4351550    -0.0012730    0.0005752    -0.0001936    0.0002729     0.0796603   -0.2542647 
   0.054463607     0.1561052   -0.4313657    -0.0001291    0.0003404     0.0000591    0.0001949     0.0806274   -0.2536419 
   0.054563632     0.1554086   -0.4366009     0.0000578    0.0000995     0.0000789    0.0001529     0.0802279   -0.2529804 
   0.054663657     0.1575796   -0.4326531    -0.0002946    0.0002231     0.0000974    0.0003563     0.0798827   -0.2528616 
   0.054763682     0.1567075   -0.4331380    -0.0001882    0.0006872    -0.0001343    0.0000325     0.0789537   -0.2529225 
   0.054863707     0.1542420   -0.4362159    -0.0006463    0.0005126     0.0002678    0.0000672     0.0801644   -0.2528552 
   0.054963732     0.1580986   -0.4369879     0.0004723   -0.0007749    -0.0000341    0.0002757     0.0792478   -0.2523272 
   0.055063757     0.1526028   -0.4318066    -0.0000008    0.0000749    -0.0002345    0.0002959     0.0790951   -0.2523584 
   0.055163782     0.1547688   -0.4314538     0.0009642    0.0001925     0.0000483    0.0002587     0.0782628   -0.2513753 
   0.055263807     0.1522835   -0.4318008     0.0000720    0.0006911    -0.0000692    0.0000616     0.0787531   -0.2516627 
   0.055363832     0.1496919   -0.4309230    -0.0006339    0.0002986    -0.0002144    0.0003576     0.0781349   -0.2512200 
   0.055463857     0.1497881   -0.4332158     0.0001374   -0.0000345     0.0001935    0.0000387     0.0774785   -0.2511954 
   0.055563882     0.1474109   -0.4289981     0.0001811    0.0002387    -0.0004213    0.0006290     0.0778571   -0.2499804 
   0.055663907     0.1454374   -0.4258019     0.0003747    0.0000631    -0.0000723    0.0002599     0.0779440   -0.2505903 
   0.055763932     0.1485293   -0.4287520     0.0001796    0.0000406    -0.0003912    0.0003678     0.0777786   -0.2499629 
   0.055863957     0.1471958   -0.4282141     0.0001948   -0.0003243    -0.0000798    0.0001358     0.0769945   -0.2492765 
   0.055963982     0.1414002   -0.4275128    -0.0006074    0.0001775     0.0001562    0.0000888     0.0769488   -0.2489940 
   0.056064007     0.1507037   -0.4237363     0.0005346   -0.0002867    -0.0000914    0.0003500     0.0767508   -0.2488428 
   0.056164032     0.1455730   -0.4294847    -0.0001432    0.0002170    -0.0001849    0.0002302     0.0770310   -0.2489886 
   0.056264057     0.1496871   -0.4247887    -0.0003265   -0.0001271     0.0001770    0.0000281     0.0759311   -0.2483635 
   0.056364082     0.1434460   -0.4293231    -0.0003190    0.0009728     0.0000438   -0.0000051     0.0765780   -0.2485513 
   0.056464107     0.1438977   -0.4297984     0.0003803    0.0008044    -0.0000726    0.0002874     0.0756457   -0.2481149 
   0.056564132     0.1442683   -0.4155248    -0.0001816    0.0003682    -0.0001129    0.0003505     0.0752978   -0.2479701 
   0.056664157     0.1394911   -0.4245807    -0.0000175    0.0009010    -0.0001594    0.0001385     0.0753802   -0.2474310 
   0.056764182     0.1373288   -0.4215471    -0.0005251    0.0000861    -0.0000002    0.0006325     0.0752765   -0.2473385 
   0.056864207     0.1412655   -0.4272647    -0.0002294   -0.0005567    -0.0000746    0.0000767     0.0748449   -0.2465248 
   0.056964232     0.1436729   -0.4286022    -0.0006397    0.0001974     0.0001603    0.0004730     0.0746842   -0.2461345 
   0.057064257     0.1398885   -0.4198228     0.0002182   -0.0000395    -0.0000598    0.0002938     0.0741301   -0.2456486 
   0.057164282     0.1381274   -0.4242899    -0.0005410    0.0006204    -0.0000482    0.0001085     0.0737109   -0.2453962 
   0.057264307     0.1356462   -0.4199850    -0.0000221    0.0007311    -0.0000047   -0.0000515     0.0749666   -0.2461896 
   0.057364332     0.1352978   -0.4224339    -0.0005218    0.0002294    -0.0001475    0.0006055     0.0745907   -0.2453226 
   0.057464357     0.1358395   -0.4230551    -0.0000316    0.0002269    -0.0005766    0.0005481     0.0740433   -0.2456301 
   0.057564382     0.1390187   -0.4231155     0.0005598    0.0008762     0.0000438    0.0003389     0.0733334   -0.2448235 
   0.057664407     0.1374364   -0.4164914     0.0002714    0.0006110     0.0001657    0.0003108     0.0734150   -0.2442118 
   0.057764432     0.1368552   -0.4170061    -0.0005096   -0.0006081     0.0001263    0.0005245     0.0738482   -0.2441618 
   0.057864457     0.1339607   -0.4206740    -0.0001468    0.0010845    -0.0001048    0.0003267     0.0740892   -0.2448446 
   0.057964482     0.1290403   -0.4159084    -0.0003720    0.0001880    -0.0000803    0.0003011     0.0726390   -0.2440317 
   0.058064507     0.1355891   -0.4159108     0.0003333    0.0001780    -0.0002185    0.0003125     0.0731147   -0.2436705 
   0.058164532     0.1328822   -0.4128463    -0.0003421    0.0005582     0.0002229    0.0002127     0.0728586   -0.2435599 
   0.058264557     0.1342334   -0.4126081     0.0000594    0.0000097    -0.0000808    0.0005574     0.0719151   -0.2429873 
   0.058364582     0.1312311   -0.4139316    -0.0000037    0.0005917     0.0001889    0.0005088     0.0718915   -0.2425426 
   0.058464607     0.1292733   -0.4142686    -0.0000250    0.0002600    -0.0001318    0.0001831     0.0712388   -0.2417567 
   0.058564632     0.1291638   -0.4172729    -0.0006230    0.0009938     0.0002579    0.0002792     0.0718580   -0.2418267 
   0.058664657     0.1307226   -0.4145722    -0.0006020    0.0000635     0.0000314    0.0002375     0.0707150   -0.2417541 
   0.058764682     0.1308382   -0.4129002    -0.0005588    0.0010220     0.0000760    0.0002666     0.0713889   -0.2414512 
   0.058864707     0.1293097   -0.4151979    -0.0009297    0.0002144     0.0001198    0.0003070     0.0712412   -0.2420065 
   0.058964732     0.1289229   -0.4068642     0.0000341    0.0004430    -0.0000267    0.0001704     0.0709052   -0.2408432 
   0.059064757     0.1306764   -0.4132769     0.0005275    0.0001885     0.0000121    0.0003622     0.0714608   -0.2405027 
   0.059164782     0.1299265   -0.4108373     0.0001718   -0.0000976    -0.0000016    0.0003647     0.0697455   -0.2401355 
   0.059264807     0.1259111   -0.4093072    -0.0000849    0.0009034    -0.0001713    0.0004717     0.0711221   -0.2398649 
   0.059364832     0.1227710   -0.4097789    -0.0004522    0.0009943    -0.0001044    0.0004433     0.0710117   -0.2401384 
   0.059464857     0.1237873   -0.4100988     0.0000036    0.0001504     0.0000064    0.0003605     0.0698986   -0.2402300 
   0.059564882     0.1217161   -0.4071972    -0.0005116    0.0001621    -0.0000871    0.0005193     0.0697952   -0.2391179 
   0.059664907     0.1216229   -0.4117167    -0.0002852   -0.0003824    -0.0001142    0.0002750     0.0694394   -0.2391006 
   0.059764932     0.1272607   -0.4049178    -0.0007566   -0.0002418    -0.0001753    0.0002260     0.0700573   -0.2386688 
   0.059864957     0.1262701   -0.4054538    -0.0000228   -0.0001142    -0.0000517    0.0002256     0.0692409   -0.2381115 
   0.059964982     0.1200409   -0.4080662    -0.0001979    0.0003435     0.0000035    0.0002526     0.0697944   -0.2381866 
   0.060065008     0.1199724   -0.4098013    -0.0000597   -0.0002983     0.0004987    0.0002144     0.0692332   -0.2381419 
   0.060165033     0.1203116   -0.4049577     0.0007918    0.0007214    -0.0001396    0.0002230     0.0694698   -0.2376771 
   0.060265058     0.1179342   -0.4066764    -0.0003737    0.0007587     0.0002949    0.0004160     0.0679087   -0.2367783 
   0.060365083     0.1203141   -0.4023702    -0.0005011    0.0001519     0.0000326    0.0002616     0.0693529   -0.2367623 
   0.060465108     0.1188698   -0.4078706    -0.0000117    0.0000318    -0.0001046    0.0003041     0.0688939   -0.2362534 
   0.060565133     0.1190159   -0.4030805    -0.0002575   -0.0004092    -0.0000704    0.0003598     0.0681266   -0.2371684 
   0.060665158     0.1180965   -0.4073279    -0.0003181    0.0001587    -0.0000620    0.0003935     0.0685306   -0.2364782 
   0.060765183     0.1181170   -0.4045305    -0.0001914   -0.0001953     0.0001029    0.0003644     0.0676205   -0.2360007 
   0.060865208     0.1164693   -0.4025739    -0.0000989    0.0003612    -0.0000352    0.0004175     0.0683058   -0.2351983 
   0.060965233     0.1113870   -0.4014649    -0.0002591    0.0001761    -0.0004928    0.0000324     0.0671254   -0.2363413 
   0.061065258     0.1183220   -0.4016075     0.0004372    0.0000752     0.0001024    0.0000964     0.0687400   -0.2349884 
   0.061165283     0.1169797   -0.4012903     0.0007410   -0.0000104    -0.0000419    0.0000535     0.0672729   -0.2356792 
   0.061265308     0.1136566   -0.3982965     0.0004316    0.0004790    -0.0000317    0.0002793     0.0675258   -0.2350323 
   0.061365333     0.1122508   -0.4035373     0.0001990   -0.0001849     0.0001182    0.0001290     0.0664655   -0.2356513 
   0.061465358     0.1108719   -0.3984469    -0.0002813    0.0001074     0.0001898    0.0001819     0.0670077   -0.2340253 
   0.061565383     0.1129914   -0.3991278    -0.0007145    0.0001484    -0.0001238    0.0004218     0.0673285   -0.2343250 
   0.061665408     0.1147811   -0.3973033     0.0003012    0.0013519    -0.0000440    0.0004118     0.0672104   -0.2342610 
   0.061765433     0.1098118   -0.3989173    -0.0002531    0.0003100    -0.0001770    0.0001008     0.0665564   -0.2335800 
   0.061865458     0.1130991   -0.3965370     0.0000701    0.0002860     0.0002601    0.0000022     0.0658024   -0.2331170 
   0.061965483     0.1122512   -0.3993671    -0.0000535    0.0007243    -0.0002051    0.0002618     0.0665857   -0.2337856 
   0.062065508     0.1123434   -0.3968558     0.0001244    0.0011025    -0.0001306    0.0002023     0.0657571   -0.2332708 
   0.062165533     0.1123750   -0.3909110     0.0000296   -0.0000763    -0.0000898    0.0003474     0.0654728   -0.2324279 
   0.062265558     0.1083659   -0.3968244    -0.0004058    0.0008647     0.0001241    0.0004034     0.0652276   -0.2325630 
   0.062365583     0.1069001   -0.3952644    -0.0003307    0.0006020    -0.0001236    0.0001634     0.0645117   -0.2321123 
   0.062465608     0.1087650   -0.3954996    -0.0003807   -0.0002076    -0.0001597    0.0005135     0.0657228   -0.2320389 
   0.062565633     0.1037626   -0.3959196     0.0005381    0.0003058    -0.0001134    0.0005856     0.0643565   -0.2328765 
   0.062665658     0.1033256   -0.3936065     0.0000190    0.0007927     0.0002333    0.0002569     0.0651361   -0.2319973 
   0.062765683     0.1102804   -0.3954254    -0.0002254   -0.0000656    -0.0001541    0.0002283     0.0641013   -0.2318400 
   0.062865708     0.1064473   -0.3927626    -0.0000935   -0.0005745     0.0000489    0.0002662     0.0648511   -0.2322610 
   0.062965733     0.1080206   -0.3946143    -0.0004595    0.0000300     0.0000660    0.0003202     0.0642950   -0.2313300 
   0.063065758     0.1063260   -0.3988782     0.0001489    0.0002019    -0.0001091    0.0001149     0.0644620   -0.2306708 
   0.063165783     0.1062820   -0.3882886    -0.0008354   -0.0002361    -0.0001066    0.0003782     0.0640777   -0.2304187 
   0.063265808     0.1033760   -0.3946147     0.0003570   -0.0004644    -0.0000604    0.0003872     0.0640104   -0.2308618 
   0.063365833     0.1053356   -0.3919860     0.0002786    0.0005508     0.0000576    0.0005547     0.0635057   -0.2289526 
   0.063465858     0.1047775   -0.3879141     0.0002746    0.0000030    -0.0003106    0.0002425     0.0624167   -0.2295376 
   0.063565883     0.1040708   -0.3899734     0.0000910   -0.0002922    -0.0001291    0.0001359     0.0632858   -0.2294464 
   0.063665908     0.1008493   -0.3931116    -0.0004291   -0.0000202     0.0003204    0.0002518     0.0632819   -0.2291782 
   0.063765933     0.1005772   -0.3901667     0.0001998    0.0005845    -0.0002698    0.0003625     0.0626597   -0.2299677 
   0.063865958     0.1005222   -0.3893405     0.0007578    0.0004742    -0.0001273    0.0006455     0.0623726   -0.2285125 
   0.063965983     0.1010730   -0.3883536    -0.0001847    0.0005305     0.0002720    0.0006196     0.0632588   -0.2283128 
   0.064066008     0.0985527   -0.3865945     0.0002866    0.0001911     0.0000857    0.0006644     0.0628569   -0.2285838 
   0.064166033     0.0981710   -0.3857572    -0.0006146    0.0004364     0.0000240    0.0001713     0.0621901   -0.2286487 
   0.064266058     0.0980549   -0.3877875     0.0003660    0.0003068    -0.0000922    0.0001337     0.0630341   -0.2279359 
   0.064366083     0.0992535   -0.3843891     0.0001158    0.0008486     0.0000178    0.0001209     0.0624648   -0.2275290 
   0.064466108     0.1001866   -0.3843744     0.0003672    0.0001583    -0.0003272    0.0001876     0.0620689   -0.2270255 
   0.064566133     0.0968802   -0.3840588     0.0001403    0.0002069     0.0000541    0.0000660     0.0619486   -0.2261062 
   0.064666158     0.0992629   -0.3861389    -0.0005508    0.0008658     0.0000494    0.0004936     0.0622364   -0.2269014 
   0.064766183     0.0958907   -0.3797994    -0.0002385    0.0004533    -0.0001953    0.0003194     0.0617169   -0.2264981 
   0.064866208     0.0966681   -0.3840587     0.0000715    0.0007307    -0.0001936    0.0001698     0.0621479   -0.2270060 
   0.064966233     0.0951078   -0.3840373     0.0001410    0.0007662     0.0001973    0.0005229     0.0607408   -0.2267090 
   0.065066258     0.0954328   -0.3836888     0.0004915    0.0004513     0.0002755    0.0002949     0.0612124   -0.2269843 
   0.065166283     0.0930345   -0.3813026     0.0009926    0.0003152    -0.0000657    0.0002494     0.0604682   -0.2265440 
   0.065266308     0.0966341   -0.3843462    -0.0004315    0.0007495     0.0000920    0.0001427     0.0617160   -0.2259221 
   0.065366333     0.0939039   -0.3780918     0.0000718   -0.0001703    -0.0001885    0.0003783     0.0609649   -0.2254052 
   0.065466358     0.0962774   -0.3776332    -0.0000697   -0.0002074    -0.0000358    0.0005496     0.0609547   -0.2259188 
   0.065566383     0.0914250   -0.3810565     0.0000217    0.0002038    -0.0000835    0.0001475     0.0596477   -0.2255772 
   0.065666408     0.0905772   -0.3805999     0.0001199    0.0001055     0.0001152    0.0002580     0.0606333   -0.2253399 
   0.065766433     0.0918506   -0.3790004     0.0006070    0.0000389     0.0000136    0.0004917     0.0607443   -0.2244675 
   0.065866458     0.0918011   -0.3789302     0.0003826    0.0007580    -0.0000259    0.0002651     0.0596497   -0.2239547 
   0.065966483     0.0918426   -0.3734555     0.0001069   -0.0006501     0.0000668    0.0003935     0.0606530   -0.2238592 
   0.066066508     0.0886001   -0.3803981     0.0000704    0.0007466     0.0002065    0.0005468     0.0598884   -0.2243661 
   0.066166533     0.0925158   -0.3759575    -0.0001810    0.0003206    -0.0001512    0.0003292     0.0589686   -0.2234389 
   0.066266558     0.0878595   -0.3787918     0.0003153    0.0005018    -0.0000274    0.0003490     0.0598574   -0.2232785 
   0.066366583     0.0933588   -0.3730067     0.0000607    0.0000150     0.0000373    0.0005676     0.0584736   -0.2238304 
   0.066466608     0.0921352   -0.3768542    -0.0001886    0.0004238    -0.0000044    0.0003118     0.0584040   -0.2240056 
   0.066566633     0.0846660   -0.3760057    -0.0000729   -0.0001111    -0.0002153    0.0005042     0.0576532   -0.2226323 
   0.066666658     0.0903795   -0.3733536    -0.0000239    0.0000800    -0.0000519    0.0004779     0.0587762   -0.2231119 
   0.066766683     0.0861728   -0.3765740    -0.0002029    0.0000570    -0.0000163    0.0000753     0.0588580   -0.2225570 
   0.066866708     0.0904269   -0.3737240     0.0000008   -0.0001146    -0.0000405    0.0004896     0.0582052   -0.2225438 
   0.066966733     0.0873396   -0.3732540     0.0002635    0.0006664    -0.0001186    0.0005319     0.0583598   -0.2225523 
   0.067066758     0.0893383   -0.3722380     0.0005548    0.0000267     0.0000962    0.0004790     0.0582384   -0.2219608 
   0.067166783     0.0870556   -0.3722929    -0.0002739    0.0001936    -0.0000538    0.0002137     0.0573219   -0.2217829 
   0.067266808     0.0851005   -0.3726006    -0.0002834    0.0000845    -0.0002011    0.0002589     0.0579162   -0.2213129 
   0.067366833     0.0876051   -0.3754767     0.0000415    0.0001601    -0.0000373    0.0004327     0.0580602   -0.2208558 
   0.067466858     0.0899573   -0.3710797    -0.0001897    0.0000858     0.0002500    0.0009610     0.0570260   -0.2205239 
   0.067566883     0.0827957   -0.3692829    -0.0001013   -0.0000532    -0.0000798    0.0002288     0.0571323   -0.2207301 
   0.067666908     0.0814611   -0.3699520     0.0005608   -0.0005049    -0.0000773    0.0001608     0.0573384   -0.2213774 
   0.067766933     0.0840020   -0.3688386     0.0002381   -0.0001718    -0.0001867    0.0001763     0.0573995   -0.2204600 
   0.067866958     0.0875085   -0.3686140     0.0000507    0.0005537     0.0001163    0.0002395     0.0585007   -0.2196942 
   0.067966983     0.0814770   -0.3734202    -0.0000870    0.0001222     0.0001389    0.0001081     0.0572964   -0.2201427 
   0.068067009     0.0811789   -0.3681285     0.0006922   -0.0001745     0.0000534    0.0006215     0.0563600   -0.2200066 
   0.068167034     0.0802609   -0.3671552    -0.0004017    0.0006260    -0.0003192    0.0003565     0.0569833   -0.2201329 
   0.068267059     0.0829754   -0.3714798     0.0004523   -0.0000724     0.0000229    0.0001926     0.0573797   -0.2191857 
   0.068367084     0.0798477   -0.3697571    -0.0008562    0.0003740    -0.0001978    0.0004653     0.0568590   -0.2195887 
   0.068467109     0.0788814   -0.3665578    -0.0004096   -0.0003920    -0.0000262    0.0004840     0.0565839   -0.2196196 
   0.068567134     0.0797274   -0.3683784    -0.0001220    0.0003289    -0.0001141    0.0002941     0.0562485   -0.2189882 
   0.068667159     0.0800998   -0.3642535    -0.0004810   -0.0003467    -0.0002072    0.0002446     0.0561016   -0.2195798 
   0.068767184     0.0796696   -0.3664828    -0.0000066    0.0001191     0.0001745    0.0002859     0.0564632   -0.2192455 
   0.068867209     0.0817700   -0.3646015    -0.0001260    0.0006215     0.0000691    0.0006164     0.0552357   -0.2185585 
   0.068967234     0.0821636   -0.3632342    -0.0005356   -0.0000105     0.0001151    0.0001611     0.0557251   -0.2176465 
   0.069067259     0.0769703   -0.3649672     0.0002671   -0.0003718     0.0000456    0.0005262     0.0550545   -0.2178632 
   0.069167284     0.0800280   -0.3666793     0.0000967   -0.0003056    -0.0001673    0.0003910     0.0547439   -0.2176326 
   0.069267309     0.0763515   -0.3628041    -0.0006303    0.0006863    -0.0000327    0.0003108     0.0559071   -0.2184457 
   0.069367334     0.0772255   -0.3639516     0.0004553    0.0001279    -0.0002338    0.0002442     0.0556279   -0.2177213 
   0.069467359     0.0779180   -0.3608167     0.0000983    0.0002017     0.0001343    0.0001569     0.0551537   -0.2170431 
   0.069567384     0.0758477   -0.3635251    -0.0004183    0.0006308     0.0001964    0.0004839     0.0537305   -0.2173132 
   0.069667409     0.0755633   -0.3597395    -0.0002585    0.0000121     0.0003710    0.0006459     0.0539661   -0.2158955 
   0.069767434     0.0757689   -0.3588453    -0.0005976    0.0007388     0.0001622    0.0001190     0.0548182   -0.2155507 
   0.069867459     0.0748200   -0.3602198    -0.0000516   -0.0000269    -0.0003096    0.0005747     0.0539516   -0.2165011 
   0.069967484     0.0761505   -0.3603114     0.0003274    0.0000325     0.0001518    0.0002338     0.0542405   -0.2168247 
   0.070067509     0.0768320   -0.3601048    -0.0003997    0.0003940     0.0002122    0.0003757     0.0537978   -0.2167723 
   0.070167534     0.0727425   -0.3579033    -0.0006256    0.0001741    -0.0001341    0.0006823     0.0529985   -0.2161966 
   0.070267559     0.0721455   -0.3557790     0.0004777    0.0003617     0.0000597    0.0004891     0.0540750   -0.2158288 
   0.070367584     0.0764386   -0.3566834    -0.0007419   -0.0000195     0.0002810    0.0005657     0.0539707   -0.2160169 
   0.070467609     0.0722390   -0.3585873    -0.0004274    0.0007296    -0.0001818    0.0002869     0.0529383   -0.2156929 
   0.070567634     0.0744923   -0.3551011    -0.0004509    0.0007823     0.0000699    0.0004544     0.0529015   -0.2154413 
   0.070667659     0.0702142   -0.3556670    -0.0004733   -0.0001247    -0.0000368    0.0004168     0.0532677   -0.2145762 
   0.070767684     0.0720332   -0.3564724    -0.0000529    0.0006043     0.0001519    0.0004536     0.0530802   -0.2147933 
   0.070867709     0.0694366   -0.3587159    -0.0001995    0.0003461    -0.0001268    0.0005635     0.0526319   -0.2142236 
   0.070967734     0.0730793   -0.3555190    -0.0001081   -0.0000278    -0.0000557    0.0004686     0.0526140   -0.2150927 
   0.071067759     0.0691893   -0.3551049    -0.0001137    0.0002040     0.0000862    0.0002216     0.0525038   -0.2141387 
   0.071167784     0.0688690   -0.3536133     0.0002053    0.0005493    -0.0002153    0.0005850     0.0526951   -0.2136781 
   0.071267809     0.0722098   -0.3574363     0.0002778    0.0004678    -0.0000470    0.0004044     0.0514877   -0.2134951 
   0.071367834     0.0689154   -0.3528454    -0.0004252    0.0001907    -0.0000546    0.0002003     0.0524257   -0.2138796 
   0.071467859     0.0689866   -0.3535343    -0.0001080    0.0004972    -0.0002360    0.0004158     0.0527085   -0.2136043 
   0.071567884     0.0700311   -0.3516314    -0.0001786    0.0001487     0.0004137    0.0003741     0.0525730   -0.2131250 
   0.071667909     0.0660461   -0.3582025    -0.0005358   -0.0002027     0.0001691    0.0005609     0.0513261   -0.2125578 
   0.071767934     0.0696828   -0.3511721    -0.0002803   -0.0001785    -0.0000266    0.0004051     0.0516589   -0.2124844 
   0.071867959     0.0678301   -0.3546631    -0.0001510    0.0004473    -0.0001106    0.0004537     0.0518148   -0.2124322 
   0.071967984     0.0660488   -0.3487107    -0.0002378    0.0008169    -0.0001825    0.0003586     0.0516356   -0.2125733 
   0.072068009     0.0664068   -0.3536285    -0.0008427    0.0003449    -0.0002267    0.0003986     0.0516485   -0.2122895 
   0.072168034     0.0657185   -0.3494630     0.0009510    0.0000892     0.0000699    0.0003313     0.0513001   -0.2122948 
   0.072268059     0.0670809   -0.3504424     0.0000410    0.0000277     0.0001469    0.0003518     0.0512398   -0.2108768 
   0.072368084     0.0672546   -0.3521440     0.0000677    0.0007173     0.0001218    0.0005840     0.0506458   -0.2119481 
   0.072468109     0.0667777   -0.3467943    -0.0005120    0.0005000     0.0002342    0.0004532     0.0507568   -0.2121906 
   0.072568134     0.0660088   -0.3487151    -0.0001686   -0.0002708     0.0000052    0.0000703     0.0509269   -0.2110640 
   0.072668159     0.0666628   -0.3484307    -0.0005410    0.0003457    -0.0000119    0.0002941     0.0509188   -0.2111043 
   0.072768184     0.0639286   -0.3460865     0.0000235    0.0003469     0.0000628    0.0003384     0.0499236   -0.2110372 
   0.072868209     0.0627620   -0.3499893     0.0001514    0.0017865    -0.0001878    0.0004338     0.0499348   -0.2108541 
   0.072968234     0.0646575   -0.3467706    -0.0001331   -0.0002226     0.0001198    0.0004801     0.0516299   -0.2106472 
   0.073068259     0.0629940   -0.3482896    -0.0002052   -0.0001261     0.0000606    0.0002251     0.0503798   -0.2112979 
   0.073168284     0.0625422   -0.3474201     0.0003875    0.0004114     0.0000491    0.0001992     0.0501953   -0.2106288 
   0.073268309     0.0605811   -0.3463722     0.0000582   -0.0001530    -0.0000057    0.0004057     0.0499231   -0.2104704 
   0.073368334     0.0619575   -0.3425807     0.0001709    0.0003265    -0.0000788    0.0002289     0.0506684   -0.2104986 
   0.073468359     0.0635010   -0.3438652     0.0003581    0.0005900    -0.0001518    0.0005434     0.0500621   -0.2088886 
   0.073568384     0.0608546   -0.3445807     0.0000593    0.0004127     0.0000099    0.0001645     0.0491636   -0.2100114 
   0.073668409     0.0603612   -0.3433664    -0.0002793    0.0007178    -0.0000531    0.0001803     0.0500993   -0.2104432 
   0.073768434     0.0579044   -0.3453523     0.0001474    0.0005351     0.0001431    0.0005468     0.0492750   -0.2092337 
   0.073868459     0.0615717   -0.3442627     0.0004112   -0.0000741    -0.0000996    0.0006267     0.0492234   -0.2087016 
   0.073968484     0.0574120   -0.3433580     0.0001624    0.0011601    -0.0001247    0.0004425     0.0490798   -0.2089870 
   0.074068509     0.0601603   -0.3438206     0.0002758    0.0003517     0.0000805    0.0004485     0.0482114   -0.2087706 
   0.074168534     0.0596784   -0.3396073     0.0001015   -0.0004179    -0.0000303    0.0003765     0.0488930   -0.2092599 
   0.074268559     0.0550939   -0.3397717     0.0001773    0.0003484    -0.0000633    0.0002246     0.0486628   -0.2088303 
   0.074368584     0.0591091   -0.3428150    -0.0001826    0.0002088    -0.0001075    0.0005743     0.0489011   -0.2089565 
   0.074468609     0.0589701   -0.3376366     0.0004344    0.0000895     0.0003781    0.0005067     0.0492514   -0.2082542 
   0.074568634     0.0589889   -0.3383787     0.0000122    0.0003579     0.0001167    0.0004170     0.0487682   -0.2082694 
   0.074668659     0.0573487   -0.3396779     0.0005849    0.0007178     0.0001241    0.0004292     0.0480689   -0.2084378 
   0.074768684     0.0612000   -0.3390520    -0.0007469    0.0002506     0.0002980    0.0005289     0.0478335   -0.2085935 
   0.074868709     0.0589097   -0.3388313    -0.0001130    0.0007148    -0.0000242    0.0001916     0.0486105   -0.2078609 
   0.074968734     0.0550573   -0.3352624     0.0001922    0.0006155     0.0002449    0.0005487     0.0477829   -0.2078947 
   0.075068759     0.0558824   -0.3366744    -0.0001706    0.0003427    -0.0000150    0.0004610     0.0483523   -0.2066474 
   0.075168784     0.0560287   -0.3399743     0.0003713    0.0002073     0.0001677    0.0003782     0.0477339   -0.2064351 
   0.075268809     0.0579974   -0.3378395    -0.0000926    0.0003604     0.0000569    0.0005075     0.0488472   -0.2069373 
   0.075368834     0.0574451   -0.3381763    -0.0001134    0.0001026    -0.0000690    0.0001091     0.0480949   -0.2070595 
   0.075468859     0.0553184   -0.3352784     0.0002820    0.0010576    -0.0001199    0.0003439     0.0477159   -0.2064862 
   0.075568884     0.0537639   -0.3354116    -0.0002190   -0.0001453     0.0001281    0.0002189     0.0479441   -0.2064563 
   0.075668909     0.0552736   -0.3338339     0.0001024    0.0004100     0.0002357    0.0003424     0.0466011   -0.2066809 
   0.075768934     0.0524321   -0.3324577    -0.0000200    0.0005690     0.0003465    0.0005372     0.0470923   -0.2065135 
   0.075868959     0.0510527   -0.3368164    -0.0003896    0.0004560    -0.0001700    0.0005665     0.0469554   -0.2053717 
   0.075968984     0.0557752   -0.3339594     0.0002139    0.0004223     0.0001504    0.0004111     0.0466414   -0.2063122 
   0.076069010     0.0540642   -0.3327777    -0.0002198    0.0003693     0.0001507    0.0004281     0.0466131   -0.2052565 
   0.076169035     0.0568986   -0.3319198     0.0001559   -0.0000887    -0.0000401    0.0002782     0.0464928   -0.2054166 
   0.076269060     0.0546457   -0.3382567     0.0000211    0.0005552     0.0001558    0.0003699     0.0463940   -0.2052631 
   0.076369085     0.0524518   -0.3326505    -0.0002282    0.0001499     0.0000585    0.0005787     0.0464611   -0.2053972 
   0.076469110     0.0497623   -0.3304850    -0.0002004   -0.0002900     0.0002258    0.0004238     0.0455678   -0.2056654 
   0.076569135     0.0517243   -0.3311062    -0.0000552   -0.0000637     0.0000428    0.0002813     0.0455153   -0.2050749 
   0.076669160     0.0564709   -0.3307230    -0.0002221    0.0005881     0.0001719    0.0001234     0.0453510   -0.2048740 
   0.076769185     0.0527779   -0.3295992     0.0003530    0.0004359    -0.0000858    0.0004917     0.0467631   -0.2042773 
   0.076869210     0.0509036   -0.3323297    -0.0003694    0.0001663     0.0000131    0.0004378     0.0463028   -0.2046945 
   0.076969235     0.0495281   -0.3311087     0.0000066    0.0004421     0.0002420    0.0001814     0.0466278   -0.2042407 
   0.077069260     0.0501465   -0.3298395     0.0001563    0.0007142     0.0000966    0.0005324     0.0457601   -0.2039916 
   0.077169285     0.0517336   -0.3286776    -0.0000040    0.0006964     0.0000252    0.0003693     0.0455949   -0.2035899 
   0.077269310     0.0502482   -0.3252326     0.0000075   -0.0002324     0.0001397    0.0002709     0.0449571   -0.2042950 
   0.077369335     0.0530120   -0.3291461     0.0002053    0.0005231     0.0002368    0.0004602     0.0457502   -0.2043165 
   0.077469360     0.0508406   -0.3283117    -0.0000478    0.0003126     0.0001900    0.0003337     0.0452531   -0.2036175 
   0.077569385     0.0511657   -0.3292171    -0.0001768    0.0002888     0.0001323    0.0002159     0.0446502   -0.2030661 
   0.077669410     0.0492316   -0.3259040    -0.0001995    0.0003354    -0.0000573    0.0004303     0.0445625   -0.2048140 
   0.077769435     0.0483778   -0.3285541    -0.0002419    0.0009153     0.0000194    0.0006781     0.0449225   -0.2037003 
   0.077869460     0.0456017   -0.3265119    -0.0001651    0.0003939     0.0002635    0.0004152     0.0450639   -0.2031897 
   0.077969485     0.0474401   -0.3262632     0.0003541   -0.0003572    -0.0000246    0.0002913     0.0447823   -0.2038536 
   0.078069510     0.0455116   -0.3266422     0.0003008    0.0008257    -0.0000289    0.0005283     0.0439684   -0.2025589 
   0.078169535     0.0467681   -0.3241065    -0.0003765    0.0003264     0.0001748    0.0003039     0.0449914   -0.2027676 
   0.078269560     0.0463994   -0.3248509    -0.0003577    0.0003970    -0.0000332    0.0004134     0.0446818   -0.2027078 
   0.078369585     0.0459582   -0.3259032     0.0000241    0.0005170     0.0000857    0.0005223     0.0437875   -0.2022979 
   0.078469610     0.0445425   -0.3235505    -0.0005097    0.0002580     0.0002586    0.0001736     0.0446659   -0.2021222 
   0.078569635     0.0464375   -0.3222914     0.0000872    0.0002979     0.0000444    0.0002876     0.0438675   -0.2027161 
   0.078669660     0.0476756   -0.3241744     0.0000741    0.0005772     0.0001658    0.0007612     0.0439867   -0.2018094 
   0.078769685     0.0472955   -0.3226289     0.0002511   -0.0001957     0.0001903    0.0005016     0.0435069   -0.2018363 
   0.078869710     0.0445214   -0.3216979    -0.0000398    0.0004088    -0.0001820    0.0002829     0.0433401   -0.2010960 
   0.078969735     0.0454759   -0.3226031     0.0001087    0.0004073    -0.0000938    0.0004071     0.0431755   -0.2012712 
   0.079069760     0.0472307   -0.3217263     0.0000768    0.0002188     0.0000350    0.0005568     0.0433055   -0.2018063 
   0.079169785     0.0446997   -0.3207256     0.0001790    0.0005772     0.0000252    0.0006386     0.0437493   -0.2015752 
   0.079269810     0.0480004   -0.3187754     0.0004345   -0.0001129     0.0001365    0.0004224     0.0426940   -0.2019491 
   0.079369835     0.0457434   -0.3181271     0.0000938    0.0005466     0.0002174    0.0004984     0.0426999   -0.2005889 
   0.079469860     0.0418606   -0.3197890    -0.0000967    0.0000108     0.0000068    0.0006325     0.0426847   -0.2002346 
   0.079569885     0.0465133   -0.3182431     0.0001775    0.0006962    -0.0000316    0.0003847     0.0429540   -0.2004274 
   0.079669910     0.0425827   -0.3189670     0.0004342    0.0010147    -0.0000974    0.0005937     0.0430155   -0.2009726 
   0.079769935     0.0430718   -0.3180486     0.0004859    0.0006827     0.0003002    0.0005179     0.0430370   -0.2004754 
   0.079869960     0.0443442   -0.3192795     0.0003650    0.0009210     0.0002671    0.0003972     0.0421293   -0.2008919 
   0.079969985     0.0428146   -0.3184091     0.0004437    0.0006740     0.0002907    0.0005864     0.0432892   -0.2008444 
   0.080070010     0.0435986   -0.3193723     0.0003068    0.0004137     0.0001851    0.0004508     0.0427607   -0.2007639 
   0.080170035     0.0405334   -0.3166873    -0.0001535    0.0004667    -0.0000404    0.0003891     0.0419524   -0.1999481 
   0.080270060     0.0428923   -0.3138543    -0.0000865    0.0010390     0.0001691    0.0003112     0.0417264   -0.2001457 
   0.080370085     0.0421191   -0.3188438     0.0005511    0.0001671    -0.0001163    0.0003052     0.0410661   -0.1997811 
   0.080470110     0.0426944   -0.3177570     0.0002622    0.0005712     0.0000377    0.0004846     0.0412246   -0.2001127 
   0.080570135     0.0412229   -0.3177601     0.0003146   -0.0003119     0.0002443    0.0007077     0.0412642   -0.1989018 
   0.080670160     0.0416270   -0.3158444    -0.0000066   -0.0000242     0.0001061    0.0006490     0.0419128   -0.2007377 
   0.080770185     0.0417527   -0.3148103    -0.0005389    0.0006513     0.0002991    0.0004836     0.0406041   -0.1995814 
   0.080870210     0.0400905   -0.3142116     0.0009515    0.0003772    -0.0002971    0.0001561     0.0409294   -0.1994717 
   0.080970235     0.0393424   -0.3151676    -0.0001256    0.0010865     0.0002442    0.0001762     0.0415958   -0.1985660 
   0.081070260     0.0380673   -0.3124535     0.0002484    0.0000735     0.0000532    0.0005409     0.0411011   -0.1986552 
   0.081170285     0.0371839   -0.3133159     0.0001102    0.0005043    -0.0001799    0.0004936     0.0414645   -0.1982045 
   0.081270310     0.0366672   -0.3117761    -0.0002285    0.0004305     0.0000816    0.0005274     0.0412720   -0.1986824 
   0.081370335     0.0398898   -0.3117988    -0.0000846    0.0001761     0.0000223    0.0003751     0.0397495   -0.1980188 
   0.081470360     0.0379309   -0.3117868     0.0004966    0.0007585     0.0001638    0.0003934     0.0407960   -0.1990366 
   0.081570385     0.0394310   -0.3124833     0.0003318    0.0004470     0.0001887    0.0005714     0.0405832   -0.1990900 
   0.081670410     0.0377282   -0.3111852     0.0000099    0.0005402     0.0000634    0.0006600     0.0410555   -0.1979922 
   0.081770435     0.0371634   -0.3132921     0.0002101    0.0009774    -0.0001625    0.0006780     0.0399357   -0.1976579 
   0.081870460     0.0380530   -0.3086994    -0.0004094    0.0004091     0.0000890    0.0006025     0.0407136   -0.1984749 
   0.081970485     0.0373157   -0.3090580     0.0001148    0.0008721     0.0000734    0.0005071     0.0400908   -0.1979326 
   0.082070510     0.0386708   -0.3091014     0.0002411   -0.0003932    -0.0001177    0.0002977     0.0401194   -0.1974294 
   0.082170535     0.0365011   -0.3123431    -0.0007298    0.0006362     0.0003285    0.0003992     0.0398086   -0.1979340 
   0.082270560     0.0383918   -0.3085837    -0.0001223    0.0001543    -0.0001968    0.0006313     0.0402248   -0.1980961 
   0.082370585     0.0376388   -0.3086294     0.0001058    0.0004569    -0.0000553    0.0003180     0.0400654   -0.1973783 
   0.082470610     0.0354790   -0.3088307     0.0004562    0.0009549    -0.0000746    0.0006589     0.0401686   -0.1967326 
   0.082570635     0.0377390   -0.3084835    -0.0001344    0.0003866    -0.0001416    0.0004778     0.0395511   -0.1966664 
   0.082670660     0.0354884   -0.3063180     0.0001082    0.0004665     0.0000442    0.0001636     0.0393459   -0.1974394 
   0.082770685     0.0340667   -0.3064851     0.0000480    0.0004309    -0.0000110    0.0002629     0.0394296   -0.1962112 
   0.082870710     0.0340008   -0.3056413     0.0004212    0.0000505    -0.0001896    0.0006296     0.0396614   -0.1961700 
   0.082970735     0.0352011   -0.3067822     0.0001192   -0.0000223     0.0001603    0.0003358     0.0405900   -0.1968670 
   0.083070760     0.0362371   -0.3063257    -0.0000478    0.0009879     0.0001000    0.0002722     0.0385786   -0.1956971 
   0.083170785     0.0346267   -0.3058623    -0.0002165    0.0010573     0.0002372    0.0005978     0.0382699   -0.1962808 
   0.083270810     0.0326296   -0.3048817    -0.0001267    0.0005007     0.0000883    0.0005037     0.0384493   -0.1957686 
   0.083370835     0.0314532   -0.3053054     0.0000869    0.0001431    -0.0001286    0.0005549     0.0400611   -0.1957486 
   0.083470860     0.0333776   -0.3034305     0.0000364    0.0006715    -0.0000299    0.0005072     0.0383072   -0.1951745 
   0.083570885     0.0342756   -0.3025869     0.0004136    0.0004804    -0.0001101    0.0003726     0.0384679   -0.1952147 
   0.083670910     0.0330319   -0.3032747    -0.0001494    0.0008639     0.0001928    0.0003918     0.0377878   -0.1951913 
   0.083770935     0.0337163   -0.3016916    -0.0000765    0.0002433     0.0001651    0.0002345     0.0391559   -0.1952987 
   0.083870960     0.0310055   -0.3039347     0.0000852    0.0009265     0.0000518    0.0003974     0.0378428   -0.1954718 
   0.083970985     0.0298862   -0.3023140    -0.0002010    0.0005103     0.0003207    0.0004737     0.0381404   -0.1950245 
   0.084071011     0.0327003   -0.3028890    -0.0001026   -0.0000485     0.0001292    0.0005200     0.0376572   -0.1952872 
   0.084171036     0.0342359   -0.3004197     0.0002653    0.0005738    -0.0000398    0.0004155     0.0380625   -0.1942900 
   0.084271061     0.0307256   -0.3051812    -0.0000807    0.0006769     0.0002715    0.0004757     0.0383075   -0.1936549 
   0.084371086     0.0323240   -0.3007708     0.0000252    0.0007942    -0.0002213    0.0004214     0.0378120   -0.1938121 
   0.084471111     0.0321423   -0.3046708     0.0005438    0.0004182    -0.0000503    0.0004568     0.0378130   -0.1940122 
   0.084571136     0.0308286   -0.3019576     0.0003436    0.0000854     0.0002097    0.0006346     0.0379937   -0.1942819 
   0.084671161     0.0292880   -0.2986613    -0.0005917   -0.0001238     0.0001735    0.0006049     0.0378006   -0.1942294 
   0.084771186     0.0328008   -0.3008272    -0.0000801    0.0010275     0.0003520    0.0002951     0.0370790   -0.1940959 
   0.084871211     0.0303711   -0.2983356     0.0006447    0.0001398     0.0003327    0.0006612     0.0375092   -0.1936793 
   0.084971236     0.0304555   -0.2965699     0.0000629   -0.0002601     0.0001231    0.0003938     0.0382320   -0.1941460 
   0.085071261     0.0310587   -0.2995691     0.0005529    0.0008085     0.0000759    0.0005604     0.0368821   -0.1937910 
   0.085171286     0.0304105   -0.2992048     0.0003585    0.0002103     0.0001900    0.0001172     0.0366857   -0.1939401 
   0.085271311     0.0297471   -0.2971235    -0.0000200    0.0006631     0.0000434    0.0004364     0.0365098   -0.1934395 
   0.085371336     0.0294636   -0.2963289     0.0002861    0.0006853     0.0000770    0.0005209     0.0368258   -0.1935938 
   0.085471361     0.0291081   -0.2970544    -0.0002274    0.0006481     0.0002115    0.0005312     0.0364064   -0.1937163 
   0.085571386     0.0273928   -0.2964604     0.0002694    0.0004399     0.0000682    0.0006299     0.0362923   -0.1929871 
   0.085671411     0.0277377   -0.2946934    -0.0002885    0.0004676     0.0002266    0.0004798     0.0357831   -0.1929740 
   0.085771436     0.0292764   -0.2975362    -0.0004407    0.0007159     0.0000994    0.0003073     0.0360776   -0.1936807 
   0.085871461     0.0302149   -0.2967074     0.0002979    0.0003113     0.0000816    0.0006734     0.0364977   -0.1935025 
   0.085971486     0.0266798   -0.2946302    -0.0000255    0.0001435     0.0000595    0.0004104     0.0360936   -0.1928818 
   0.086071511     0.0263874   -0.2951813    -0.0000655    0.0005288    -0.0001517    0.0006117     0.0356361   -0.1927750 
   0.086171536     0.0285948   -0.2936797     0.0001761    0.0003960     0.0003316    0.0004240     0.0355162   -0.1928633 
   0.086271561     0.0271612   -0.2934719     0.0005256    0.0005732    -0.0001132    0.0005168     0.0352481   -0.1919639 
   0.086371586     0.0268195   -0.2917658     0.0007656    0.0006675    -0.0000923    0.0002063     0.0359518   -0.1928034 
   0.086471611     0.0264063   -0.2926429     0.0002692    0.0001565     0.0001386    0.0005209     0.0356457   -0.1923581 
   0.086571636     0.0275711   -0.2922092    -0.0002203    0.0007358     0.0000811    0.0005351     0.0350058   -0.1924116 
   0.086671661     0.0259189   -0.2923191     0.0000607    0.0001502     0.0002163    0.0005912     0.0347503   -0.1924706 
   0.086771686     0.0275435   -0.2928763     0.0003944    0.0005224     0.0002494    0.0003269     0.0361489   -0.1921388 
   0.086871711     0.0272336   -0.2935942     0.0003227    0.0008514     0.0002747    0.0004288     0.0354043   -0.1913497 
   0.086971736     0.0253174   -0.2903601    -0.0000299    0.0001978     0.0000968    0.0005164     0.0349512   -0.1911070 
   0.087071761     0.0267742   -0.2917731     0.0000252    0.0002062     0.0001994    0.0003252     0.0347205   -0.1920227 
   0.087171786     0.0270247   -0.2922485     0.0002987    0.0004870     0.0000787    0.0005934     0.0342961   -0.1914966 
   0.087271811     0.0282798   -0.2895429     0.0005003    0.0002583     0.0001243    0.0003923     0.0344566   -0.1913219 
   0.087371836     0.0243821   -0.2890361     0.0004791    0.0008644     0.0001247    0.0005354     0.0341909   -0.1919539 
   0.087471861     0.0250916   -0.2911439    -0.0000746    0.0005919     0.0001074    0.0005243     0.0345336   -0.1915660 
   0.087571886     0.0231313   -0.2922146     0.0002441    0.0005929     0.0001600    0.0004052     0.0335950   -0.1902677 
   0.087671911     0.0275733   -0.2903046     0.0002958    0.0004763     0.0001917    0.0005748     0.0344370   -0.1905078 
   0.087771936     0.0231494   -0.2900686     0.0003875    0.0006392    -0.0000709    0.0004861     0.0337948   -0.1902284 
   0.087871961     0.0246777   -0.2880533     0.0003459    0.0004518     0.0001454    0.0003365     0.0342475   -0.1908462 
   0.087971986     0.0249752   -0.2882160    -0.0000209    0.0006209     0.0001954    0.0003515     0.0340780   -0.1894100 
   0.088072011     0.0234228   -0.2877781     0.0001267    0.0004779     0.0000840    0.0004671     0.0342471   -0.1908470 
   0.088172036     0.0236497   -0.2879049     0.0004170    0.0003144    -0.0000508    0.0003374     0.0336646   -0.1896929 
   0.088272061     0.0229413   -0.2860266    -0.0003555    0.0005050     0.0002039    0.0007485     0.0341167   -0.1903137 
   0.088372086     0.0245423   -0.2852387    -0.0004314    0.0005158     0.0001199    0.0006336     0.0332490   -0.1910143 
   0.088472111     0.0221491   -0.2858579     0.0007013    0.0003013     0.0001035    0.0003651     0.0349759   -0.1901637 
   0.088572136     0.0239638   -0.2876466     0.0000605    0.0003676     0.0001367    0.0004963     0.0332097   -0.1896134 
   0.088672161     0.0224382   -0.2873890     0.0001976    0.0004773     0.0004617    0.0003896     0.0339185   -0.1909160 
   0.088772186     0.0214156   -0.2860266     0.0003692    0.0003573     0.0001967    0.0004057     0.0340734   -0.1900894 
   0.088872211     0.0211732   -0.2846249     0.0000791    0.0002733     0.0001353    0.0005857     0.0330087   -0.1899491 
   0.088972236     0.0224444   -0.2844593     0.0005256    0.0010192     0.0003053    0.0003786     0.0332997   -0.1890853 
   0.089072261     0.0232465   -0.2823783    -0.0000015    0.0006245     0.0002795    0.0003377     0.0328782   -0.1893098 
   0.089172286     0.0208742   -0.2844124     0.0000716    0.0000525    -0.0000188    0.0004763     0.0326354   -0.1896716 
   0.089272311     0.0222073   -0.2835525    -0.0000571    0.0004288     0.0001618    0.0003655     0.0330593   -0.1890773 
   0.089372336     0.0184779   -0.2837575     0.0005350    0.0004766     0.0001405    0.0004251     0.0334079   -0.1894681 
   0.089472361     0.0218835   -0.2832476    -0.0000223    0.0008248     0.0000900    0.0006282     0.0333487   -0.1896434 
   0.089572386     0.0215745   -0.2828298    -0.0000334    0.0002243     0.0001551    0.0005235     0.0325006   -0.1877992 
   0.089672411     0.0178513   -0.2834783    -0.0000998    0.0005226     0.0002720    0.0004248     0.0329034   -0.1887340 
   0.089772436     0.0193630   -0.2810096     0.0006904    0.0006493     0.0001291    0.0003101     0.0328756   -0.1882594 
   0.089872461     0.0199134   -0.2831095     0.0001218    0.0003202     0.0000986    0.0005149     0.0324740   -0.1884584 
   0.089972486     0.0184126   -0.2827676     0.0004299    0.0000490     0.0001853    0.0004179     0.0322197   -0.1884766 
   0.090072511     0.0196697   -0.2803481    -0.0000928    0.0006425     0.0001709    0.0004745     0.0322750   -0.1891118 
   0.090172536     0.0191480   -0.2818677    -0.0001653    0.0005067     0.0001588    0.0005213     0.0321092   -0.1882303 
   0.090272561     0.0204827   -0.2819500    -0.0002925    0.0007351     0.0003141    0.0006306     0.0322356   -0.1880894 
   0.090372586     0.0199430   -0.2823548    -0.0002704    0.0002716    -0.0000942    0.0005385     0.0323799   -0.1874284 
   0.090472611     0.0198789   -0.2784944     0.0005584    0.0001453     0.0002027    0.0005662     0.0322214   -0.1869220 
   0.090572636     0.0181012   -0.2799406     0.0001949    0.0005076    -0.0000920    0.0006256     0.0313988   -0.1881401 
   0.090672661     0.0188529   -0.2776411     0.0002197    0.0007325     0.0000459    0.0005904     0.0317360   -0.1868973 
   0.090772686     0.0192888   -0.2776723     0.0000612    0.0006403     0.0001139    0.0005772     0.0315941   -0.1876165 
   0.090872711     0.0169343   -0.2782739     0.0001564    0.0007080     0.0001197    0.0005708     0.0314039   -0.1878089 
   0.090972736     0.0183498   -0.2784637    -0.0001694    0.0010494     0.0001001    0.0003948     0.0306761   -0.1874240 
   0.091072761     0.0166315   -0.2774951     0.0000361    0.0007605     0.0001835    0.0005831     0.0314275   -0.1870437 
   0.091172786     0.0168357   -0.2763905     0.0007583    0.0002582     0.0004256    0.0005377     0.0308730   -0.1878113 
   0.091272811     0.0174601   -0.2782228     0.0001460    0.0007967     0.0002069    0.0005243     0.0315324   -0.1874915 
   0.091372836     0.0176675   -0.2770005     0.0002000    0.0007885     0.0002537    0.0005612     0.0300774   -0.1865326 
   0.091472861     0.0155168   -0.2773004     0.0004791    0.0002698     0.0000103    0.0004320     0.0318498   -0.1871531 
   0.091572886     0.0163347   -0.2779090    -0.0000650    0.0008408     0.0002486    0.0004925     0.0313292   -0.1864931 
   0.091672911     0.0148533   -0.2759097     0.0002841    0.0005665     0.0003759    0.0003449     0.0298240   -0.1868085 
   0.091772936     0.0151990   -0.2754753     0.0002250    0.0004323     0.0003333    0.0007800     0.0301925   -0.1869807 
   0.091872961     0.0149308   -0.2749209    -0.0000507    0.0003143     0.0001532    0.0003976     0.0301845   -0.1862841 
   0.091972986     0.0157829   -0.2768290    -0.0002151    0.0007338     0.0001744    0.0004909     0.0302278   -0.1863442 
   0.092073012     0.0162269   -0.2731758     0.0003361    0.0006365     0.0003015    0.0004789     0.0301389   -0.1864886 
   0.092173037     0.0166796   -0.2745305     0.0005000    0.0003086     0.0000820    0.0006560     0.0301412   -0.1864720 
   0.092273062     0.0163286   -0.2747480     0.0001954    0.0006268     0.0001471    0.0003610     0.0304941   -0.1859529 
   0.092373087     0.0165632   -0.2746469     0.0001704    0.0001909     0.0002754    0.0004744     0.0289041   -0.1864088 
   0.092473112     0.0167627   -0.2732300    -0.0000265    0.0004389     0.0001491    0.0005641     0.0297965   -0.1864355 
   0.092573137     0.0150415   -0.2743226     0.0000135    0.0002126     0.0001311    0.0005774     0.0297305   -0.1861637 
   0.092673162     0.0141831   -0.2737116     0.0004861    0.0007388     0.0000238    0.0004619     0.0284335   -0.1861171 
   0.092773187     0.0149880   -0.2751534    -0.0000019    0.0003655    -0.0000178    0.0004753     0.0300031   -0.1858992 
   0.092873212     0.0155840   -0.2718279     0.0000133    0.0004317     0.0002425    0.0003694     0.0298825   -0.1852599 
   0.092973237     0.0161467   -0.2737348     0.0005198    0.0004256     0.0001381    0.0007800     0.0295771   -0.1848380 
   0.093073262     0.0137169   -0.2722608     0.0001660    0.0006459     0.0000327    0.0004138     0.0295640   -0.1857766 
   0.093173287     0.0160034   -0.2691711     0.0002267    0.0004925     0.0002823    0.0007705     0.0285754   -0.1841057 
   0.093273312     0.0134610   -0.2711086     0.0002504    0.0003736     0.0000125    0.0004096     0.0295496   -0.1848703 
   0.093373337     0.0142950   -0.2706674    -0.0000397    0.0004191     0.0001983    0.0001974     0.0287581   -0.1857759 
   0.093473362     0.0136429   -0.2722054     0.0004649    0.0006053     0.0001107    0.0006062     0.0288248   -0.1853685 
   0.093573387     0.0138896   -0.2707903     0.0001389    0.0003141     0.0004782    0.0004996     0.0287515   -0.1857578 
   0.093673412     0.0132667   -0.2678748     0.0000222    0.0008031     0.0002679    0.0005280     0.0287169   -0.1848697 
   0.093773437     0.0149119   -0.2688408    -0.0000410    0.0004315     0.0001261    0.0005807     0.0280256   -0.1843359 
   0.093873462     0.0144203   -0.2689925     0.0002426    0.0006717     0.0000344    0.0003293     0.0284695   -0.1848099 
   0.093973487     0.0123809   -0.2692237    -0.0000737    0.0003755     0.0002493    0.0005873     0.0274999   -0.1843509 
   0.094073512     0.0137615   -0.2696273     0.0001478    0.0007699     0.0001752    0.0003784     0.0292683   -0.1847072 
   0.094173537     0.0125806   -0.2682264     0.0004211    0.0003253     0.0002352    0.0006989     0.0276952   -0.1849659 
   0.094273562     0.0129697   -0.2681141     0.0002482    0.0004287     0.0000880    0.0004977     0.0282747   -0.1836212 
   0.094373587     0.0139987   -0.2673177     0.0002346    0.0005740     0.0001659    0.0004079     0.0284472   -0.1846105 
   0.094473612     0.0133973   -0.2664370    -0.0001817    0.0004158     0.0001835    0.0004556     0.0276217   -0.1844448 
   0.094573637     0.0123976   -0.2671247     0.0002001    0.0006253     0.0002752    0.0006724     0.0282566   -0.1844867 
   0.094673662     0.0127114   -0.2685352     0.0002508    0.0003675     0.0000220    0.0003865     0.0278425   -0.1842823 
   0.094773687     0.0112181   -0.2677967    -0.0001230    0.0007960     0.0002959    0.0003285     0.0288007   -0.1844032 
   0.094873712     0.0125662   -0.2649945     0.0000857    0.0005071     0.0002427    0.0005115     0.0266725   -0.1837101 
   0.094973737     0.0095780   -0.2662328     0.0003632    0.0002461     0.0001203    0.0005790     0.0278279   -0.1840191 
   0.095073762     0.0107825   -0.2651702     0.0002610    0.0004931    -0.0000053    0.0005192     0.0277934   -0.1838336 
   0.095173787     0.0109723   -0.2652796    -0.0002971    0.0004354     0.0001143    0.0004434     0.0276044   -0.1836198 
   0.095273812     0.0097764   -0.2645245     0.0001386    0.0004886     0.0000084    0.0005282     0.0276862   -0.1838538 
   0.095373837     0.0099408   -0.2644504    -0.0001546    0.0004747     0.0001068    0.0005069     0.0269482   -0.1833521 
   0.095473862     0.0116334   -0.2649160    -0.0000135    0.0004666     0.0001374    0.0005609     0.0273138   -0.1839173 
   0.095573887     0.0109452   -0.2643009    -0.0001994    0.0008078     0.0001271    0.0005208     0.0270597   -0.1836814 
   0.095673912     0.0101691   -0.2646756     0.0005983    0.0004450     0.0002118    0.0003534     0.0266759   -0.1835879 
   0.095773937     0.0105028   -0.2618237     0.0005452    0.0008964     0.0001000    0.0005593     0.0269517   -0.1825976 
   0.095873962     0.0100517   -0.2641136    -0.0000843    0.0005877     0.0002699    0.0004426     0.0271550   -0.1829224 
   0.095973987     0.0115818   -0.2618483     0.0005073    0.0004549     0.0001674    0.0005719     0.0275348   -0.1829488 
   0.096074012     0.0094029   -0.2631826     0.0000193    0.0004720     0.0001628    0.0005703     0.0272412   -0.1832838 
   0.096174037     0.0096955   -0.2601628     0.0001049    0.0003220     0.0003039    0.0005560     0.0257939   -0.1826850 
   0.096274062     0.0097428   -0.2604053     0.0000558    0.0005223     0.0001497    0.0005372     0.0253957   -0.1828683 
   0.096374087     0.0090124   -0.2613835     0.0000058    0.0005213     0.0000313    0.0003383     0.0259692   -0.1824226 
   0.096474112     0.0106316   -0.2596395     0.0002005    0.0008638     0.0002277    0.0007087     0.0263581   -0.1820196 
   0.096574137     0.0101052   -0.2612185     0.0000495    0.0007107     0.0001004    0.0004225     0.0255925   -0.1828331 
   0.096674162     0.0094805   -0.2611575     0.0000599    0.0006875     0.0001986    0.0004852     0.0255843   -0.1824117 
   0.096774187     0.0089351   -0.2597741     0.0003902    0.0004557     0.0002118    0.0004434     0.0263623   -0.1821118 
   0.096874212     0.0091863   -0.2600375     0.0004298    0.0004938     0.0001632    0.0005079     0.0262074   -0.1820136 
   0.096974237     0.0084391   -0.2598157    -0.0000713    0.0003141    -0.0001184    0.0004765     0.0255150   -0.1816342 
   0.097074262     0.0077060   -0.2572187     0.0001409    0.0002612     0.0001501    0.0005601     0.0257230   -0.1818203 
   0.097174287     0.0093446   -0.2582739     0.0004924    0.0005895     0.0000811    0.0005455     0.0249802   -0.1810030 
   0.097274312     0.0100912   -0.2580200     0.0002730    0.0008113     0.0002057    0.0004643     0.0259239   -0.1819387 
   0.097374337     0.0084287   -0.2574246     0.0000761    0.0003272     0.0000824    0.0004899     0.0252681   -0.1815750 
   0.097474362     0.0070074   -0.2566380     0.0006188    0.0002100    -0.0000552    0.0005329     0.0251867   -0.1827819 
   0.097574387     0.0078649   -0.2576421    -0.0000299   -0.0000227     0.0000682    0.0002348     0.0249730   -0.1817236 
   0.097674412     0.0072820   -0.2569523     0.0003471    0.0004537     0.0001184    0.0004818     0.0243503   -0.1812531 
   0.097774437     0.0092290   -0.2579615     0.0001308    0.0008610     0.0001693    0.0005494     0.0249807   -0.1813492 
   0.097874462     0.0067271   -0.2555427    -0.0000276    0.0005757     0.0001294    0.0004291     0.0251402   -0.1810714 
   0.097974487     0.0084515   -0.2579225     0.0004218    0.0002607     0.0002538    0.0003937     0.0239513   -0.1806559 
   0.098074512     0.0074744   -0.2557696    -0.0001481    0.0004018     0.0001115    0.0005995     0.0241765   -0.1809512 
   0.098174537     0.0076483   -0.2555104     0.0000515    0.0005655     0.0003075    0.0003747     0.0247789   -0.1808382 
   0.098274562     0.0069967   -0.2564965    -0.0000443    0.0008677     0.0001322    0.0004894     0.0241965   -0.1805062 
   0.098374587     0.0064823   -0.2556232     0.0003831    0.0004366     0.0003047    0.0005761     0.0244571   -0.1810990 
   0.098474612     0.0065189   -0.2553872     0.0000003    0.0003758     0.0001701    0.0005471     0.0250748   -0.1809290 
   0.098574637     0.0072658   -0.2549761     0.0003002    0.0006542     0.0002061    0.0004818     0.0249325   -0.1813961 
   0.098674662     0.0062490   -0.2551874     0.0001564    0.0003707     0.0000465    0.0006015     0.0241525   -0.1808858 
   0.098774687     0.0063151   -0.2530923     0.0002683    0.0005961     0.0001002    0.0005237     0.0241326   -0.1804516 
   0.098874712     0.0050190   -0.2535637     0.0003054    0.0002437     0.0003344    0.0005647     0.0243202   -0.1804435 
   0.098974737     0.0049953   -0.2522827     0.0000600    0.0002858     0.0002627    0.0004952     0.0248116   -0.1803192 
   0.099074762     0.0066520   -0.2514809     0.0004576    0.0004362     0.0001021    0.0004637     0.0241931   -0.1804399 
   0.099174787     0.0057259   -0.2540586     0.0002897    0.0006858     0.0000066    0.0003973     0.0245630   -0.1800742 
   0.099274812     0.0049295   -0.2525358     0.0001140    0.0005721     0.0001841    0.0006020     0.0242843   -0.1803770 
   0.099374837     0.0054776   -0.2517876     0.0001775    0.0006579     0.0003107    0.0003522     0.0241790   -0.1806336 
   0.099474862     0.0044977   -0.2525726    -0.0000289    0.0005302     0.0002110    0.0007451     0.0235654   -0.1801988 
   0.099574887     0.0060213   -0.2521722     0.0000752    0.0001247     0.0001990    0.0005989     0.0243470   -0.1794962 
   0.099674912     0.0056899   -0.2508133     0.0001604    0.0002670     0.0003338    0.0006954     0.0227344   -0.1796295 
   0.099774937     0.0050341   -0.2517360     0.0000823    0.0003941     0.0002473    0.0005035     0.0234121   -0.1802886 
   0.099874962     0.0056490   -0.2510036     0.0003196    0.0004733     0.0002477    0.0005558     0.0234550   -0.1799255 
   0.099974987     0.0048094   -0.2503592    -0.0003163    0.0007153     0.0003641    0.0005526     0.0236685   -0.1798489 
   0.100075013     0.0043324   -0.2516299     0.0000118    0.0008474     0.0002146    0.0007204     0.0227919   -0.1797444 
   0.100175038     0.0050739   -0.2492220     0.0000083    0.0006969     0.0001228    0.0004050     0.0225025   -0.1795399 
   0.100275063     0.0047401   -0.2502151     0.0003130    0.0006522     0.0002299    0.0003518     0.0224676   -0.1792557 
   0.100375088     0.0033123   -0.2479754     0.0003228    0.0003883     0.0001804    0.0006128     0.0225937   -0.1796186 
   0.100475113     0.0031750   -0.2482522    -0.0001096    0.0003337     0.0002527    0.0005685     0.0224241   -0.1793374 
   0.100575138     0.0031505   -0.2485589     0.0008318    0.0003266     0.0003592    0.0004207     0.0221696   -0.1797530 
   0.100675163     0.0037379   -0.2487082     0.0000284    0.0003372     0.0000791    0.0004994     0.0226224   -0.1789243 
   0.100775188     0.0048345   -0.2478579     0.0003790    0.0004575     0.0003918    0.0004560     0.0215467   -0.1789839 
   0.100875213     0.0042073   -0.2492762     0.0001825    0.0007667     0.0000093    0.0005583     0.0222531   -0.1786616 
   0.100975238     0.0035117   -0.2456384     0.0001747    0.0008460     0.0001751    0.0004868     0.0221051   -0.1792019 
   0.101075263     0.0022556   -0.2467314    -0.0000732    0.0007464     0.0004144    0.0007640     0.0219734   -0.1782430 
   0.101175288     0.0029808   -0.2465237     0.0003557    0.0003329     0.0002882    0.0004507     0.0218266   -0.1789104 
   0.101275313     0.0014807   -0.2458466     0.0003562    0.0006568     0.0000986    0.0004322     0.0215504   -0.1784515 
   0.101375338     0.0047589   -0.2472499     0.0001341    0.0008269     0.0000530    0.0007373     0.0220510   -0.1788587 
   0.101475363     0.0009553   -0.2454883     0.0003412    0.0006636     0.0001469    0.0004069     0.0213074   -0.1786905 
   0.101575388     0.0021144   -0.2460125     0.0002511    0.0007974     0.0001894    0.0005609     0.0212277   -0.1784644 
   0.101675413     0.0016305   -0.2467132     0.0002834    0.0006621     0.0002133    0.0006092     0.0218505   -0.1785290 
   0.101775438     0.0030243   -0.2458123     0.0000121    0.0006528     0.0002256    0.0005415     0.0214651   -0.1787761 
   0.101875463     0.0030683   -0.2458400     0.0001090    0.0005759     0.0000611    0.0004903     0.0215659   -0.1781589 
   0.101975488     0.0013215   -0.2442055     0.0001246    0.0003663     0.0004091    0.0006134     0.0217114   -0.1779150 
   0.102075513     0.0018807   -0.2451097    -0.0000147    0.0002997     0.0003532    0.0005460     0.0206295   -0.1780275 
   0.102175538     0.0019950   -0.2437924     0.0001489    0.0005617     0.0002020    0.0005147     0.0215087   -0.1790699 
   0.102275563     0.0019774   -0.2425671    -0.0002275    0.0008088     0.0002300    0.0005462     0.0205074   -0.1768028 
   0.102375588     0.0011974   -0.2431218     0.0004957    0.0005072     0.0001881    0.0005401     0.0207170   -0.1783580 
   0.102475613     0.0022252   -0.2424593     0.0002239    0.0005925     0.0001928    0.0004729     0.0206833   -0.1779422 
   0.102575638     0.0014141   -0.2428569     0.0003973    0.0005085     0.0002443    0.0004061     0.0201952   -0.1777891 
   0.102675663     0.0016906   -0.2438220     0.0003462    0.0007012     0.0003584    0.0005466     0.0203549   -0.1774645 
   0.102775688     0.0013210   -0.2426184     0.0001385    0.0008827     0.0001153    0.0005222     0.0207950   -0.1782327 
   0.102875713     0.0017351   -0.2431188     0.0003054    0.0006106     0.0002610    0.0006137     0.0206742   -0.1778357 
   0.102975738     0.0022574   -0.2434211     0.0001482    0.0009276     0.0002168    0.0003938     0.0204469   -0.1774792 
   0.103075763     0.0008098   -0.2413909     0.0002808    0.0004920     0.0002853    0.0004762     0.0204655   -0.1773444 
   0.103175788     0.0006451   -0.2422014     0.0003781    0.0003476     0.0000778    0.0006089     0.0204118   -0.1770289 
   0.103275813    -0.0000341   -0.2403783     0.0002920    0.0004662     0.0000388    0.0004528     0.0194827   -0.1769205 
   0.103375838     0.0007176   -0.2407434     0.0001384    0.0000162     0.0001856    0.0004727     0.0206837   -0.1771169 
   0.103475863     0.0011844   -0.2396937     0.0002257    0.0003900     0.0001081    0.0006890     0.0196405   -0.1765601 
   0.103575888    -0.0002774   -0.2400848     0.0002526    0.0003956     0.0001844    0.0004075     0.0198166   -0.1770537 
   0.103675913    -0.0005993   -0.2384238     0.0001576    0.0003221     0.0002286    0.0004737     0.0202510   -0.1773619 
   0.103775938     0.0006925   -0.2413725     0.0002721    0.0005638     0.0001629    0.0004228     0.0200544   -0.1776205 
   0.103875963     0.0006609   -0.2397143     0.0001076    0.0006028     0.0002791    0.0006663     0.0195675   -0.1769219 
   0.103975988     0.0005175   -0.2387747    -0.0000090    0.0004184     0.0001983    0.0003948     0.0193307   -0.1764625 
   0.104076013     0.0003403   -0.2386355    -0.0000242    0.0005142     0.0003666    0.0005599     0.0195752   -0.1773089 
   0.104176038    -0.0008429   -0.2381633     0.0001897    0.0005662     0.0002260    0.0006250     0.0193035   -0.1755279 
   0.104276063    -0.0003980   -0.2382637     0.0004957    0.0002702     0.0001250    0.0006190     0.0193789   -0.1770402 
   0.104376088     0.0001839   -0.2377911     0.0002490    0.0004884     0.0003118    0.0003847     0.0191000   -0.1764199 
   0.104476113    -0.0006403   -0.2383638    -0.0000034    0.0001566     0.0003655    0.0007071     0.0197169   -0.1764949 
   0.104576138     0.0002743   -0.2359252     0.0001837    0.0004411     0.0003747    0.0005612     0.0188776   -0.1759719 
   0.104676163    -0.0015784   -0.2366978     0.0002212    0.0006233     0.0002059    0.0005625     0.0188477   -0.1756245 
   0.104776188    -0.0019248   -0.2378443     0.0003333    0.0000167     0.0003899    0.0005972     0.0185590   -0.1762457 
   0.104876213    -0.0019714   -0.2358620     0.0003428    0.0007042     0.0002496    0.0006765     0.0196690   -0.1766886 
   0.104976238    -0.0001032   -0.2364233     0.0002853    0.0002163     0.0002724    0.0006313     0.0188405   -0.1765132 
   0.105076263     0.0003063   -0.2370911     0.0005227    0.0004366     0.0002608    0.0005658     0.0185901   -0.1761227 
   0.105176288    -0.0002138   -0.2368294     0.0001837    0.0003229     0.0002079    0.0005064     0.0189398   -0.1758544 
   0.105276313    -0.0015464   -0.2362019     0.0000282    0.0002918     0.0004132    0.0005284     0.0187830   -0.1760478 
   0.105376338    -0.0003876   -0.2355837     0.0003089    0.0003621     0.0001869    0.0006606     0.0180112   -0.1757166 
   0.105476363    -0.0022002   -0.2353575     0.0002853    0.0008279     0.0001783    0.0005075     0.0182012   -0.1759817 
   0.105576388    -0.0010481   -0.2344472     0.0002213    0.0008367     0.0003267    0.0005329     0.0186301   -0.1746998 
   0.105676413    -0.0024151   -0.2356030     0.0002978    0.0003192     0.0003185    0.0006091     0.0183899   -0.1770197 
   0.105776438    -0.0009405   -0.2340284    -0.0004033    0.0005462     0.0001706    0.0005483     0.0178895   -0.1752288 
   0.105876463    -0.0027320   -0.2340675     0.0003749    0.0001268     0.0000880    0.0005977     0.0183753   -0.1750274 
   0.105976488    -0.0029010   -0.2329994     0.0000996    0.0005852     0.0002876    0.0006130     0.0179911   -0.1755721 
   0.106076513    -0.0021305   -0.2344800     0.0001868    0.0006132     0.0002905    0.0005866     0.0178579   -0.1754345 
   0.106176538    -0.0026647   -0.2334897     0.0000168    0.0005006     0.0001555    0.0005706     0.0177535   -0.1758099 
   0.106276563    -0.0029574   -0.2332414     0.0002256    0.0005941     0.0004070    0.0004761     0.0177628   -0.1755507 
   0.106376588    -0.0015223   -0.2325758     0.0007157    0.0003248     0.0003880    0.0005366     0.0173496   -0.1745450 
   0.106476613    -0.0019634   -0.2327311     0.0002742    0.0003020     0.0001716    0.0007131     0.0172621   -0.1747514 
   0.106576638    -0.0032598   -0.2320053     0.0002469    0.0005477     0.0002486    0.0005351     0.0178282   -0.1743610 
   0.106676663    -0.0031451   -0.2319894     0.0000687    0.0005786     0.0001586    0.0005110     0.0177538   -0.1742702 
   0.106776688    -0.0028191   -0.2323843     0.0003627    0.0005151     0.0001786    0.0005005     0.0171050   -0.1745782 
   0.106876713    -0.0015978   -0.2313717     0.0001493    0.0006789     0.0002247    0.0005468     0.0172610   -0.1747176 
   0.106976738    -0.0032924   -0.2314345     0.0000516    0.0002472     0.0002705    0.0005154     0.0177422   -0.1754337 
   0.107076763    -0.0037937   -0.2318352     0.0004545    0.0003515     0.0003064    0.0004346     0.0171592   -0.1746220 
   0.107176788    -0.0030610   -0.2308568     0.0002905    0.0005815     0.0002376    0.0005791     0.0170262   -0.1743105 
   0.107276813    -0.0032529   -0.2298742     0.0008249    0.0005418     0.0000900    0.0003831     0.0171548   -0.1743512 
   0.107376838    -0.0043362   -0.2303231     0.0004310    0.0007452     0.0002270    0.0005934     0.0176036   -0.1748304 
   0.107476863    -0.0041268   -0.2304239     0.0004787    0.0005608     0.0002822    0.0005163     0.0169193   -0.1745747 
   0.107576888    -0.0026059   -0.2296536     0.0004532    0.0005083     0.0003246    0.0003090     0.0170590   -0.1743934 
   0.107676913    -0.0046663   -0.2296558     0.0000398    0.0010806     0.0002653    0.0004823     0.0170151   -0.1738765 
   0.107776938    -0.0052434   -0.2289901    -0.0000297    0.0005339     0.0005182    0.0004799     0.0163725   -0.1746342 
   0.107876963    -0.0036844   -0.2278532     0.0004408    0.0006290     0.0002653    0.0003987     0.0163201   -0.1745779 
   0.107976988    -0.0042510   -0.2292058     0.0002523    0.0003255     0.0003902    0.0004690     0.0164644   -0.1749676 
   0.108077014    -0.0040902   -0.2287878     0.0004984    0.0003615     0.0002955    0.0005471     0.0163992   -0.1734331 
   0.108177039    -0.0043428   -0.2278453     0.0001978    0.0004189     0.0002428    0.0006642     0.0160237   -0.1740208 
   0.108277064    -0.0042606   -0.2276794     0.0002615    0.0006313     0.0003882    0.0006625     0.0167936   -0.1744059 
   0.108377089    -0.0039367   -0.2273105     0.0001245    0.0004548     0.0000696    0.0004312     0.0164091   -0.1741589 
   0.108477114    -0.0056736   -0.2271051    -0.0000357    0.0002786     0.0002855    0.0005674     0.0159797   -0.1732750 
   0.108577139    -0.0060184   -0.2266742     0.0002915    0.0005237     0.0002065    0.0004286     0.0157252   -0.1739732 
   0.108677164    -0.0051696   -0.2266452     0.0002740    0.0004844     0.0003252    0.0004239     0.0159846   -0.1738821 
   0.108777189    -0.0049591   -0.2264374     0.0002403    0.0006974     0.0003435    0.0005940     0.0155940   -0.1736310 
   0.108877214    -0.0042558   -0.2268921     0.0001007    0.0005570     0.0003029    0.0005697     0.0156853   -0.1732745 
   0.108977239    -0.0039881   -0.2250374     0.0003965    0.0006290     0.0002891    0.0005501     0.0160617   -0.1732361 
   0.109077264    -0.0048380   -0.2255815     0.0006782    0.0007187     0.0003838    0.0004690     0.0161699   -0.1733398 
   0.109177289    -0.0045333   -0.2255552     0.0002196    0.0004966     0.0002659    0.0005973     0.0155706   -0.1737183 
   0.109277314    -0.0056298   -0.2253371     0.0002219    0.0006452     0.0001640    0.0006104     0.0157628   -0.1733086 
   0.109377339    -0.0061260   -0.2242241     0.0003636    0.0006888     0.0002100    0.0004003     0.0153858   -0.1736049 
   0.109477364    -0.0046053   -0.2246615    -0.0000125    0.0006123     0.0002032    0.0005208     0.0150428   -0.1736028 
   0.109577389    -0.0058820   -0.2256019     0.0001062    0.0000396     0.0003138    0.0005479     0.0152333   -0.1732532 
   0.109677414    -0.0064659   -0.2246525     0.0002142    0.0004253     0.0003113    0.0005846     0.0144325   -0.1735727 
   0.109777439    -0.0052574   -0.2238796     0.0003110    0.0005927    -0.0000153    0.0004030     0.0145948   -0.1732051 
   0.109877464    -0.0058503   -0.2240616     0.0002803    0.0002729     0.0002473    0.0008547     0.0146637   -0.1737007 
   0.109977489    -0.0060423   -0.2247500     0.0002356    0.0008171     0.0002006    0.0004682     0.0149100   -0.1734067 
   0.110077514    -0.0063822   -0.2229975     0.0005240    0.0004862     0.0002194    0.0005609     0.0145556   -0.1733781 
   0.110177539    -0.0063706   -0.2224743     0.0005584    0.0008061     0.0003926    0.0006048     0.0146826   -0.1725622 
   0.110277564    -0.0057000   -0.2232496     0.0003932    0.0005995     0.0003619    0.0007460     0.0141937   -0.1730076 
   0.110377589    -0.0067957   -0.2227593     0.0003670    0.0004989     0.0003694    0.0005268     0.0141512   -0.1727952 
   0.110477614    -0.0058829   -0.2220077     0.0002304    0.0002654     0.0003359    0.0005406     0.0143953   -0.1731040 
   0.110577639    -0.0065567   -0.2212436     0.0001212    0.0004499     0.0002425    0.0004270     0.0144844   -0.1721343 
   0.110677664    -0.0065379   -0.2212201     0.0001728    0.0005858     0.0003852    0.0005576     0.0137853   -0.1718640 
   0.110777689    -0.0074900   -0.2229835     0.0003641    0.0005119     0.0004358    0.0005721     0.0147124   -0.1722196 
   0.110877714    -0.0059337   -0.2200708     0.0001890    0.0004453     0.0003617    0.0006473     0.0141433   -0.1722448 
   0.110977739    -0.0063842   -0.2204204     0.0002268    0.0006850     0.0004539    0.0005576     0.0136251   -0.1728942 
   0.111077764    -0.0069083   -0.2207459     0.0004612    0.0004600     0.0003567    0.0004686     0.0135009   -0.1734938 
   0.111177789    -0.0071004   -0.2199073     0.0004575    0.0003602     0.0003051    0.0004584     0.0132637   -0.1722517 
   0.111277814    -0.0061352   -0.2191575     0.0002886    0.0005543     0.0002747    0.0005542     0.0139385   -0.1726167 
   0.111377839    -0.0066483   -0.2203735     0.0003915    0.0006347     0.0001079    0.0004599     0.0132450   -0.1723110 
   0.111477864    -0.0072591   -0.2194565     0.0002464    0.0005635     0.0002583    0.0007339     0.0141153   -0.1717194 
   0.111577889    -0.0074042   -0.2191895     0.0004926    0.0006712     0.0002107    0.0005309     0.0138533   -0.1716579 
   0.111677914    -0.0064286   -0.2194122     0.0003931    0.0008467     0.0002430    0.0004297     0.0135630   -0.1720786 
   0.111777939    -0.0072161   -0.2191781     0.0003693    0.0004514     0.0004930    0.0004047     0.0132037   -0.1718138 
   0.111877964    -0.0080151   -0.2198597     0.0002428    0.0005488     0.0002592    0.0006246     0.0125557   -0.1715534 
   0.111977989    -0.0073676   -0.2174567    -0.0000350    0.0002799     0.0004096    0.0007270     0.0134743   -0.1713368 
   0.112078014    -0.0068745   -0.2176034     0.0005199    0.0005663     0.0002442    0.0007251     0.0133453   -0.1713751 
   0.112178039    -0.0067975   -0.2178732     0.0001572    0.0005064     0.0006358    0.0004379     0.0129591   -0.1709750 
   0.112278064    -0.0073085   -0.2180342     0.0002183    0.0005123     0.0003614    0.0005546     0.0136729   -0.1715489 
   0.112378089    -0.0072866   -0.2173655     0.0004478    0.0005110     0.0002780    0.0006043     0.0122229   -0.1718334 
   0.112478114    -0.0076953   -0.2179267     0.0002217    0.0004010     0.0002945    0.0006125     0.0126919   -0.1718612 
   0.112578139    -0.0078866   -0.2165160     0.0000964    0.0006054     0.0003010    0.0004607     0.0131630   -0.1709692 
   0.112678164    -0.0075739   -0.2177410     0.0003198    0.0003694     0.0003049    0.0005497     0.0127682   -0.1718157 
   0.112778189    -0.0086211   -0.2167754     0.0004191    0.0006809     0.0001933    0.0006980     0.0127511   -0.1711573 
   0.112878214    -0.0085300   -0.2156010     0.0002832    0.0005270     0.0003602    0.0005765     0.0129966   -0.1713950 
   0.112978239    -0.0081553   -0.2146846     0.0001489    0.0005490     0.0002444    0.0005017     0.0125233   -0.1708510 
   0.113078264    -0.0082987   -0.2155423     0.0003635    0.0006440     0.0002550    0.0007578     0.0125953   -0.1714093 
   0.113178289    -0.0084525   -0.2160352     0.0001393    0.0004903     0.0003656    0.0006434     0.0123481   -0.1714932 
   0.113278314    -0.0076217   -0.2146902     0.0001752    0.0004910     0.0003652    0.0006098     0.0115999   -0.1709732 
   0.113378339    -0.0076980   -0.2159763     0.0001853    0.0005779     0.0004261    0.0004469     0.0122713   -0.1708994 
   0.113478364    -0.0091993   -0.2143181     0.0002607    0.0006779     0.0002745    0.0004765     0.0115782   -0.1711886 
   0.113578389    -0.0086069   -0.2137115     0.0003073    0.0005970     0.0002245    0.0004751     0.0122286   -0.1710796 
   0.113678414    -0.0084629   -0.2139027     0.0001878    0.0007608     0.0003694    0.0007373     0.0119079   -0.1716079 
   0.113778439    -0.0093655   -0.2144791     0.0005802    0.0003156     0.0002209    0.0005515     0.0117942   -0.1702022 
   0.113878464    -0.0095305   -0.2129701     0.0002764    0.0003743     0.0003027    0.0005379     0.0118073   -0.1704915 
   0.113978489    -0.0088388   -0.2133489     0.0000491    0.0004254     0.0002301    0.0005492     0.0116950   -0.1708598 
   0.114078514    -0.0102250   -0.2129310     0.0005018    0.0005246     0.0003396    0.0008477     0.0121540   -0.1699862 
   0.114178539    -0.0088428   -0.2128001     0.0003832    0.0008040     0.0003639    0.0005212     0.0112613   -0.1703197 
   0.114278564    -0.0089284   -0.2126821     0.0005023    0.0003854     0.0004340    0.0007550     0.0110181   -0.1705910 
   0.114378589    -0.0087878   -0.2132733     0.0005243    0.0006019     0.0002903    0.0004697     0.0112883   -0.1711335 
   0.114478614    -0.0101350   -0.2125999     0.0004668    0.0004486     0.0004722    0.0005033     0.0112328   -0.1703396 
   0.114578639    -0.0088682   -0.2123056     0.0005487    0.0005055     0.0003209    0.0005193     0.0107372   -0.1704669 
   0.114678664    -0.0090856   -0.2118529     0.0001072    0.0002557     0.0002002    0.0005140     0.0111090   -0.1704523 
   0.114778689    -0.0093963   -0.2128336     0.0004198    0.0007430     0.0002122    0.0005832     0.0104856   -0.1696893 
   0.114878714    -0.0098170   -0.2122081     0.0006011    0.0007335     0.0004700    0.0006898     0.0103143   -0.1697103 
   0.114978739    -0.0085687   -0.2114646     0.0003850    0.0005691     0.0003015    0.0005631     0.0107519   -0.1699624 
   0.115078764    -0.0098282   -0.2112193     0.0001374    0.0006468     0.0002878    0.0006252     0.0104901   -0.1698024 
   0.115178789    -0.0111058   -0.2110009     0.0002408    0.0007928     0.0002362    0.0004031     0.0104426   -0.1701122 
   0.115278814    -0.0093442   -0.2102105     0.0003023    0.0005726     0.0002149    0.0005657     0.0106207   -0.1699781 
   0.115378839    -0.0096781   -0.2094144     0.0000204    0.0006421     0.0002990    0.0006034     0.0106043   -0.1694131 
   0.115478864    -0.0091552   -0.2094790     0.0002510    0.0002978     0.0003365    0.0004677     0.0102984   -0.1699378 
   0.115578889    -0.0097801   -0.2098948     0.0004554    0.0006742     0.0002879    0.0004421     0.0102291   -0.1699908 
   0.115678914    -0.0098375   -0.2082220     0.0002192    0.0007556     0.0006800    0.0004550     0.0102301   -0.1699423 
   0.115778939    -0.0086106   -0.2086045     0.0002943    0.0009324     0.0004343    0.0004347     0.0100742   -0.1690804 
   0.115878964    -0.0099887   -0.2090828     0.0002821    0.0004288     0.0004146    0.0004939     0.0096965   -0.1700830 
   0.115978989    -0.0101344   -0.2087975     0.0001740    0.0005487     0.0004747    0.0004625     0.0100155   -0.1694769 
   0.116079015    -0.0095848   -0.2077697     0.0006907    0.0005359     0.0003096    0.0006676     0.0095996   -0.1695833 
   0.116179040    -0.0108917   -0.2084204     0.0001516    0.0006935     0.0003819    0.0004429     0.0093235   -0.1698741 
   0.116279065    -0.0096552   -0.2087450     0.0002825    0.0005670     0.0002040    0.0004134     0.0105827   -0.1690751 
   0.116379090    -0.0095820   -0.2074151     0.0003100    0.0007112     0.0003281    0.0005622     0.0098933   -0.1699182 
   0.116479115    -0.0107555   -0.2082234     0.0001316    0.0008101     0.0003977    0.0005043     0.0095328   -0.1690768 
   0.116579140    -0.0108252   -0.2072921     0.0002036    0.0007783     0.0003405    0.0004548     0.0098793   -0.1692193 
   0.116679165    -0.0103893   -0.2066686     0.0005842    0.0002260     0.0001947    0.0005702     0.0092657   -0.1696492 
   0.116779190    -0.0115064   -0.2061373     0.0003589    0.0003414     0.0003189    0.0006535     0.0093371   -0.1693572 
   0.116879215    -0.0116279   -0.2059135     0.0002485    0.0004670     0.0003359    0.0005120     0.0085020   -0.1689637 
   0.116979240    -0.0104859   -0.2063651     0.0003001    0.0005718     0.0003371    0.0004857     0.0098174   -0.1686584 
   0.117079265    -0.0107664   -0.2051808     0.0001632    0.0006552     0.0005376    0.0004741     0.0095722   -0.1689290 
   0.117179290    -0.0104145   -0.2064631     0.0005879    0.0005453     0.0004376    0.0004890     0.0091549   -0.1691512 
   0.117279315    -0.0111815   -0.2053761     0.0002001    0.0004190     0.0004667    0.0004914     0.0093896   -0.1691632 
   0.117379340    -0.0111297   -0.2049717     0.0003588    0.0009790     0.0003172    0.0004189     0.0089423   -0.1689759 
   0.117479365    -0.0104149   -0.2052202     0.0003250    0.0005226     0.0004417    0.0006198     0.0092136   -0.1689900 
   0.117579390    -0.0116621   -0.2044420     0.0001822    0.0007132     0.0003618    0.0006331     0.0085405   -0.1684717 
   0.117679415    -0.0120451   -0.2054591     0.0003966    0.0006865     0.0002278    0.0004219     0.0083807   -0.1682168 
   0.117779440    -0.0115993   -0.2034892    -0.0001147    0.0004055     0.0000410    0.0005796     0.0087430   -0.1693141 
   0.117879465    -0.0115679   -0.2041461     0.0002255    0.0003662     0.0003102    0.0005427     0.0076751   -0.1688356 
   0.117979490    -0.0115962   -0.2034787     0.0003397    0.0006016     0.0003487    0.0004866     0.0089727   -0.1687361 
   0.118079515    -0.0117595   -0.2035581     0.0002295    0.0004723     0.0003823    0.0005020     0.0081149   -0.1682739 
   0.118179540    -0.0119996   -0.2037002     0.0004456    0.0000836     0.0003603    0.0004226     0.0084924   -0.1684889 
   0.118279565    -0.0114550   -0.2031365     0.0005421    0.0002915     0.0003745    0.0005321     0.0080372   -0.1681944 
   0.118379590    -0.0108831   -0.2033410     0.0005443    0.0006765     0.0004202    0.0005087     0.0077877   -0.1682590 
   0.118479615    -0.0121948   -0.2025868     0.0002582    0.0001989     0.0003334    0.0005211     0.0078735   -0.1680589 
   0.118579640    -0.0113606   -0.2026034     0.0003630    0.0003034     0.0004090    0.0005025     0.0082518   -0.1675888 
   0.118679665    -0.0121026   -0.2018728     0.0002396    0.0005078     0.0004937    0.0006915     0.0080456   -0.1682732 
   0.118779690    -0.0108138   -0.2015314     0.0002272    0.0005311     0.0003640    0.0005208     0.0079313   -0.1683313 
   0.118879715    -0.0129306   -0.2020410     0.0004175    0.0005461     0.0004397    0.0004998     0.0074813   -0.1682472 
   0.118979740    -0.0127495   -0.2011889     0.0003825    0.0008712     0.0003795    0.0005869     0.0077118   -0.1680978 
   0.119079765    -0.0116392   -0.2020512     0.0005129    0.0005554     0.0001405    0.0006814     0.0073114   -0.1676812 
   0.119179790    -0.0125276   -0.2008333     0.0006952    0.0004619     0.0004198    0.0005460     0.0075189   -0.1679716 
   0.119279815    -0.0124443   -0.2023529     0.0002114    0.0005938     0.0002909    0.0006309     0.0075693   -0.1677279 
   0.119379840    -0.0127625   -0.2000726     0.0004266    0.0005146     0.0003558    0.0005160     0.0072748   -0.1679816 
   0.119479865    -0.0125759   -0.2000633     0.0005307    0.0006945     0.0002398    0.0005729     0.0071892   -0.1678467 
   0.119579890    -0.0127319   -0.1984768     0.0000169    0.0006661     0.0003160    0.0005691     0.0072387   -0.1677891 
   0.119679915    -0.0123754   -0.1996896     0.0003529    0.0007144     0.0002947    0.0005517     0.0067616   -0.1677961 
   0.119779940    -0.0123342   -0.1994940     0.0001209    0.0007095     0.0004539    0.0007726     0.0072502   -0.1678751 
   0.119879965    -0.0126984   -0.1994579     0.0003547    0.0008342     0.0005575    0.0006064     0.0068139   -0.1673186 
   0.119979990    -0.0134533   -0.1992617     0.0003504    0.0003946     0.0004190    0.0004185     0.0073113   -0.1676440 
   0.120080015    -0.0128372   -0.1991840     0.0002036    0.0009743     0.0003302    0.0006600     0.0065649   -0.1668215 
   0.120180040    -0.0129692   -0.1989509     0.0004207    0.0007440     0.0003298    0.0006039     0.0067783   -0.1675049 
   0.120280065    -0.0134521   -0.1989276     0.0001592    0.0003728     0.0003293    0.0004613     0.0064467   -0.1677754 
   0.120380090    -0.0132449   -0.1975323     0.0000411    0.0003393     0.0002769    0.0005321     0.0066277   -0.1673233 
   0.120480115    -0.0118263   -0.1980469     0.0004584    0.0003822     0.0002538    0.0007560     0.0068135   -0.1675140 
   0.120580140    -0.0125436   -0.1973003     0.0004336    0.0007354     0.0004182    0.0007043     0.0057808   -0.1672893 
   0.120680165    -0.0125712   -0.1972644     0.0003616    0.0003085     0.0003588    0.0005719     0.0061954   -0.1677312 
   0.120780190    -0.0129433   -0.1973042     0.0002949    0.0005034     0.0003030    0.0004722     0.0064872   -0.1674646 
   0.120880215    -0.0131433   -0.1973452     0.0004377    0.0007570     0.0001641    0.0006328     0.0064554   -0.1674147 
   0.120980240    -0.0138503   -0.1962707     0.0004981    0.0006101     0.0006188    0.0005469     0.0057746   -0.1672532 
   0.121080265    -0.0142602   -0.1969291     0.0002333    0.0004905     0.0003840    0.0007453     0.0056168   -0.1670382 
   0.121180290    -0.0129413   -0.1956632     0.0002652    0.0005583     0.0004743    0.0004969     0.0057054   -0.1664708 
   0.121280315    -0.0135255   -0.1957599     0.0004765    0.0005305     0.0003781    0.0004962     0.0054299   -0.1668961 
   0.121380340    -0.0130743   -0.1958447     0.0004926    0.0006499     0.0003073    0.0006430     0.0062685   -0.1665140 
   0.121480365    -0.0146376   -0.1959584     0.0002270    0.0006858     0.0002467    0.0006902     0.0052250   -0.1666863 
   0.121580390    -0.0140651   -0.1961367     0.0002288    0.0006760     0.0002613    0.0005667     0.0055300   -0.1662168 
   0.121680415    -0.0136581   -0.1958432     0.0004450    0.0008782     0.0003591    0.0005198     0.0059097   -0.1670885 
   0.121780440    -0.0137556   -0.1957955     0.0003845    0.0002376     0.0004828    0.0006849     0.0055566   -0.1663612 
   0.121880465    -0.0142547   -0.1939972    -0.0000056    0.0005211     0.0004027    0.0006003     0.0056122   -0.1663681 
   0.121980490    -0.0144917   -0.1948860     0.0006944    0.0007796     0.0003311    0.0007005     0.0050504   -0.1668567 
   0.122080515    -0.0135103   -0.1930297     0.0004296    0.0006182     0.0004626    0.0005397     0.0052506   -0.1663856 
   0.122180540    -0.0135232   -0.1953435     0.0003311    0.0008223     0.0003966    0.0004988     0.0052698   -0.1664424 
   0.122280565    -0.0135313   -0.1947167     0.0001426    0.0007412     0.0003830    0.0006336     0.0052524   -0.1668202 
   0.122380590    -0.0139224   -0.1935531     0.0000805    0.0004743     0.0002055    0.0005417     0.0048937   -0.1662238 
   0.122480615    -0.0138404   -0.1945626     0.0002573    0.0006083     0.0005073    0.0004716     0.0052725   -0.1661731 
   0.122580640    -0.0145448   -0.1943039     0.0003092    0.0007173     0.0002990    0.0005682     0.0048997   -0.1664717 
   0.122680665    -0.0136165   -0.1933869     0.0002997    0.0007657     0.0004685    0.0006759     0.0044610   -0.1664061 
   0.122780690    -0.0137741   -0.1933244     0.0004426    0.0008421     0.0003970    0.0005482     0.0046539   -0.1662069 
   0.122880715    -0.0145171   -0.1932377     0.0002020    0.0005360     0.0003045    0.0003562     0.0044102   -0.1662441 
   0.122980740    -0.0139078   -0.1926564     0.0002466    0.0005780     0.0005262    0.0006080     0.0047765   -0.1660594 
   0.123080765    -0.0139422   -0.1913258     0.0008290    0.0008926     0.0002568    0.0005802     0.0046515   -0.1662796 
   0.123180790    -0.0135224   -0.1911389     0.0005233    0.0007074     0.0002697    0.0004832     0.0044377   -0.1656535 
   0.123280815    -0.0148699   -0.1921626     0.0007698    0.0004021     0.0003695    0.0006566     0.0045630   -0.1659086 
   0.123380840    -0.0140844   -0.1921213     0.0005224    0.0005739     0.0004172    0.0006062     0.0039455   -0.1657666 
   0.123480865    -0.0140004   -0.1914115    -0.0000036    0.0005270     0.0004102    0.0005769     0.0039260   -0.1654391 
   0.123580890    -0.0153327   -0.1917615     0.0004178    0.0004087     0.0006349    0.0006022     0.0035140   -0.1660349 
   0.123680915    -0.0140679   -0.1913178     0.0003699    0.0005514     0.0003384    0.0005689     0.0038953   -0.1657793 
   0.123780940    -0.0147344   -0.1910292     0.0001296    0.0004632     0.0005861    0.0004902     0.0034957   -0.1656759 
   0.123880965    -0.0149423   -0.1907257     0.0003590    0.0008520     0.0004673    0.0004108     0.0036274   -0.1657734 
   0.123980990    -0.0147469   -0.1892139     0.0004258    0.0007827     0.0003035    0.0005210     0.0034017   -0.1657290 
   0.124081016    -0.0148298   -0.1899635     0.0004843    0.0005246     0.0003470    0.0007573     0.0036026   -0.1654302 
   0.124181041    -0.0142092   -0.1898032     0.0005364    0.0006675     0.0003217    0.0004393     0.0032587   -0.1653261 
   0.124281066    -0.0154978   -0.1910172     0.0000974    0.0003757     0.0003656    0.0005035     0.0033395   -0.1654688 
   0.124381091    -0.0141695   -0.1895955     0.0004311    0.0005352     0.0005204    0.0006151     0.0032675   -0.1655501 
   0.124481116    -0.0144716   -0.1886376     0.0002680    0.0007836     0.0003979    0.0005519     0.0033773   -0.1652448 
   0.124581141    -0.0146473   -0.1888385     0.0003641    0.0002965     0.0001286    0.0005530     0.0030507   -0.1651496 
   0.124681166    -0.0150332   -0.1880991     0.0002592    0.0004221     0.0003243    0.0005608     0.0029648   -0.1655571 
   0.124781191    -0.0152201   -0.1889986     0.0004531    0.0004755     0.0006007    0.0004855     0.0031567   -0.1653468 
   0.124881216    -0.0144133   -0.1882554     0.0005271    0.0005055     0.0004830    0.0006373     0.0030504   -0.1648153 
   0.124981241    -0.0146317   -0.1884555     0.0004455    0.0004719     0.0005482    0.0005977     0.0027040   -0.1646684 
   0.125081266    -0.0146422   -0.1879197     0.0000970    0.0007500     0.0005886    0.0004024     0.0030715   -0.1642371 
   0.125181291    -0.0143270   -0.1885081     0.0004036    0.0002796     0.0003774    0.0005393     0.0030432   -0.1649163 
   0.125281316    -0.0156991   -0.1875064     0.0003670    0.0007296     0.0005010    0.0007309     0.0030844   -0.1651720 
   0.125381341    -0.0146002   -0.1876773     0.0003808    0.0006923     0.0005383    0.0005969     0.0028050   -0.1651683 
   0.125481366    -0.0148682   -0.1861992     0.0002666    0.0007203     0.0004993    0.0005409     0.0025148   -0.1652942 
   0.125581391    -0.0151284   -0.1878446     0.0005322    0.0007000     0.0005172    0.0005327     0.0025071   -0.1648277 
   0.125681416    -0.0158482   -0.1872366     0.0005527    0.0004804     0.0004670    0.0005281     0.0025163   -0.1644303 
   0.125781441    -0.0150180   -0.1868342     0.0002951    0.0006956     0.0003601    0.0005163     0.0023127   -0.1645340 
   0.125881466    -0.0149126   -0.1866694     0.0003979    0.0004466     0.0002903    0.0006734     0.0024400   -0.1645129 
   0.125981491    -0.0159941   -0.1856995     0.0003291    0.0005043     0.0004326    0.0005675     0.0014705   -0.1644024 
   0.126081516    -0.0155171   -0.1861052    -0.0000027    0.0005393     0.0002446    0.0005251     0.0018208   -0.1641368 
   0.126181541    -0.0153667   -0.1852429     0.0003253    0.0006633     0.0003188    0.0006267     0.0021444   -0.1648920 
   0.126281566    -0.0160433   -0.1859365     0.0003957    0.0002903     0.0002906    0.0006300     0.0022280   -0.1648148 
   0.126381591    -0.0150480   -0.1867602     0.0002310    0.0005238     0.0003091    0.0005002     0.0016298   -0.1643256 
   0.126481616    -0.0152985   -0.1852567     0.0005981    0.0006106     0.0004516    0.0006184     0.0019096   -0.1649248 
   0.126581641    -0.0159947   -0.1847053     0.0001912    0.0002047     0.0002003    0.0004200     0.0016113   -0.1644271 
   0.126681666    -0.0160925   -0.1846356     0.0008118    0.0005676     0.0003908    0.0004297     0.0014701   -0.1643990 
   0.126781691    -0.0165118   -0.1850757     0.0000274    0.0006007     0.0004504    0.0004919     0.0017452   -0.1644173 
   0.126881716    -0.0156889   -0.1843610     0.0005395    0.0002771     0.0005295    0.0002961     0.0013588   -0.1640838 
   0.126981741    -0.0158982   -0.1833986     0.0004138    0.0006606     0.0004425    0.0005997     0.0010247   -0.1643065 
   0.127081766    -0.0155210   -0.1833583     0.0007935    0.0006288     0.0004241    0.0007367     0.0006443   -0.1638779 
   0.127181791    -0.0162188   -0.1833450     0.0004966    0.0005594     0.0003969    0.0004682     0.0010518   -0.1640293 
   0.127281816    -0.0161572   -0.1836294     0.0003728    0.0005102     0.0005644    0.0006851     0.0014487   -0.1641860 
   0.127381841    -0.0167285   -0.1825322     0.0006273    0.0007013     0.0005110    0.0005906     0.0005997   -0.1641594 
   0.127481866    -0.0163985   -0.1829042     0.0005977    0.0004789     0.0004539    0.0005257     0.0009830   -0.1642509 
   0.127581891    -0.0165147   -0.1835380     0.0003792    0.0007086     0.0005196    0.0005466     0.0007444   -0.1638151 
   0.127681916    -0.0160217   -0.1832791     0.0005455    0.0004959     0.0004805    0.0006354     0.0008190   -0.1642098 
   0.127781941    -0.0163964   -0.1821789     0.0005082    0.0003470     0.0005662    0.0007239     0.0008230   -0.1640284 
   0.127881966    -0.0165644   -0.1821844     0.0003128    0.0004498     0.0006086    0.0007395     0.0004525   -0.1635571 
   0.127981991    -0.0164238   -0.1833768     0.0005970    0.0005812     0.0003235    0.0005883     0.0006626   -0.1637293 
   0.128082016    -0.0163556   -0.1824930     0.0003777    0.0007194     0.0003202    0.0005418     0.0009787   -0.1636285 
   0.128182041    -0.0163491   -0.1820946     0.0008226    0.0006027     0.0005117    0.0005164     0.0003077   -0.1640648 
   0.128282066    -0.0162248   -0.1817290     0.0006413    0.0006876     0.0004563    0.0007102     0.0005300   -0.1638126 
   0.128382091    -0.0161224   -0.1810159     0.0002382    0.0000626     0.0003908    0.0005777     0.0001304   -0.1635702 
   0.128482116    -0.0161406   -0.1806761     0.0001176    0.0006547     0.0003641    0.0005372    -0.0001946   -0.1639514 
   0.128582141    -0.0174560   -0.1821400     0.0004244    0.0002253     0.0003440    0.0006743     0.0002896   -0.1633835 
   0.128682166    -0.0172600   -0.1813201     0.0000501    0.0004251     0.0005313    0.0007108    -0.0001289   -0.1635659 
   0.128782191    -0.0165745   -0.1803790     0.0001627    0.0007626     0.0002482    0.0004769     0.0001470   -0.1632672 
   0.128882216    -0.0167328   -0.1800362    -0.0000038    0.0006799     0.0005106    0.0006050    -0.0001567   -0.1637460 
   0.128982241    -0.0169588   -0.1806358     0.0005566    0.0003294     0.0004419    0.0006335    -0.0005651   -0.1634091 
   0.129082266    -0.0166947   -0.1800064     0.0002695    0.0006699     0.0004987    0.0005570    -0.0001416   -0.1638776 
   0.129182291    -0.0162434   -0.1802334     0.0004873    0.0006464     0.0004481    0.0004739    -0.0003409   -0.1635572 
   0.129282316    -0.0168951   -0.1787855     0.0005451    0.0010095     0.0004115    0.0006528    -0.0002704   -0.1631982 
   0.129382341    -0.0170682   -0.1790444     0.0002781    0.0005739     0.0003901    0.0006580    -0.0009647   -0.1632782 
   0.129482366    -0.0164942   -0.1790272     0.0003404    0.0001717     0.0005515    0.0007213    -0.0004337   -0.1631583 
   0.129582391    -0.0169714   -0.1790445     0.0003401    0.0006697     0.0005340    0.0004066    -0.0003708   -0.1634441 
   0.129682416    -0.0178360   -0.1787572     0.0005368    0.0008295     0.0005056    0.0006640    -0.0005795   -0.1625666 
   0.129782441    -0.0170994   -0.1783547     0.0001724    0.0004444     0.0005133    0.0005360    -0.0003681   -0.1632199 
   0.129882466    -0.0170886   -0.1785809     0.0006386    0.0006121     0.0004093    0.0004840    -0.0012004   -0.1628428 
   0.129982491    -0.0175117   -0.1793057     0.0008032    0.0010181     0.0003204    0.0006331    -0.0004130   -0.1627338 
   0.130082516    -0.0168127   -0.1785516     0.0006161    0.0004275     0.0005091    0.0006290    -0.0011095   -0.1627008 
   0.130182541    -0.0169520   -0.1782403     0.0004439    0.0007402     0.0004124    0.0005250    -0.0010452   -0.1630280 
   0.130282566    -0.0179626   -0.1779703     0.0000765    0.0006301     0.0006381    0.0005816    -0.0012905   -0.1631006 
   0.130382591    -0.0180550   -0.1768266     0.0004153    0.0009580     0.0003933    0.0005262    -0.0013252   -0.1623016 
   0.130482616    -0.0177371   -0.1772123     0.0006881    0.0005645     0.0003161    0.0005691    -0.0017168   -0.1624883 
   0.130582641    -0.0166280   -0.1763741     0.0004623    0.0007557     0.0003476    0.0005497    -0.0015225   -0.1625739 
   0.130682666    -0.0171242   -0.1770790     0.0005370    0.0008889     0.0003748    0.0006258    -0.0016913   -0.1625286 
   0.130782691    -0.0171760   -0.1773261     0.0007562    0.0003526     0.0006239    0.0003896    -0.0016826   -0.1623903 
   0.130882716    -0.0168982   -0.1761408     0.0004122    0.0002692     0.0004941    0.0003533    -0.0017906   -0.1622975 
   0.130982741    -0.0170458   -0.1763200     0.0004946    0.0006577     0.0005041    0.0006583    -0.0019901   -0.1627004 
   0.131082766    -0.0169211   -0.1758543     0.0005921    0.0003047     0.0005223    0.0004804    -0.0016873   -0.1623528 
   0.131182791    -0.0170050   -0.1763576     0.0006103    0.0005035     0.0004131    0.0006562    -0.0016147   -0.1620389 
   0.131282816    -0.0178610   -0.1754965     0.0006721    0.0005906     0.0003406    0.0006470    -0.0019527   -0.1620304 
   0.131382841    -0.0181850   -0.1751323     0.0006590    0.0004666     0.0004533    0.0005585    -0.0020849   -0.1625992 
   0.131482866    -0.0175736   -0.1757554     0.0003998    0.0005842     0.0004949    0.0005206    -0.0020214   -0.1623395 
   0.131582891    -0.0177035   -0.1754203     0.0006636    0.0004403     0.0004336    0.0006497    -0.0027318   -0.1618967 
   0.131682916    -0.0178954   -0.1744692     0.0002899    0.0004075     0.0005686    0.0007786    -0.0029344   -0.1620669 
   0.131782941    -0.0175686   -0.1739883     0.0003634    0.0010472     0.0005589    0.0006391    -0.0024274   -0.1623328 
   0.131882966    -0.0179376   -0.1748181     0.0007444    0.0004892     0.0005878    0.0003905    -0.0022940   -0.1617066 
   0.131982991    -0.0182670   -0.1748433     0.0005515    0.0004618     0.0006118    0.0006718    -0.0028320   -0.1619947 
   0.132083017    -0.0176471   -0.1730541     0.0007319    0.0002817     0.0004508    0.0005996    -0.0029258   -0.1619012 
   0.132183042    -0.0170071   -0.1739113     0.0003544    0.0006154     0.0004069    0.0006453    -0.0035779   -0.1618563 
   0.132283067    -0.0176564   -0.1729936     0.0005705    0.0007778     0.0003123    0.0004531    -0.0031934   -0.1617092 
   0.132383092    -0.0183640   -0.1734450     0.0001603    0.0007446     0.0005040    0.0004202    -0.0031367   -0.1620882 
   0.132483117    -0.0172160   -0.1729333     0.0006255    0.0005036     0.0004484    0.0002786    -0.0033275   -0.1614248 
   0.132583142    -0.0189810   -0.1731442     0.0002182    0.0006493     0.0002933    0.0004687    -0.0034597   -0.1610967 
   0.132683167    -0.0180154   -0.1729378     0.0004904    0.0007886     0.0006049    0.0005468    -0.0032001   -0.1618473 
   0.132783192    -0.0167070   -0.1725078     0.0006168    0.0005838     0.0006911    0.0006844    -0.0034013   -0.1614218 
   0.132883217    -0.0181027   -0.1725467     0.0004730    0.0002982     0.0004251    0.0004012    -0.0030841   -0.1614948 
   0.132983242    -0.0179539   -0.1720134     0.0006457    0.0005884     0.0004478    0.0006451    -0.0030232   -0.1615194 
   0.133083267    -0.0179209   -0.1730278     0.0006065    0.0005689     0.0004760    0.0006614    -0.0036555   -0.1614126 
   0.133183292    -0.0180043   -0.1717248     0.0000993    0.0005921     0.0004818    0.0004219    -0.0032513   -0.1614545 
   0.133283317    -0.0176895   -0.1721927     0.0006573    0.0003032     0.0007321    0.0006027    -0.0038642   -0.1610050 
   0.133383342    -0.0180902   -0.1714149     0.0001921    0.0005750     0.0005568    0.0005490    -0.0037943   -0.1616313 
   0.133483367    -0.0181042   -0.1711766     0.0006027    0.0006118     0.0005112    0.0006341    -0.0040718   -0.1616850 
   0.133583392    -0.0174528   -0.1717956     0.0003827    0.0006324     0.0004679    0.0005662    -0.0037723   -0.1614806 
   0.133683417    -0.0184002   -0.1712490     0.0004162    0.0006798     0.0004605    0.0006424    -0.0042629   -0.1614064 
   0.133783442    -0.0181143   -0.1708941     0.0002669    0.0005869     0.0002620    0.0006964    -0.0043560   -0.1613811 
   0.133883467    -0.0179617   -0.1706818     0.0005476    0.0005605     0.0006493    0.0006742    -0.0037311   -0.1611224 
   0.133983492    -0.0173611   -0.1702817     0.0006304    0.0004621     0.0004610    0.0006090    -0.0043395   -0.1610560 
   0.134083517    -0.0178790   -0.1710997     0.0005525    0.0006274     0.0004561    0.0005966    -0.0046475   -0.1607556 
   0.134183542    -0.0182812   -0.1694603     0.0004717    0.0005919     0.0006198    0.0007448    -0.0043782   -0.1608225 
   0.134283567    -0.0185631   -0.1696857     0.0003481    0.0004166     0.0004805    0.0005853    -0.0043616   -0.1609886 
   0.134383592    -0.0182617   -0.1700874     0.0008469    0.0003626     0.0006087    0.0005574    -0.0042978   -0.1605071 
   0.134483617    -0.0188283   -0.1693161     0.0007218    0.0006831     0.0004480    0.0005553    -0.0044509   -0.1609278 
   0.134583642    -0.0192421   -0.1698884     0.0005922    0.0010524     0.0003091    0.0006417    -0.0045690   -0.1609398 
   0.134683667    -0.0179456   -0.1689048     0.0003703    0.0004616     0.0003924    0.0005036    -0.0044178   -0.1608881 
   0.134783692    -0.0178495   -0.1687935     0.0005154    0.0007147     0.0004308    0.0006231    -0.0045919   -0.1604955 
   0.134883717    -0.0182980   -0.1697434     0.0008862    0.0008002     0.0007050    0.0004831    -0.0049815   -0.1602644 
   0.134983742    -0.0185744   -0.1682319     0.0003654    0.0007436     0.0004548    0.0004111    -0.0056195   -0.1604407 
   0.135083767    -0.0181044   -0.1689456     0.0005000    0.0009892     0.0004971    0.0006084    -0.0049844   -0.1607773 
   0.135183792    -0.0182440   -0.1680952     0.0006866    0.0005868     0.0007461    0.0006071    -0.0051010   -0.1605676 
   0.135283817    -0.0178369   -0.1684557     0.0003487    0.0004532     0.0004692    0.0005655    -0.0057167   -0.1608535 
   0.135383842    -0.0185744   -0.1678820     0.0004173    0.0007638     0.0002129    0.0004710    -0.0056720   -0.1605115 
   0.135483867    -0.0183374   -0.1667184     0.0004633    0.0004851     0.0004249    0.0004808    -0.0051369   -0.1607765 
   0.135583892    -0.0188233   -0.1674739     0.0006850    0.0005385     0.0005311    0.0007041    -0.0049102   -0.1605238 
   0.135683917    -0.0186098   -0.1676344     0.0003933    0.0005508     0.0006919    0.0005232    -0.0055310   -0.1606769 
   0.135783942    -0.0179828   -0.1670172     0.0008249    0.0005880     0.0006497    0.0005534    -0.0055522   -0.1605550 
   0.135883967    -0.0183548   -0.1670466     0.0003831    0.0004286     0.0007094    0.0006441    -0.0055647   -0.1602460 
   0.135983992    -0.0182935   -0.1662356     0.0002590    0.0009092     0.0004111    0.0003741    -0.0056196   -0.1606801 
   0.136084017    -0.0183855   -0.1664024     0.0004520    0.0002107     0.0003588    0.0006920    -0.0053810   -0.1603327 
   0.136184042    -0.0181192   -0.1669522     0.0006224    0.0005035     0.0005041    0.0003483    -0.0060474   -0.1606275 
   0.136284067    -0.0184106   -0.1662828     0.0003397    0.0001917     0.0005066    0.0005413    -0.0059993   -0.1599190 
   0.136384092    -0.0181837   -0.1664466     0.0006205    0.0009996     0.0004666    0.0004859    -0.0063605   -0.1599073 
   0.136484117    -0.0188730   -0.1658967     0.0003302    0.0004918     0.0003471    0.0008041    -0.0061344   -0.1602927 
   0.136584142    -0.0194109   -0.1656318     0.0005767    0.0008822     0.0004524    0.0006165    -0.0059771   -0.1600140 
   0.136684167    -0.0191575   -0.1655528     0.0007845    0.0005639     0.0005823    0.0006983    -0.0062130   -0.1598423 
   0.136784192    -0.0190669   -0.1654906     0.0004472    0.0005136     0.0004521    0.0004152    -0.0063579   -0.1597486 
   0.136884217    -0.0178867   -0.1659492     0.0004463    0.0005862     0.0006319    0.0007544    -0.0070945   -0.1599819 
   0.136984242    -0.0188263   -0.1657441     0.0004525    0.0006030     0.0004530    0.0008231    -0.0068773   -0.1599228 
   0.137084267    -0.0192223   -0.1649279     0.0003558    0.0004921     0.0005806    0.0004976    -0.0069511   -0.1598455 
   0.137184292    -0.0192367   -0.1649818     0.0007446    0.0005438     0.0003096    0.0006968    -0.0073187   -0.1597785 
   0.137284317    -0.0179067   -0.1644280     0.0004539    0.0002564     0.0004290    0.0005785    -0.0068827   -0.1592823 
   0.137384342    -0.0183493   -0.1635949     0.0007523    0.0003591     0.0004582    0.0006015    -0.0063151   -0.1596935 
   0.137484367    -0.0198281   -0.1646601     0.0005230    0.0004779     0.0005778    0.0002755    -0.0068778   -0.1599209 
   0.137584392    -0.0193516   -0.1639326     0.0005657    0.0005453     0.0006361    0.0005242    -0.0070905   -0.1594020 
   0.137684417    -0.0192235   -0.1641276     0.0004922    0.0007150     0.0005876    0.0006032    -0.0066507   -0.1592902 
   0.137784442    -0.0191436   -0.1639657     0.0004112    0.0010127     0.0006234    0.0006777    -0.0070005   -0.1592737 
   0.137884467    -0.0183443   -0.1635580     0.0005103    0.0007265     0.0005638    0.0006200    -0.0073345   -0.1600275 
   0.137984492    -0.0190843   -0.1632542     0.0001430    0.0006366     0.0006352    0.0005203    -0.0075480   -0.1595674 
   0.138084517    -0.0187887   -0.1622551     0.0007274    0.0007202     0.0005699    0.0005396    -0.0073043   -0.1592243 
   0.138184542    -0.0188077   -0.1621674     0.0004035    0.0005157     0.0007632    0.0004829    -0.0073432   -0.1593905 
   0.138284567    -0.0192830   -0.1618541     0.0005325    0.0005264     0.0006109    0.0006583    -0.0072954   -0.1592643 
   0.138384592    -0.0188681   -0.1621323     0.0009175    0.0003279     0.0007601    0.0006100    -0.0077631   -0.1591434 
   0.138484617    -0.0190552   -0.1625866     0.0004937    0.0004159     0.0005369    0.0006642    -0.0074347   -0.1592552 
   0.138584642    -0.0194823   -0.1618132     0.0004692    0.0007263     0.0004661    0.0006169    -0.0077867   -0.1594232 
   0.138684667    -0.0197041   -0.1624735     0.0004977    0.0006706     0.0003141    0.0005262    -0.0075947   -0.1590616 
   0.138784692    -0.0183747   -0.1624563     0.0002824    0.0003487     0.0005312    0.0003927    -0.0081226   -0.1595737 
   0.138884717    -0.0184711   -0.1617325     0.0001625    0.0004509     0.0002683    0.0006947    -0.0077072   -0.1589421 
   0.138984742    -0.0193817   -0.1619232     0.0005153    0.0006141     0.0004799    0.0004790    -0.0080181   -0.1590331 
   0.139084767    -0.0198726   -0.1619578     0.0004793    0.0005718     0.0006028    0.0007410    -0.0083186   -0.1588298 
   0.139184792    -0.0196685   -0.1607708     0.0006386    0.0004326     0.0004362    0.0004949    -0.0083680   -0.1592133 
   0.139284817    -0.0191176   -0.1611315     0.0006184    0.0006074     0.0005966    0.0006884    -0.0082450   -0.1585958 
   0.139384842    -0.0190831   -0.1612504     0.0003899    0.0004255     0.0006457    0.0006808    -0.0082877   -0.1589356 
   0.139484867    -0.0196523   -0.1599185     0.0006578    0.0003986     0.0007395    0.0004539    -0.0086035   -0.1587652 
   0.139584892    -0.0194363   -0.1609886     0.0005349    0.0005435     0.0007563    0.0005146    -0.0081157   -0.1585550 
   0.139684917    -0.0186364   -0.1605712     0.0005111    0.0006035     0.0006568    0.0004165    -0.0088567   -0.1592793 
   0.139784942    -0.0189614   -0.1602255     0.0007617    0.0002271     0.0002762    0.0006010    -0.0088666   -0.1591963 
   0.139884967    -0.0192628   -0.1603391     0.0004623    0.0005941     0.0005571    0.0007232    -0.0088593   -0.1587093 
   0.139984992    -0.0194730   -0.1591946     0.0005820    0.0004593     0.0004866    0.0005968    -0.0084734   -0.1588656 
   0.140085018    -0.0191019   -0.1599398     0.0006374    0.0002349     0.0006342    0.0006081    -0.0086758   -0.1585290 
   0.140185043    -0.0189629   -0.1598913     0.0007994    0.0002398     0.0008422    0.0005467    -0.0090110   -0.1582560 
   0.140285068    -0.0188848   -0.1587453     0.0003897    0.0005785     0.0003905    0.0005159    -0.0086516   -0.1585376 
   0.140385093    -0.0189451   -0.1594432     0.0002338    0.0007307     0.0007201    0.0005568    -0.0085313   -0.1584617 
   0.140485118    -0.0193381   -0.1586962     0.0005044    0.0005709     0.0005021    0.0005645    -0.0092323   -0.1579984 
   0.140585143    -0.0197158   -0.1590925     0.0007576    0.0004572     0.0005274    0.0004789    -0.0090949   -0.1582341 
   0.140685168    -0.0195165   -0.1592731     0.0004297    0.0003022     0.0005710    0.0008195    -0.0095523   -0.1583804 
   0.140785193    -0.0194002   -0.1588211     0.0005574    0.0006049     0.0005800    0.0005442    -0.0094804   -0.1579005 
   0.140885218    -0.0196911   -0.1585278     0.0004676    0.0001679     0.0006572    0.0005163    -0.0094504   -0.1579933 
   0.140985243    -0.0184977   -0.1582513     0.0005413    0.0009604     0.0005173    0.0007073    -0.0096263   -0.1583853 
   0.141085268    -0.0189715   -0.1582703     0.0004600    0.0006539     0.0008102    0.0005079    -0.0097381   -0.1584113 
   0.141185293    -0.0198169   -0.1579316     0.0005412    0.0006053     0.0004684    0.0005153    -0.0096445   -0.1576982 
   0.141285318    -0.0199703   -0.1578139     0.0007236    0.0006431     0.0004953    0.0004486    -0.0099299   -0.1578740 
   0.141385343    -0.0198230   -0.1573976     0.0008577    0.0010252     0.0005246    0.0004809    -0.0102233   -0.1581847 
   0.141485368    -0.0189501   -0.1573945     0.0002270    0.0002922     0.0007445    0.0005086    -0.0097625   -0.1583962 
   0.141585393    -0.0196804   -0.1570733     0.0006241    0.0005422     0.0007204    0.0005674    -0.0100725   -0.1577878 
   0.141685418    -0.0195999   -0.1574788     0.0000524    0.0005050     0.0005430    0.0004931    -0.0104567   -0.1576098 
   0.141785443    -0.0200355   -0.1565749     0.0005094    0.0007206     0.0006722    0.0005347    -0.0100057   -0.1573757 
   0.141885468    -0.0189419   -0.1571075     0.0005836    0.0000629     0.0006451    0.0004835    -0.0101870   -0.1577239 
   0.141985493    -0.0196155   -0.1564167     0.0005650    0.0004534     0.0004488    0.0006211    -0.0108613   -0.1580089 
   0.142085518    -0.0199212   -0.1558133     0.0004397    0.0007481     0.0005253    0.0004004    -0.0105024   -0.1579136 
   0.142185543    -0.0198331   -0.1554938     0.0006116    0.0002585     0.0005865    0.0005398    -0.0107536   -0.1577989 
   0.142285568    -0.0192505   -0.1563291    -0.0000922    0.0006726     0.0007449    0.0005219    -0.0109068   -0.1574206 
   0.142385593    -0.0193112   -0.1557344     0.0009944    0.0005401     0.0006342    0.0003991    -0.0106164   -0.1573628 
   0.142485618    -0.0199861   -0.1565073     0.0008162    0.0004300     0.0006819    0.0007289    -0.0113588   -0.1576662 
   0.142585643    -0.0195980   -0.1550207     0.0004904    0.0007030     0.0004513    0.0005218    -0.0110749   -0.1577130 
   0.142685668    -0.0194965   -0.1556856     0.0007423    0.0006161     0.0006515    0.0006139    -0.0112947   -0.1578067 
   0.142785693    -0.0196270   -0.1546935     0.0004192    0.0007640     0.0004680    0.0005057    -0.0112676   -0.1571492 
   0.142885718    -0.0194680   -0.1552161     0.0006125    0.0005930     0.0003428    0.0006431    -0.0114407   -0.1576537 
   0.142985743    -0.0196078   -0.1543305     0.0004625    0.0002806     0.0007104    0.0007007    -0.0112646   -0.1577995 
   0.143085768    -0.0188740   -0.1548015     0.0003852    0.0007728     0.0008869    0.0004475    -0.0113187   -0.1574828 
   0.143185793    -0.0194385   -0.1545928     0.0004147    0.0006060     0.0006258    0.0005116    -0.0117681   -0.1571495 
   0.143285818    -0.0193935   -0.1545424     0.0009421    0.0003176     0.0008071    0.0003305    -0.0115739   -0.1569563 
   0.143385843    -0.0196671   -0.1547052     0.0008125    0.0006247     0.0005464    0.0006079    -0.0114507   -0.1568130 
   0.143485868    -0.0198385   -0.1541699     0.0007026    0.0005107     0.0006118    0.0004615    -0.0111197   -0.1568195 
   0.143585893    -0.0197009   -0.1537126     0.0004709    0.0004250     0.0004121    0.0005684    -0.0124317   -0.1568829 
   0.143685918    -0.0195370   -0.1531618     0.0008145    0.0007859     0.0005902    0.0005752    -0.0120104   -0.1571714 
   0.143785943    -0.0197476   -0.1534438     0.0003967    0.0006932     0.0005523    0.0006600    -0.0121068   -0.1572453 
   0.143885968    -0.0197552   -0.1540493     0.0005910    0.0007305     0.0004937    0.0003857    -0.0117448   -0.1571754 
   0.143985993    -0.0196878   -0.1528794     0.0006620    0.0008700     0.0006243    0.0006205    -0.0119029   -0.1571836 
   0.144086018    -0.0199542   -0.1530350     0.0003627    0.0002404     0.0004483    0.0003809    -0.0120660   -0.1566544 
   0.144186043    -0.0203203   -0.1532953     0.0002165    0.0002453     0.0003866    0.0006028    -0.0131050   -0.1567831 
   0.144286068    -0.0195889   -0.1528931     0.0002814    0.0003160     0.0005028    0.0003060    -0.0124141   -0.1568170 
   0.144386093    -0.0194856   -0.1529259     0.0006446    0.0006256     0.0006364    0.0005336    -0.0121313   -0.1573381 
   0.144486118    -0.0195066   -0.1533794     0.0007848    0.0002916     0.0006913    0.0003934    -0.0124547   -0.1569602 
   0.144586143    -0.0198935   -0.1525904     0.0008093    0.0003291     0.0008414    0.0005051    -0.0129002   -0.1564816 
   0.144686168    -0.0189529   -0.1515851     0.0003645    0.0006753     0.0004955    0.0005379    -0.0122094   -0.1563987 
   0.144786193    -0.0191772   -0.1515801     0.0001036    0.0006118     0.0006308    0.0005370    -0.0125949   -0.1563540 
   0.144886218    -0.0202851   -0.1513268     0.0006685    0.0005271     0.0005401    0.0006598    -0.0123550   -0.1566511 
   0.144986243    -0.0194381   -0.1512917     0.0001156    0.0007081     0.0006274    0.0005502    -0.0127655   -0.1565516 
   0.145086268    -0.0191736   -0.1516576     0.0004010    0.0006188     0.0005247    0.0005250    -0.0126520   -0.1565680 
   0.145186293    -0.0201355   -0.1507943     0.0012737    0.0006537     0.0005765    0.0006398    -0.0131528   -0.1566848 
   0.145286318    -0.0198194   -0.1509399     0.0003555    0.0005378     0.0005960    0.0006273    -0.0124280   -0.1565069 
   0.145386343    -0.0203016   -0.1512646     0.0007736    0.0006177     0.0006615    0.0006671    -0.0130929   -0.1560786 
   0.145486368    -0.0202767   -0.1505207     0.0002602    0.0009057     0.0006256    0.0007093    -0.0132450   -0.1558515 
   0.145586393    -0.0189390   -0.1505038     0.0006954    0.0005465     0.0006865    0.0005231    -0.0130735   -0.1562043 
   0.145686418    -0.0191360   -0.1509746     0.0009462    0.0009504     0.0009015    0.0004488    -0.0135720   -0.1562929 
   0.145786443    -0.0195184   -0.1497872     0.0002302    0.0002343     0.0007207    0.0005307    -0.0134375   -0.1559893 
   0.145886468    -0.0192872   -0.1503793     0.0007544    0.0008771     0.0006901    0.0005870    -0.0138857   -0.1565206 
   0.145986493    -0.0199839   -0.1500535     0.0004544    0.0003769     0.0006745    0.0002852    -0.0136852   -0.1556273 
   0.146086518    -0.0198089   -0.1502725     0.0006398    0.0003891     0.0005026    0.0005166    -0.0138947   -0.1560165 
   0.146186543    -0.0201933   -0.1500184     0.0006038    0.0003744     0.0007339    0.0003927    -0.0136419   -0.1558575 
   0.146286568    -0.0208821   -0.1494016     0.0007349    0.0005150     0.0005813    0.0005262    -0.0136930   -0.1561518 
   0.146386593    -0.0198349   -0.1498343     0.0003659    0.0003602     0.0005655    0.0002672    -0.0140522   -0.1562130 
   0.146486618    -0.0203294   -0.1492456     0.0004776    0.0006880     0.0005177    0.0004466    -0.0141307   -0.1564471 
   0.146586643    -0.0197634   -0.1489869     0.0002613    0.0007337     0.0005695    0.0005813    -0.0142710   -0.1555260 
   0.146686668    -0.0187498   -0.1491238     0.0007345    0.0006748     0.0006165    0.0005185    -0.0146678   -0.1559812 
   0.146786693    -0.0202797   -0.1489875     0.0005727    0.0003173     0.0007803    0.0005503    -0.0140284   -0.1559536 
   0.146886718    -0.0196550   -0.1483467     0.0009761    0.0004919     0.0005603    0.0005026    -0.0143170   -0.1552588 
   0.146986743    -0.0194761   -0.1479754     0.0010119    0.0008677     0.0007070    0.0005937    -0.0146301   -0.1554590 
   0.147086768    -0.0201772   -0.1480691     0.0004674    0.0006221     0.0005099    0.0005682    -0.0146394   -0.1557638 
   0.147186793    -0.0195331   -0.1486991     0.0006404    0.0002528     0.0007570    0.0005534    -0.0149888   -0.1555755 
   0.147286818    -0.0193639   -0.1477022     0.0010774    0.0003418     0.0006435    0.0008431    -0.0147208   -0.1556943 
   0.147386843    -0.0195811   -0.1477954     0.0006692    0.0006012     0.0007538    0.0005789    -0.0144474   -0.1561607 
   0.147486868    -0.0197020   -0.1477166     0.0009802    0.0003543     0.0004345    0.0004809    -0.0145893   -0.1555408 
   0.147586893    -0.0207382   -0.1471561     0.0007484    0.0005963     0.0008127    0.0005261    -0.0150165   -0.1551085 
   0.147686918    -0.0204464   -0.1468513     0.0007534    0.0005282     0.0006251    0.0006114    -0.0150463   -0.1557302 
   0.147786943    -0.0199215   -0.1471298     0.0009753    0.0004776     0.0005351    0.0006927    -0.0149729   -0.1551393 
   0.147886968    -0.0199736   -0.1470594     0.0003982    0.0001404     0.0005648    0.0005982    -0.0147725   -0.1551553 
   0.147986993    -0.0197777   -0.1470767     0.0007748    0.0004680     0.0007457    0.0005910    -0.0156652   -0.1549956 
   0.148087019    -0.0204087   -0.1470094     0.0006453    0.0007193     0.0005443    0.0005095    -0.0151450   -0.1552549 
   0.148187044    -0.0200682   -0.1473640     0.0007859    0.0007758     0.0006894    0.0005329    -0.0154442   -0.1555274 
   0.148287069    -0.0194976   -0.1477860     0.0010825    0.0001093     0.0004853    0.0007808    -0.0155495   -0.1551541 
   0.148387094    -0.0189647   -0.1462485     0.0005767    0.0008462     0.0005496    0.0007849    -0.0154312   -0.1550465 
   0.148487119    -0.0201595   -0.1467041     0.0010773    0.0009353     0.0006903    0.0004363    -0.0158700   -0.1552249 
   0.148587144    -0.0193618   -0.1462267     0.0006733    0.0004037     0.0004416    0.0005803    -0.0154771   -0.1556828 
   0.148687169    -0.0196600   -0.1456611     0.0007463    0.0008103     0.0006966    0.0005233    -0.0159935   -0.1547881 
   0.148787194    -0.0193457   -0.1455260     0.0009658    0.0000174     0.0005775    0.0004197    -0.0159559   -0.1549626 
   0.148887219    -0.0197045   -0.1450157     0.0007062    0.0003966     0.0004711    0.0008754    -0.0159770   -0.1549036 
   0.148987244    -0.0196070   -0.1449481     0.0005716    0.0007968     0.0005159    0.0003934    -0.0156198   -0.1551877 
   0.149087269    -0.0193355   -0.1447830     0.0004677    0.0007045     0.0006803    0.0002744    -0.0157062   -0.1546439 
   0.149187294    -0.0192048   -0.1450615     0.0007844    0.0006200     0.0004229    0.0005677    -0.0161638   -0.1553273 
   0.149287319    -0.0198180   -0.1449204     0.0007411    0.0006138     0.0006008    0.0005240    -0.0169390   -0.1553579 
   0.149387344    -0.0196966   -0.1442606     0.0005072    0.0004570     0.0004944    0.0004094    -0.0161981   -0.1551257 
   0.149487369    -0.0203414   -0.1447753     0.0007478    0.0005853     0.0004353    0.0005794    -0.0163571   -0.1552770 
   0.149587394    -0.0205516   -0.1440738     0.0008388    0.0006141     0.0006099    0.0004932    -0.0164323   -0.1551132 
   0.149687419    -0.0198460   -0.1443449     0.0005378    0.0005131     0.0005288    0.0006439    -0.0163409   -0.1550052 
   0.149787444    -0.0200926   -0.1435809     0.0006192    0.0006485     0.0005398    0.0005643    -0.0169673   -0.1541576 
   0.149887469    -0.0200832   -0.1442703     0.0007449    0.0007950     0.0006628    0.0003690    -0.0165395   -0.1548635 
   0.149987494    -0.0190925   -0.1444015     0.0008334    0.0003377     0.0008020    0.0005547    -0.0163894   -0.1545233 
   0.150087519    -0.0201125   -0.1438805     0.0009415    0.0007082     0.0005501    0.0006286    -0.0166067   -0.1546080 
   0.150187544    -0.0189374   -0.1434904     0.0008111    0.0006503     0.0006888    0.0005525    -0.0168737   -0.1544369 
   0.150287569    -0.0200677   -0.1437696     0.0003941    0.0004994     0.0008511    0.0008231    -0.0167453   -0.1540443 
   0.150387594    -0.0203828   -0.1431029     0.0005598    0.0006417     0.0005156    0.0006398    -0.0171459   -0.1544868 
   0.150487619    -0.0200180   -0.1419797     0.0005577    0.0005255     0.0006022    0.0004343    -0.0170605   -0.1546526 
   0.150587644    -0.0195943   -0.1430470     0.0011303    0.0003376     0.0006209    0.0005632    -0.0170501   -0.1544167 
   0.150687669    -0.0200480   -0.1425107     0.0010197    0.0006747     0.0006210    0.0007094    -0.0171811   -0.1548194 
   0.150787694    -0.0195384   -0.1426747     0.0006659    0.0003140     0.0006691    0.0004764    -0.0172385   -0.1544890 
   0.150887719    -0.0201462   -0.1423877     0.0006170    0.0006255     0.0006509    0.0005369    -0.0169849   -0.1540245 
   0.150987744    -0.0188140   -0.1417909     0.0005827    0.0007280     0.0007745    0.0005504    -0.0174802   -0.1545950 
   0.151087769    -0.0200023   -0.1417420     0.0005518    0.0003894     0.0006063    0.0004687    -0.0179789   -0.1537973 
   0.151187794    -0.0198630   -0.1419172     0.0005930    0.0002672     0.0006828    0.0003999    -0.0179628   -0.1543798 
   0.151287819    -0.0200470   -0.1415916     0.0003460    0.0007049     0.0004910    0.0007436    -0.0172262   -0.1541476 
   0.151387844    -0.0196820   -0.1413542     0.0008317    0.0010064     0.0006489    0.0003134    -0.0175361   -0.1536902 
   0.151487869    -0.0198219   -0.1410528     0.0005952    0.0002907     0.0005931    0.0004341    -0.0175853   -0.1540329 
   0.151587894    -0.0207802   -0.1418324     0.0009427    0.0004176     0.0007779    0.0005759    -0.0176106   -0.1541502 
   0.151687919    -0.0206781   -0.1413997     0.0005909    0.0006276     0.0007683    0.0005551    -0.0174783   -0.1530053 
   0.151787944    -0.0198132   -0.1406564     0.0006843    0.0003542     0.0004638    0.0006227    -0.0180141   -0.1537708 
   0.151887969    -0.0194310   -0.1404252     0.0006477    0.0003394     0.0006733    0.0004132    -0.0181839   -0.1542741 
   0.151987994    -0.0201147   -0.1411679     0.0009843    0.0005527     0.0004849    0.0007384    -0.0180403   -0.1533229 
   0.152088019    -0.0201805   -0.1412381     0.0008196    0.0003761     0.0006328    0.0007385    -0.0184123   -0.1537628 
   0.152188044    -0.0203132   -0.1410420     0.0011571    0.0009376     0.0006520    0.0006052    -0.0183056   -0.1532612 
   0.152288069    -0.0196570   -0.1407482     0.0003914    0.0006390     0.0005797    0.0005499    -0.0183274   -0.1533094 
   0.152388094    -0.0195422   -0.1405978     0.0007816    0.0005780     0.0006946    0.0003837    -0.0184391   -0.1537274 
   0.152488119    -0.0194521   -0.1398187     0.0006286    0.0001063     0.0005515    0.0006484    -0.0189466   -0.1535322 
   0.152588144    -0.0199597   -0.1400895     0.0007586    0.0004212     0.0008541    0.0004112    -0.0183037   -0.1533635 
   0.152688169    -0.0199491   -0.1398087     0.0006145    0.0005842     0.0008050    0.0003661    -0.0187460   -0.1541527 
   0.152788194    -0.0204101   -0.1395205     0.0007322    0.0007909     0.0006873    0.0005147    -0.0183242   -0.1534506 
   0.152888219    -0.0197473   -0.1401111     0.0006159    0.0005435     0.0008400    0.0007577    -0.0192296   -0.1532306 
   0.152988244    -0.0196418   -0.1388618     0.0006223    0.0003699     0.0005130    0.0005880    -0.0190999   -0.1539173 
   0.153088269    -0.0197117   -0.1387782     0.0009118    0.0006460     0.0006223    0.0005264    -0.0185561   -0.1529442 
   0.153188294    -0.0193602   -0.1384669     0.0008926    0.0007056     0.0004754    0.0003316    -0.0190518   -0.1530610 
   0.153288319    -0.0189792   -0.1391543     0.0007048    0.0003440     0.0006648    0.0008007    -0.0187561   -0.1532997 
   0.153388344    -0.0193830   -0.1393874     0.0007437    0.0004963     0.0007093    0.0003716    -0.0190631   -0.1527550 
   0.153488369    -0.0191311   -0.1379573     0.0006276    0.0005537     0.0005561    0.0004473    -0.0189114   -0.1526110 
   0.153588394    -0.0205301   -0.1383195     0.0009385    0.0004973     0.0007492    0.0005992    -0.0191984   -0.1529603 
   0.153688419    -0.0190651   -0.1379629     0.0008284    0.0004317     0.0006193    0.0004725    -0.0196521   -0.1525793 
   0.153788444    -0.0192690   -0.1372435     0.0006448    0.0005192     0.0010363    0.0005275    -0.0201167   -0.1527219 
   0.153888469    -0.0197080   -0.1381122     0.0004032    0.0004555     0.0008032    0.0006011    -0.0197671   -0.1530121 
   0.153988494    -0.0192576   -0.1378722     0.0000885    0.0004513     0.0004860    0.0004903    -0.0193832   -0.1527455 
   0.154088519    -0.0206633   -0.1382179     0.0006783    0.0006257     0.0008641    0.0004968    -0.0202117   -0.1524201 
   0.154188544    -0.0185823   -0.1372774     0.0006024    0.0004642     0.0007881    0.0005859    -0.0196363   -0.1530390 
   0.154288569    -0.0199369   -0.1367738     0.0009117    0.0005738     0.0006402    0.0007153    -0.0198689   -0.1530625 
   0.154388594    -0.0191824   -0.1368691     0.0006531    0.0004312     0.0006493    0.0003916    -0.0196773   -0.1523056 
   0.154488619    -0.0200304   -0.1367281     0.0005209    0.0008455     0.0007356    0.0008914    -0.0200516   -0.1532072 
   0.154588644    -0.0199935   -0.1366812     0.0009759    0.0004144     0.0005596    0.0004671    -0.0201491   -0.1523896 
   0.154688669    -0.0196768   -0.1371833     0.0007141    0.0009144     0.0007216    0.0005743    -0.0197447   -0.1525226 
   0.154788694    -0.0196694   -0.1368382     0.0010053    0.0006724     0.0006497    0.0005569    -0.0204982   -0.1526123 
   0.154888719    -0.0200850   -0.1363430     0.0004893    0.0003935     0.0005740    0.0006115    -0.0199719   -0.1528483 
   0.154988744    -0.0190059   -0.1352299     0.0009207    0.0006183     0.0007914    0.0005739    -0.0204253   -0.1526618 
   0.155088769    -0.0197331   -0.1356600     0.0007580    0.0006084     0.0007052    0.0004195    -0.0203704   -0.1526261 
   0.155188794    -0.0198025   -0.1356136     0.0012195    0.0010433     0.0006184    0.0006846    -0.0207870   -0.1525873 
   0.155288819    -0.0190763   -0.1352665     0.0003747    0.0003969     0.0006760    0.0006281    -0.0208867   -0.1521861 
   0.155388844    -0.0192195   -0.1353399     0.0007597    0.0003242     0.0008373    0.0005879    -0.0207277   -0.1523466 
   0.155488869    -0.0194543   -0.1345592     0.0008859    0.0003387     0.0008257    0.0003368    -0.0208455   -0.1523306 
   0.155588894    -0.0203331   -0.1351736     0.0006819    0.0003102     0.0005868    0.0004589    -0.0207619   -0.1521369 
   0.155688919    -0.0199412   -0.1351775     0.0006180    0.0002920     0.0008506    0.0006297    -0.0209261   -0.1515053 
   0.155788944    -0.0190751   -0.1352883     0.0004819    0.0004484     0.0007555    0.0004702    -0.0204163   -0.1521690 
   0.155888969    -0.0200174   -0.1353592     0.0010155    0.0005563     0.0006283    0.0004720    -0.0213628   -0.1517133 
   0.155988994    -0.0201361   -0.1349063     0.0007422    0.0004771     0.0005393    0.0003725    -0.0214024   -0.1525611 
   0.156089020    -0.0198504   -0.1344536     0.0007468    0.0003858     0.0005941    0.0006473    -0.0216157   -0.1516220 
   0.156189045    -0.0197030   -0.1344395     0.0008493    0.0007160     0.0008914    0.0003601    -0.0206938   -0.1522478 
   0.156289070    -0.0198158   -0.1345027     0.0008468    0.0005947     0.0006253    0.0004334    -0.0214992   -0.1516154 
   0.156389095    -0.0200644   -0.1338552     0.0007186    0.0006542     0.0006698    0.0007467    -0.0214013   -0.1524892 
   0.156489120    -0.0198570   -0.1343142     0.0009396    0.0006383     0.0006877    0.0006533    -0.0212533   -0.1519746 
   0.156589145    -0.0194488   -0.1343847     0.0009409    0.0006160     0.0005138    0.0004606    -0.0211866   -0.1521186 
   0.156689170    -0.0197857   -0.1340540     0.0010123    0.0005672     0.0008477    0.0004263    -0.0217177   -0.1511561 
   0.156789195    -0.0202208   -0.1346145     0.0009313    0.0008322     0.0006940    0.0005061    -0.0216335   -0.1516801 
   0.156889220    -0.0191534   -0.1337303     0.0006458    0.0004833     0.0009017    0.0004396    -0.0219793   -0.1516051 
   0.156989245    -0.0195099   -0.1332642     0.0005839    0.0006454     0.0009510    0.0004577    -0.0221082   -0.1515505 
   0.157089270    -0.0206527   -0.1325648     0.0005775    0.0005911     0.0006860    0.0005816    -0.0226848   -0.1520078 
   0.157189295    -0.0197964   -0.1331502     0.0008794    0.0007822     0.0005544    0.0005306    -0.0222606   -0.1512352 
   0.157289320    -0.0201303   -0.1330310     0.0004558    0.0008351     0.0009226    0.0008280    -0.0220433   -0.1516085 
   0.157389345    -0.0192164   -0.1327998     0.0010772    0.0005793     0.0009972    0.0003747    -0.0225544   -0.1513455 
   0.157489370    -0.0198566   -0.1323651     0.0007603    0.0004150     0.0007140    0.0005973    -0.0218533   -0.1507459 
   0.157589395    -0.0203125   -0.1325683     0.0004324    0.0004541     0.0006491    0.0004126    -0.0219861   -0.1518534 
   0.157689420    -0.0192855   -0.1329056     0.0007593    0.0007267     0.0008478    0.0007766    -0.0223522   -0.1514198 
   0.157789445    -0.0189764   -0.1329164     0.0008507    0.0002391     0.0006965    0.0005657    -0.0223806   -0.1512405 
   0.157889470    -0.0191067   -0.1321540     0.0010035    0.0006084     0.0007694    0.0005423    -0.0223662   -0.1515436 
   0.157989495    -0.0192470   -0.1320548     0.0007207    0.0004292     0.0007534    0.0005014    -0.0232505   -0.1509208 
   0.158089520    -0.0196770   -0.1316693     0.0007242    0.0004088     0.0005330    0.0006240    -0.0222354   -0.1512989 
   0.158189545    -0.0189728   -0.1316177     0.0006813    0.0004133     0.0007295    0.0004972    -0.0225613   -0.1505023 
   0.158289570    -0.0191514   -0.1319024     0.0008062    0.0007185     0.0008627    0.0005783    -0.0225230   -0.1513399 
   0.158389595    -0.0192488   -0.1313348     0.0006727    0.0004259     0.0008720    0.0004870    -0.0226486   -0.1513305 
   0.158489620    -0.0197437   -0.1302231     0.0006183    0.0005061     0.0007974    0.0004010    -0.0238345   -0.1508544 
   0.158589645    -0.0199059   -0.1308342     0.0008832    0.0006737     0.0010213    0.0007006    -0.0231378   -0.1510190 
   0.158689670    -0.0196308   -0.1309571     0.0007991    0.0003462     0.0007215    0.0004516    -0.0227749   -0.1509116 
   0.158789695    -0.0193523   -0.1301448     0.0007907    0.0003184     0.0006565    0.0005624    -0.0229853   -0.1508973 
   0.158889720    -0.0195450   -0.1305708     0.0007886    0.0003640     0.0008058    0.0006132    -0.0230584   -0.1509428 
   0.158989745    -0.0195360   -0.1298113     0.0010707    0.0004250     0.0006205    0.0004839    -0.0234462   -0.1507010 
   0.159089770    -0.0184403   -0.1299814     0.0006044    0.0005011     0.0006933    0.0006448    -0.0230585   -0.1503797 
   0.159189795    -0.0203202   -0.1301712     0.0004317    0.0003565     0.0008846    0.0004308    -0.0235536   -0.1504950 
   0.159289820    -0.0189748   -0.1305255     0.0009677    0.0001820     0.0007067    0.0005657    -0.0235822   -0.1502140 
   0.159389845    -0.0195131   -0.1295113     0.0007892    0.0002543     0.0008345    0.0005207    -0.0235919   -0.1506438 
   0.159489870    -0.0195012   -0.1294944     0.0005812    0.0005399     0.0006210    0.0005622    -0.0235660   -0.1507088 
   0.159589895    -0.0183872   -0.1291453     0.0004921    0.0002385     0.0008960    0.0004404    -0.0239558   -0.1505816 
   0.159689920    -0.0193845   -0.1292791     0.0004660    0.0004531     0.0006549    0.0006166    -0.0242601   -0.1506864 
   0.159789945    -0.0192999   -0.1298925     0.0004576    0.0007520     0.0007139    0.0005350    -0.0239224   -0.1503794 
   0.159889970    -0.0190006   -0.1296868     0.0010140    0.0004505     0.0006529    0.0003910    -0.0235062   -0.1500612 
   0.159989995    -0.0198581   -0.1291922     0.0010680    0.0001205     0.0008225    0.0005509    -0.0243812   -0.1501163 
   0.160090020    -0.0193509   -0.1283324     0.0009385    0.0004878     0.0008196    0.0005990    -0.0242934   -0.1502110 
   0.160190045    -0.0193732   -0.1280947     0.0006613    0.0005589     0.0008653    0.0007013    -0.0240507   -0.1502735 
   0.160290070    -0.0197904   -0.1287254     0.0009316    0.0004262     0.0004304    0.0005145    -0.0243541   -0.1502700 
   0.160390095    -0.0191530   -0.1282077     0.0005815    0.0005652     0.0008889    0.0005774    -0.0239835   -0.1501913 
   0.160490120    -0.0195388   -0.1281590     0.0005081    0.0008982     0.0005966    0.0004566    -0.0247879   -0.1500089 
   0.160590145    -0.0190418   -0.1284090     0.0006091    0.0005515     0.0005058    0.0005413    -0.0244442   -0.1499369 
   0.160690170    -0.0190845   -0.1273196     0.0004607    0.0006826     0.0008256    0.0004704    -0.0251242   -0.1503607 
   0.160790195    -0.0201321   -0.1273851     0.0005277    0.0006804     0.0005331    0.0006117    -0.0242552   -0.1501130 
   0.160890220    -0.0187418   -0.1279502     0.0003269    0.0005529     0.0009351    0.0003945    -0.0245728   -0.1496862 
   0.160990245    -0.0185500   -0.1283569     0.0005634    0.0005181     0.0007960    0.0004971    -0.0245497   -0.1495957 
   0.161090270    -0.0200408   -0.1282801     0.0003781    0.0007293     0.0005664    0.0005424    -0.0247655   -0.1494043 
   0.161190295    -0.0192423   -0.1267742     0.0009173    0.0004855     0.0009291    0.0006620    -0.0255011   -0.1493928 
   0.161290320    -0.0183173   -0.1276799     0.0008431    0.0008204     0.0007223    0.0002247    -0.0251242   -0.1500512 
   0.161390345    -0.0198274   -0.1269287     0.0010108    0.0004208     0.0008778    0.0004837    -0.0252245   -0.1495539 
   0.161490370    -0.0186466   -0.1268730     0.0007461    0.0004225     0.0006102    0.0005689    -0.0252458   -0.1496224 
   0.161590395    -0.0196051   -0.1262038     0.0010450    0.0008120     0.0007704    0.0005934    -0.0251128   -0.1504164 
   0.161690420    -0.0190359   -0.1267354     0.0008864    0.0007446     0.0009034    0.0003931    -0.0250497   -0.1501202 
   0.161790445    -0.0184688   -0.1247398     0.0009168    0.0004485     0.0006735    0.0004200    -0.0251076   -0.1496852 
   0.161890470    -0.0192411   -0.1263904     0.0009271    0.0004185     0.0006146    0.0006339    -0.0255829   -0.1496230 
   0.161990495    -0.0192416   -0.1263431     0.0008453    0.0005906     0.0005973    0.0006598    -0.0256130   -0.1492875 
   0.162090520    -0.0195193   -0.1262653     0.0005723    0.0007556     0.0007008    0.0004283    -0.0253193   -0.1495198 
   0.162190545    -0.0194022   -0.1262887     0.0010389    0.0004345     0.0008212    0.0003804    -0.0259475   -0.1494916 
   0.162290570    -0.0198261   -0.1256238     0.0006254    0.0004858     0.0007534    0.0005928    -0.0258460   -0.1494164 
   0.162390595    -0.0184071   -0.1263418     0.0005994    0.0000389     0.0009398    0.0005349    -0.0260842   -0.1496827 
   0.162490620    -0.0182409   -0.1258212     0.0010548    0.0008045     0.0009270    0.0005737    -0.0262143   -0.1490068 
   0.162590645    -0.0189382   -0.1251940     0.0009843    0.0005859     0.0007476    0.0005367    -0.0264528   -0.1495606 
   0.162690670    -0.0187556   -0.1253337     0.0007260    0.0007597     0.0006996    0.0006662    -0.0260870   -0.1492059 
   0.162790695    -0.0185040   -0.1252564     0.0008004    0.0007626     0.0007017    0.0004768    -0.0257674   -0.1491544 
   0.162890720    -0.0183855   -0.1251789     0.0007685    0.0006419     0.0008384    0.0004934    -0.0264796   -0.1488034 
   0.162990745    -0.0182480   -0.1251360     0.0008185    0.0007003     0.0007261    0.0004980    -0.0264204   -0.1490639 
   0.163090770    -0.0186098   -0.1243065     0.0008414    0.0001990     0.0007094    0.0004551    -0.0270910   -0.1490589 
   0.163190795    -0.0185529   -0.1249021     0.0008941    0.0001900     0.0007979    0.0004989    -0.0259852   -0.1491358 
   0.163290820    -0.0190273   -0.1237706     0.0004908    0.0005938     0.0008943    0.0002352    -0.0271542   -0.1493269 
   0.163390845    -0.0194220   -0.1253547     0.0005816    0.0008000     0.0008749    0.0006754    -0.0267425   -0.1494133 
   0.163490870    -0.0195642   -0.1244669     0.0008601    0.0004872     0.0008754    0.0004738    -0.0263088   -0.1487369 
   0.163590895    -0.0183978   -0.1245202     0.0007457    0.0005916     0.0004952    0.0005290    -0.0270979   -0.1491282 
   0.163690920    -0.0181567   -0.1240176     0.0011030    0.0003122     0.0008668    0.0004475    -0.0268592   -0.1487281 
   0.163790945    -0.0184817   -0.1234132     0.0006724    0.0006166     0.0008923    0.0003715    -0.0263917   -0.1484009 
   0.163890970    -0.0188651   -0.1234104     0.0008903    0.0007608     0.0008839    0.0007312    -0.0265504   -0.1485339 
   0.163990995    -0.0190044   -0.1235139     0.0010129    0.0006235     0.0006494    0.0006186    -0.0265047   -0.1483792 
   0.164091021    -0.0189083   -0.1237594     0.0010324    0.0003053     0.0009830    0.0006482    -0.0268284   -0.1488644 
   0.164191046    -0.0182500   -0.1233108     0.0005524    0.0004401     0.0008530    0.0005565    -0.0274317   -0.1478205 
   0.164291071    -0.0185398   -0.1225066     0.0006142    0.0004237     0.0008672    0.0005288    -0.0273530   -0.1483536 
   0.164391096    -0.0191525   -0.1228911     0.0012738    0.0004668     0.0007266    0.0002508    -0.0276242   -0.1477977 
   0.164491121    -0.0187257   -0.1234156     0.0011231    0.0005445     0.0008696    0.0002948    -0.0274669   -0.1480905 
   0.164591146    -0.0185391   -0.1227453     0.0008602    0.0005008     0.0008158    0.0004305    -0.0275024   -0.1485290 
   0.164691171    -0.0186750   -0.1227342     0.0005580    0.0003354     0.0011566    0.0003996    -0.0279458   -0.1488528 
   0.164791196    -0.0186342   -0.1222103     0.0010528    0.0003107     0.0007077    0.0006742    -0.0276150   -0.1483870 
   0.164891221    -0.0196480   -0.1231567     0.0007082    0.0003057     0.0007198    0.0004977    -0.0280811   -0.1485331 
   0.164991246    -0.0182058   -0.1223072     0.0006421    0.0003605     0.0006784    0.0004591    -0.0276215   -0.1479724 
   0.165091271    -0.0191816   -0.1226911     0.0008308    0.0006915     0.0008635    0.0006065    -0.0277763   -0.1480964 
   0.165191296    -0.0194042   -0.1220201     0.0005069    0.0003339     0.0008367    0.0005899    -0.0278893   -0.1481089 
   0.165291321    -0.0185171   -0.1222225     0.0006278    0.0004580     0.0008486    0.0004951    -0.0278809   -0.1479769 
   0.165391346    -0.0192029   -0.1221678     0.0005041    0.0001636     0.0008044    0.0005433    -0.0284270   -0.1485129 
   0.165491371    -0.0197005   -0.1214919     0.0010864    0.0005680     0.0007663    0.0005933    -0.0286982   -0.1477299 
   0.165591396    -0.0185519   -0.1211833     0.0006221    0.0005718     0.0008881    0.0004010    -0.0284356   -0.1477188 
   0.165691421    -0.0189062   -0.1214795     0.0010246    0.0005075     0.0007435    0.0003530    -0.0286066   -0.1479839 
   0.165791446    -0.0184605   -0.1206734     0.0010607    0.0005157     0.0007674    0.0006418    -0.0284350   -0.1482208 
   0.165891471    -0.0192390   -0.1211956     0.0006786    0.0005176     0.0006823    0.0007117    -0.0267850   -0.1481857 
   0.165991496    -0.0187897   -0.1208660     0.0007495    0.0005775     0.0008414    0.0004766    -0.0284352   -0.1481928 
   0.166091521    -0.0180503   -0.1206716     0.0006472    0.0008407     0.0009050    0.0003767    -0.0289997   -0.1477320 
   0.166191546    -0.0179839   -0.1204237     0.0009526    0.0002757     0.0007817    0.0004701    -0.0286163   -0.1477446 
   0.166291571    -0.0179330   -0.1195564     0.0008426    0.0002924     0.0008463    0.0007005    -0.0289076   -0.1471817 
   0.166391596    -0.0181221   -0.1207583     0.0006561    0.0007101     0.0008850    0.0004940    -0.0293315   -0.1474100 
   0.166491621    -0.0183112   -0.1211477     0.0009065    0.0003285     0.0008479    0.0006412    -0.0289364   -0.1475794 
   0.166591646    -0.0181087   -0.1208029     0.0009754    0.0006269     0.0008648    0.0005500    -0.0291485   -0.1468807 
   0.166691671    -0.0186892   -0.1196906     0.0007639    0.0004814     0.0009100    0.0003398    -0.0295310   -0.1472627 
   0.166791696    -0.0182138   -0.1200822     0.0010949    0.0003227     0.0007288    0.0005396    -0.0294000   -0.1469630 
   0.166891721    -0.0186089   -0.1187867     0.0007006    0.0007027     0.0007593    0.0004678    -0.0289992   -0.1467152 
   0.166991746    -0.0176369   -0.1190481     0.0007535    0.0002758     0.0007281    0.0003932    -0.0295370   -0.1479125 
   0.167091771    -0.0192988   -0.1201087     0.0007442    0.0003789     0.0009467    0.0004711    -0.0300177   -0.1473483 
   0.167191796    -0.0188037   -0.1193196     0.0005691    0.0003964     0.0008558    0.0005109    -0.0294953   -0.1471609 
   0.167291821    -0.0185154   -0.1191943     0.0010534    0.0002705     0.0009284    0.0004405    -0.0293538   -0.1472412 
   0.167391846    -0.0174714   -0.1196156     0.0007552    0.0003560     0.0009917    0.0005592    -0.0297121   -0.1472067 
   0.167491871    -0.0178223   -0.1189007     0.0011092    0.0006285     0.0007232    0.0004115    -0.0297136   -0.1474478 
   0.167591896    -0.0185970   -0.1190993     0.0009749    0.0004510     0.0008331    0.0004030    -0.0305245   -0.1468498 
   0.167691921    -0.0178927   -0.1187325     0.0007035    0.0009117     0.0007535    0.0004178    -0.0297846   -0.1476690 
   0.167791946    -0.0174556   -0.1182655     0.0008453    0.0006602     0.0007708    0.0004871    -0.0300453   -0.1474783 
   0.167891971    -0.0187445   -0.1186467     0.0010303    0.0002305     0.0007871    0.0003934    -0.0299291   -0.1473347 
   0.167991996    -0.0184020   -0.1186263     0.0007774    0.0002771     0.0009124    0.0006142    -0.0298452   -0.1467795 
   0.168092021    -0.0175648   -0.1181200     0.0005026    0.0004527     0.0009498    0.0004798    -0.0305536   -0.1464446 
   0.168192046    -0.0174552   -0.1184995     0.0008554    0.0002689     0.0006738    0.0004220    -0.0305077   -0.1467996 
   0.168292071    -0.0179286   -0.1180191     0.0009244    0.0003100     0.0007778    0.0002826    -0.0300676   -0.1469995 
   0.168392096    -0.0185676   -0.1175629     0.0008160    0.0005319     0.0009759    0.0005944    -0.0304872   -0.1473114 
   0.168492121    -0.0170311   -0.1175002     0.0008578    0.0006405     0.0007356    0.0006217    -0.0296703   -0.1472916 
   0.168592146    -0.0187820   -0.1173052     0.0005022    0.0005025     0.0008908    0.0002856    -0.0301674   -0.1468734 
   0.168692171    -0.0179343   -0.1171861     0.0008399    0.0008314     0.0007328    0.0003390    -0.0314814   -0.1463526 
   0.168792196    -0.0179548   -0.1171510     0.0006648    0.0004212     0.0008453    0.0004208    -0.0300635   -0.1461535 
   0.168892221    -0.0178213   -0.1166527     0.0007461    0.0003303     0.0009020    0.0003709    -0.0304461   -0.1460660 
   0.168992246    -0.0189501   -0.1165573     0.0009964    0.0006674     0.0005680    0.0003275    -0.0303731   -0.1459686 
   0.169092271    -0.0183825   -0.1169895     0.0010512    0.0010172     0.0007291    0.0004533    -0.0310624   -0.1461100 
   0.169192296    -0.0182923   -0.1166268     0.0010583    0.0005693     0.0008177    0.0004340    -0.0318558   -0.1461418 
   0.169292321    -0.0181547   -0.1168747     0.0005010    0.0004450     0.0008631    0.0003943    -0.0305810   -0.1458666 
   0.169392346    -0.0181957   -0.1168592     0.0008592    0.0003458     0.0009956    0.0005381    -0.0309584   -0.1458907 
   0.169492371    -0.0177860   -0.1163602     0.0007630    0.0005152     0.0007744    0.0005687    -0.0307153   -0.1462584 
   0.169592396    -0.0173622   -0.1162542     0.0005831    0.0004539     0.0007729    0.0005173    -0.0306613   -0.1464170 
   0.169692421    -0.0177214   -0.1160106     0.0008614    0.0006148     0.0007904    0.0003872    -0.0319536   -0.1465548 
   0.169792446    -0.0182483   -0.1167154     0.0005197    0.0004331     0.0008850    0.0003359    -0.0314919   -0.1460348 
   0.169892471    -0.0183626   -0.1146810     0.0008552    0.0006714     0.0009739    0.0005791    -0.0325524   -0.1450866 
   0.169992496    -0.0179986   -0.1161667     0.0004547    0.0003330     0.0010909    0.0004605    -0.0312390   -0.1455654 
   0.170092521    -0.0174258   -0.1153750     0.0007173    0.0003544     0.0008931    0.0005922    -0.0323305   -0.1463483 
   0.170192546    -0.0176354   -0.1150837     0.0009888    0.0004453     0.0010335    0.0005260    -0.0320747   -0.1456066 
   0.170292571    -0.0176304   -0.1147742     0.0004052    0.0006455     0.0006110    0.0004301    -0.0321618   -0.1452355 
   0.170392596    -0.0179002   -0.1165407     0.0008563    0.0004084     0.0007720    0.0004417    -0.0316973   -0.1455531 
   0.170492621    -0.0178758   -0.1156184     0.0007000    0.0007344     0.0009644    0.0004118    -0.0318894   -0.1454735 
   0.170592646    -0.0177977   -0.1150697     0.0009592    0.0002295     0.0007470    0.0006348    -0.0322792   -0.1454585 
   0.170692671    -0.0176506   -0.1145873     0.0006449    0.0003282     0.0009332    0.0003283    -0.0324702   -0.1455502 
   0.170792696    -0.0182309   -0.1145497     0.0006119    0.0004251     0.0008888    0.0003580    -0.0317669   -0.1455574 
   0.170892721    -0.0180534   -0.1150510     0.0007488    0.0004387     0.0007984    0.0004142    -0.0320824   -0.1455113 
   0.170992746    -0.0173717   -0.1149213     0.0008205    0.0006822     0.0009890    0.0006163    -0.0322339   -0.1454906 
   0.171092771    -0.0167933   -0.1149849     0.0006555    0.0006169     0.0007298    0.0004336    -0.0328189   -0.1454017 
   0.171192796    -0.0175908   -0.1143291     0.0009313    0.0004754     0.0011511    0.0004160    -0.0325207   -0.1449471 
   0.171292821    -0.0175442   -0.1143270     0.0010021    0.0001812     0.0010708    0.0002727    -0.0326846   -0.1443904 
   0.171392846    -0.0167919   -0.1139650     0.0006322    0.0005151     0.0009170    0.0004581    -0.0317940   -0.1454007 
   0.171492871    -0.0171591   -0.1139985     0.0008756    0.0003400     0.0008651    0.0003240    -0.0328352   -0.1451260 
   0.171592896    -0.0171540   -0.1144296     0.0007721    0.0005517     0.0008640    0.0004271    -0.0337343   -0.1453236 
   0.171692921    -0.0178098   -0.1133715     0.0009903    0.0002743     0.0008752    0.0005931    -0.0328292   -0.1461474 
   0.171792946    -0.0174835   -0.1143816     0.0009235    0.0005154     0.0006463    0.0007250    -0.0335104   -0.1458292 
   0.171892971    -0.0179509   -0.1131222     0.0007961    0.0004042     0.0008499    0.0003929    -0.0332627   -0.1447465 
   0.171992996    -0.0162538   -0.1135449     0.0007807    0.0006441     0.0008840    0.0004765    -0.0332438   -0.1455095 
   0.172093022    -0.0169459   -0.1126843     0.0006584    0.0007663     0.0007271    0.0004111    -0.0333189   -0.1450148 
   0.172193047    -0.0174129   -0.1122712     0.0007968    0.0000956     0.0008947    0.0005087    -0.0334221   -0.1451429 
   0.172293072    -0.0174767   -0.1129384     0.0008129    0.0005352     0.0006328    0.0005210    -0.0338814   -0.1442725 
   0.172393097    -0.0168262   -0.1129663     0.0007306    0.0005488     0.0009190    0.0005543    -0.0333170   -0.1447556 
   0.172493122    -0.0177669   -0.1132152     0.0008720    0.0002708     0.0007384    0.0005204    -0.0338562   -0.1450618 
   0.172593147    -0.0167843   -0.1123044     0.0008107    0.0004128     0.0008354    0.0003080    -0.0335970   -0.1447951 
   0.172693172    -0.0173135   -0.1132456     0.0009523    0.0003495     0.0008637    0.0005732    -0.0338660   -0.1445285 
   0.172793197    -0.0171352   -0.1128060     0.0010886    0.0005442     0.0007377    0.0006471    -0.0341361   -0.1446410 
   0.172893222    -0.0178122   -0.1121887     0.0008718    0.0006459     0.0008367    0.0005775    -0.0339148   -0.1436608 
   0.172993247    -0.0173331   -0.1118165     0.0006669   -0.0001115     0.0007161    0.0004424    -0.0341864   -0.1451692 
   0.173093272    -0.0173550   -0.1119770     0.0008625    0.0001869     0.0009601    0.0004686    -0.0342088   -0.1445892 
   0.173193297    -0.0170239   -0.1105317     0.0009749    0.0004282     0.0007418    0.0007215    -0.0335798   -0.1435976 
   0.173293322    -0.0167500   -0.1123654     0.0011211    0.0002956     0.0009249    0.0002958    -0.0337654   -0.1445652 
   0.173393347    -0.0168704   -0.1119767     0.0006332    0.0001966     0.0009596    0.0004478    -0.0340399   -0.1441197 
   0.173493372    -0.0177700   -0.1122067     0.0011333    0.0006909     0.0008626    0.0006027    -0.0344896   -0.1446453 
   0.173593397    -0.0160602   -0.1111925     0.0010281    0.0006588     0.0007435    0.0004606    -0.0346704   -0.1446640 
   0.173693422    -0.0164866   -0.1114721     0.0005124    0.0004166     0.0007967    0.0005623    -0.0346902   -0.1442146 
   0.173793447    -0.0169639   -0.1117130     0.0010121    0.0007301     0.0008266    0.0006390    -0.0343058   -0.1439505 
   0.173893472    -0.0161643   -0.1117315     0.0011906    0.0004789     0.0009208    0.0003662    -0.0349766   -0.1440561 
   0.173993497    -0.0160994   -0.1112675     0.0011675    0.0002745     0.0009085    0.0005259    -0.0348135   -0.1433919 
   0.174093522    -0.0171844   -0.1112853     0.0008740    0.0006583     0.0008540    0.0005538    -0.0344896   -0.1446344 
   0.174193547    -0.0168241   -0.1101407     0.0009756    0.0006293     0.0009487    0.0005524    -0.0348311   -0.1435854 
   0.174293572    -0.0174103   -0.1107117     0.0007542    0.0002685     0.0007453    0.0004738    -0.0347608   -0.1433366 
   0.174393597    -0.0171982   -0.1109943     0.0007658    0.0005263     0.0009436    0.0004692    -0.0346530   -0.1437307 
   0.174493622    -0.0176847   -0.1099476     0.0011382    0.0005220     0.0009732    0.0004747    -0.0352994   -0.1439608 
   0.174593647    -0.0162963   -0.1104087     0.0009498    0.0005618     0.0009277    0.0002835    -0.0348742   -0.1445766 
   0.174693672    -0.0164264   -0.1097740     0.0006061    0.0009190     0.0009118    0.0005187    -0.0355810   -0.1434948 
   0.174793697    -0.0170029   -0.1105159     0.0009698    0.0008978     0.0008239    0.0005966    -0.0351721   -0.1438714 
   0.174893722    -0.0162262   -0.1105215     0.0008108    0.0004792     0.0008611    0.0007080    -0.0350238   -0.1439424 
   0.174993747    -0.0166552   -0.1102346     0.0008084    0.0005253     0.0009958    0.0003811    -0.0352189   -0.1440066 
   0.175093772    -0.0171898   -0.1096380     0.0011365    0.0003664     0.0009583    0.0004775    -0.0353597   -0.1439320 
   0.175193797    -0.0168890   -0.1090640     0.0007710    0.0005822     0.0005039    0.0004923    -0.0357074   -0.1438349 
   0.175293822    -0.0169354   -0.1089918     0.0006347    0.0005714     0.0008629    0.0003840    -0.0356352   -0.1436304 
   0.175393847    -0.0160551   -0.1087833     0.0008085    0.0003619     0.0007287    0.0003541    -0.0357916   -0.1436372 
   0.175493872    -0.0168399   -0.1092855     0.0012676    0.0005521     0.0009640    0.0005561    -0.0363935   -0.1433461 
   0.175593897    -0.0160895   -0.1091303     0.0010643    0.0006874     0.0009475    0.0003861    -0.0356387   -0.1425112 
   0.175693922    -0.0172671   -0.1095612     0.0009375    0.0006852     0.0009291    0.0004289    -0.0358340   -0.1436861 
   0.175793947    -0.0159898   -0.1086612     0.0010268    0.0006737     0.0008331    0.0003218    -0.0361357   -0.1433671 
   0.175893972    -0.0167903   -0.1087574     0.0009267    0.0003009     0.0008520    0.0005779    -0.0364366   -0.1432358 
   0.175993997    -0.0168741   -0.1086006     0.0011639    0.0002169     0.0008937    0.0004428    -0.0361349   -0.1434877 
   0.176094022    -0.0168273   -0.1086532     0.0007602    0.0007251     0.0010283    0.0005971    -0.0362508   -0.1424431 
   0.176194047    -0.0164436   -0.1087344     0.0012250    0.0005619     0.0009532    0.0005082    -0.0360490   -0.1422745 
   0.176294072    -0.0162636   -0.1087230     0.0009044    0.0004250     0.0008052    0.0004796    -0.0371594   -0.1429740 
   0.176394097    -0.0167277   -0.1078707     0.0012180    0.0005278     0.0008792    0.0005468    -0.0367529   -0.1428680 
   0.176494122    -0.0167834   -0.1084501     0.0006508    0.0005112     0.0009616    0.0003983    -0.0366264   -0.1425600 
   0.176594147    -0.0165778   -0.1085556     0.0010507    0.0002882     0.0010912    0.0005236    -0.0360190   -0.1427239 
   0.176694172    -0.0164023   -0.1078315     0.0010035    0.0003691     0.0011364    0.0006378    -0.0370252   -0.1420946 
   0.176794197    -0.0164434   -0.1081153     0.0008539    0.0005764     0.0008643    0.0005485    -0.0370661   -0.1423165 
   0.176894222    -0.0159796   -0.1082509     0.0010654    0.0008091     0.0009808    0.0004509    -0.0367263   -0.1428899 
   0.176994247    -0.0160874   -0.1077526     0.0007491    0.0005613     0.0008950    0.0005187    -0.0366523   -0.1428842 
   0.177094272    -0.0166185   -0.1071099     0.0011058    0.0003417     0.0007627    0.0004500    -0.0367130   -0.1427719 
   0.177194297    -0.0162260   -0.1082206     0.0010528    0.0005780     0.0010094    0.0004349    -0.0371460   -0.1425604 
   0.177294322    -0.0172343   -0.1075856     0.0009292    0.0006898     0.0009616    0.0002652    -0.0365392   -0.1424848 
   0.177394347    -0.0158233   -0.1072983     0.0010293    0.0008228     0.0009106    0.0002074    -0.0369733   -0.1421783 
   0.177494372    -0.0162716   -0.1073661     0.0008993    0.0002243     0.0008088    0.0003749    -0.0374520   -0.1423086 
   0.177594397    -0.0156366   -0.1073494     0.0011774    0.0005216     0.0009312    0.0004942    -0.0372064   -0.1429507 
   0.177694422    -0.0164270   -0.1072273     0.0009437    0.0004924     0.0009396    0.0006247    -0.0372643   -0.1423727 
   0.177794447    -0.0160266   -0.1070341     0.0013318    0.0002506     0.0007894    0.0004894    -0.0374589   -0.1423314 
   0.177894472    -0.0155176   -0.1064479     0.0011261    0.0005996     0.0011381    0.0004153    -0.0375638   -0.1423115 
   0.177994497    -0.0162171   -0.1065098     0.0008621    0.0005566     0.0008368    0.0003469    -0.0379382   -0.1421280 
   0.178094522    -0.0151308   -0.1066385     0.0010448    0.0007449     0.0008973    0.0002643    -0.0372842   -0.1411198 
   0.178194547    -0.0164169   -0.1064746     0.0008879    0.0004859     0.0010537    0.0006064    -0.0380755   -0.1421173 
   0.178294572    -0.0155067   -0.1060087     0.0010295    0.0004209     0.0008477    0.0003793    -0.0378912   -0.1420209 
   0.178394597    -0.0159287   -0.1058635     0.0007037    0.0006083     0.0009214    0.0005231    -0.0391773   -0.1423921 
   0.178494622    -0.0165819   -0.1059936     0.0009393    0.0007151     0.0012609    0.0005045    -0.0374895   -0.1421230 
   0.178594647    -0.0162970   -0.1055215     0.0007329    0.0006924     0.0007739    0.0003973    -0.0374719   -0.1415911 
   0.178694672    -0.0150780   -0.1056083     0.0007363    0.0002027     0.0008488    0.0003708    -0.0383810   -0.1413316 
   0.178794697    -0.0160181   -0.1054888     0.0010527    0.0006069     0.0009014    0.0006087    -0.0385656   -0.1417430 
   0.178894722    -0.0166109   -0.1055459     0.0010836    0.0003566     0.0008825    0.0002303    -0.0381116   -0.1417530 
   0.178994747    -0.0164055   -0.1048689     0.0009504    0.0003802     0.0008954    0.0004973    -0.0388024   -0.1416656 
   0.179094772    -0.0156089   -0.1051269     0.0012023    0.0003352     0.0007924    0.0002887    -0.0387014   -0.1418418 
   0.179194797    -0.0157103   -0.1055371     0.0008779    0.0005032     0.0011065    0.0004338    -0.0387049   -0.1417154 
   0.179294822    -0.0154766   -0.1051598     0.0010938    0.0007150     0.0008776    0.0004925    -0.0390099   -0.1415094 
   0.179394847    -0.0159881   -0.1048308     0.0010383    0.0004001     0.0009593    0.0005575    -0.0393782   -0.1415331 
   0.179494872    -0.0154777   -0.1050940     0.0011369    0.0005093     0.0011369    0.0004118    -0.0398311   -0.1412859 
   0.179594897    -0.0155912   -0.1052132     0.0010558    0.0002847     0.0010913    0.0006125    -0.0388573   -0.1417975 
   0.179694922    -0.0151574   -0.1059445     0.0012627    0.0003155     0.0007963    0.0003270    -0.0391113   -0.1407220 
   0.179794947    -0.0151618   -0.1044767     0.0008621    0.0005250     0.0007560    0.0002655    -0.0396748   -0.1410260 
   0.179894972    -0.0160502   -0.1046432     0.0012108    0.0004074     0.0007223    0.0003594    -0.0397617   -0.1408528 
   0.179994997    -0.0158890   -0.1036733     0.0009395    0.0001597     0.0007014    0.0003161    -0.0391041   -0.1409705 
   0.180095023    -0.0160172   -0.1051133     0.0008467    0.0006744     0.0010395    0.0004326    -0.0393636   -0.1409926 
   0.180195048    -0.0153409   -0.1035419     0.0007784    0.0004037     0.0009651    0.0005140    -0.0396436   -0.1414487 
   0.180295073    -0.0160276   -0.1045059     0.0008831    0.0002483     0.0009634    0.0003501    -0.0396772   -0.1405657 
   0.180395098    -0.0149136   -0.1041781     0.0011011    0.0003823     0.0007824    0.0002009    -0.0391546   -0.1412894 
   0.180495123    -0.0147191   -0.1039191     0.0006602    0.0006725     0.0008896    0.0004620    -0.0402818   -0.1409558 
   0.180595148    -0.0165021   -0.1035849     0.0008242    0.0004527     0.0009285    0.0002777    -0.0400659   -0.1407810 
   0.180695173    -0.0148855   -0.1036269     0.0008798    0.0003329     0.0008278    0.0004332    -0.0396489   -0.1407437 
   0.180795198    -0.0153989   -0.1037716     0.0007646    0.0004393     0.0009289    0.0004210    -0.0405330   -0.1410193 
   0.180895223    -0.0152462   -0.1037474     0.0007450    0.0007932     0.0008268    0.0002307    -0.0401247   -0.1408736 
   0.180995248    -0.0151527   -0.1036502     0.0007949    0.0006160     0.0008045    0.0002552    -0.0403017   -0.1404826 
   0.181095273    -0.0148006   -0.1034718     0.0010281    0.0003836     0.0009759    0.0003984    -0.0401181   -0.1404292 
   0.181195298    -0.0156477   -0.1034616     0.0012166    0.0003800     0.0009294    0.0003959    -0.0406117   -0.1404521 
   0.181295323    -0.0156136   -0.1035836     0.0008518    0.0005952     0.0007619    0.0003802    -0.0407054   -0.1404547 
   0.181395348    -0.0154529   -0.1032745     0.0009805    0.0004186     0.0008101    0.0004288    -0.0406947   -0.1399683 
   0.181495373    -0.0152678   -0.1022560     0.0008248    0.0004098     0.0009746    0.0004874    -0.0402998   -0.1406245 
   0.181595398    -0.0150182   -0.1028307     0.0006908    0.0005015     0.0010320    0.0004617    -0.0405390   -0.1404122 
   0.181695423    -0.0148683   -0.1022410     0.0010057    0.0002812     0.0008278    0.0004111    -0.0407182   -0.1408829 
   0.181795448    -0.0150459   -0.1028765     0.0010565    0.0003755     0.0007781    0.0003262    -0.0413781   -0.1404164 
   0.181895473    -0.0151125   -0.1030526     0.0008667    0.0004359     0.0011025    0.0004105    -0.0407464   -0.1398832 
   0.181995498    -0.0148088   -0.1026004     0.0008424    0.0004798     0.0008668    0.0003014    -0.0412042   -0.1395332 
   0.182095523    -0.0150540   -0.1026188     0.0009010    0.0004515     0.0010476    0.0004923    -0.0403245   -0.1393782 
   0.182195548    -0.0152077   -0.1022090     0.0007409    0.0005380     0.0007870    0.0004740    -0.0409263   -0.1397125 
   0.182295573    -0.0146920   -0.1025439     0.0011329    0.0004462     0.0007776    0.0003660    -0.0416877   -0.1399692 
   0.182395598    -0.0149034   -0.1025115     0.0010528    0.0006991     0.0008741    0.0002408    -0.0414512   -0.1399477 
   0.182495623    -0.0140635   -0.1020633     0.0006545    0.0002649     0.0008134    0.0004972    -0.0412374   -0.1399439 
   0.182595648    -0.0138413   -0.1016753     0.0007700    0.0005251     0.0010781    0.0002877    -0.0416738   -0.1402730 
   0.182695673    -0.0150776   -0.1021889     0.0009234    0.0005841     0.0008536    0.0003959    -0.0418949   -0.1394933 
   0.182795698    -0.0153366   -0.1020550     0.0004963    0.0002333     0.0009128    0.0004290    -0.0425347   -0.1404269 
   0.182895723    -0.0141568   -0.1013803     0.0009735    0.0004767     0.0008124    0.0003000    -0.0417150   -0.1401353 
   0.182995748    -0.0150819   -0.1008580     0.0009106    0.0005224     0.0009255    0.0004710    -0.0414930   -0.1398042 
   0.183095773    -0.0151026   -0.1018415     0.0010937    0.0004088     0.0010375    0.0004194    -0.0419579   -0.1398761 
   0.183195798    -0.0146255   -0.1009981     0.0008898    0.0001213     0.0009388    0.0006503    -0.0420218   -0.1390666 
   0.183295823    -0.0149537   -0.1008841     0.0008575    0.0004527     0.0010022    0.0002801    -0.0425757   -0.1404402 
   0.183395848    -0.0142915   -0.1014651     0.0010038    0.0002634     0.0011016    0.0003610    -0.0419374   -0.1392713 
   0.183495873    -0.0145057   -0.1008063     0.0009374    0.0002784     0.0009771    0.0003397    -0.0419199   -0.1394425 
   0.183595898    -0.0144881   -0.1010510     0.0011975    0.0002895     0.0007978    0.0003740    -0.0422690   -0.1395272 
   0.183695923    -0.0140517   -0.1001053     0.0010711    0.0004339     0.0009248    0.0004754    -0.0420315   -0.1392442 
   0.183795948    -0.0149978   -0.1010543     0.0010690    0.0000223     0.0008462    0.0003055    -0.0431617   -0.1391101 
   0.183895973    -0.0148338   -0.1004653     0.0010343    0.0003775     0.0010551    0.0004823    -0.0431532   -0.1395190 
   0.183995998    -0.0151010   -0.0997941     0.0010558    0.0008382     0.0009712    0.0004629    -0.0420957   -0.1393644 
   0.184096023    -0.0138356   -0.1004436     0.0011093    0.0003338     0.0011268    0.0002709    -0.0434568   -0.1390659 
   0.184196048    -0.0140141   -0.0997808     0.0010604    0.0004156     0.0011419    0.0001586    -0.0424846   -0.1391405 
   0.184296073    -0.0146373   -0.1002525     0.0009553    0.0004493     0.0010995    0.0003383    -0.0426200   -0.1392843 
   0.184396098    -0.0143320   -0.1002225     0.0007061    0.0002699     0.0009290    0.0003974    -0.0430543   -0.1397033 
   0.184496123    -0.0138185   -0.1006488     0.0011662    0.0001608     0.0009616    0.0002491    -0.0430256   -0.1390368 
   0.184596148    -0.0150002   -0.0997500     0.0010756    0.0005864     0.0012835    0.0002491    -0.0427870   -0.1390861 
   0.184696173    -0.0143376   -0.1004425     0.0008537    0.0004486     0.0008387    0.0004788    -0.0433036   -0.1386864 
   0.184796198    -0.0146611   -0.0990128     0.0012720    0.0004788     0.0008472    0.0005764    -0.0435688   -0.1387509 
   0.184896223    -0.0138200   -0.0994265     0.0009989    0.0005823     0.0009288    0.0003706    -0.0433943   -0.1380429 
   0.184996248    -0.0147529   -0.0990352     0.0007845    0.0004450     0.0007997    0.0004851    -0.0438888   -0.1379709 
   0.185096273    -0.0150603   -0.0985850     0.0008244    0.0006438     0.0008310    0.0003489    -0.0432173   -0.1379365 
   0.185196298    -0.0145195   -0.0993419     0.0009877    0.0004257     0.0009729    0.0003005    -0.0434837   -0.1385320 
   0.185296323    -0.0140897   -0.0990095     0.0010930    0.0003421     0.0008439    0.0005437    -0.0434676   -0.1380595 
   0.185396348    -0.0134348   -0.0983878     0.0009911    0.0003278     0.0010649    0.0003098    -0.0432748   -0.1382452 
   0.185496373    -0.0141854   -0.0983077     0.0008317    0.0004961     0.0009276    0.0003874    -0.0431552   -0.1381604 
   0.185596398    -0.0139862   -0.0985028     0.0010842    0.0002235     0.0011172    0.0005170    -0.0440595   -0.1382486 
   0.185696423    -0.0143234   -0.0985641     0.0010447    0.0004541     0.0009847    0.0003721    -0.0439945   -0.1386566 
   0.185796448    -0.0136444   -0.0979818     0.0010462    0.0004421     0.0010205    0.0005401    -0.0435584   -0.1380671 
   0.185896473    -0.0141835   -0.0979998     0.0008852    0.0003820     0.0010108    0.0003275    -0.0445653   -0.1382409 
   0.185996498    -0.0144456   -0.0978408     0.0009341    0.0002046     0.0010947    0.0003501    -0.0441706   -0.1382869 
   0.186096523    -0.0142237   -0.0985369     0.0009163    0.0003999     0.0007522    0.0003178    -0.0449254   -0.1382184 
   0.186196548    -0.0148215   -0.0977358     0.0010333    0.0003539     0.0009696    0.0005235    -0.0440986   -0.1379032 
   0.186296573    -0.0139052   -0.0976162     0.0012391    0.0004632     0.0009417    0.0005027    -0.0441275   -0.1382612 
   0.186396598    -0.0143853   -0.0977662     0.0009943    0.0003386     0.0008770    0.0005858    -0.0445835   -0.1382340 
   0.186496623    -0.0145957   -0.0969985     0.0009321    0.0004956     0.0008981    0.0002728    -0.0444881   -0.1375618 
   0.186596648    -0.0139185   -0.0977187     0.0010650    0.0007171     0.0007273    0.0002634    -0.0444050   -0.1374394 
   0.186696673    -0.0139256   -0.0972755     0.0009565    0.0003024     0.0010706    0.0002614    -0.0443872   -0.1373587 
   0.186796698    -0.0143399   -0.0975062     0.0009563    0.0004079     0.0009704    0.0003119    -0.0445291   -0.1372234 
   0.186896723    -0.0130044   -0.0971568     0.0008980    0.0006418     0.0006778    0.0003783    -0.0451612   -0.1377711 
   0.186996748    -0.0138627   -0.0960576     0.0013315    0.0006986     0.0008605    0.0004229    -0.0446993   -0.1376235 
   0.187096773    -0.0140898   -0.0966885     0.0010022    0.0004759     0.0009932    0.0005494    -0.0453931   -0.1375818 
   0.187196798    -0.0139884   -0.0969096     0.0009447    0.0002466     0.0008607    0.0003679    -0.0453987   -0.1381769 
   0.187296823    -0.0137900   -0.0968936     0.0008711    0.0006005     0.0010887    0.0004340    -0.0454729   -0.1378699 
   0.187396848    -0.0132022   -0.0966184     0.0007816    0.0003533     0.0012513    0.0003170    -0.0448730   -0.1379670 
   0.187496873    -0.0137551   -0.0968966     0.0008577    0.0005190     0.0010401    0.0004649    -0.0451546   -0.1377496 
   0.187596898    -0.0132514   -0.0975076     0.0010185    0.0004274     0.0006825    0.0004278    -0.0452776   -0.1371955 
   0.187696923    -0.0132181   -0.0961240     0.0009299    0.0000452     0.0009527    0.0003895    -0.0458442   -0.1374185 
   0.187796948    -0.0140286   -0.0972125     0.0011660    0.0003989     0.0009898    0.0004447    -0.0458309   -0.1377301 
   0.187896973    -0.0137550   -0.0960167     0.0010158    0.0003924     0.0010411    0.0003968    -0.0455064   -0.1370578 
   0.187996998    -0.0135767   -0.0965924     0.0008002    0.0002519     0.0010740    0.0003574    -0.0454006   -0.1368588 
   0.188097024    -0.0139057   -0.0958799     0.0007060    0.0003257     0.0008674    0.0001551    -0.0457341   -0.1375619 
   0.188197049    -0.0137545   -0.0960233     0.0009312    0.0006103     0.0010872    0.0004053    -0.0461287   -0.1366727 
   0.188297074    -0.0131664   -0.0958501     0.0008083    0.0001925     0.0009835    0.0004188    -0.0459337   -0.1367733 
   0.188397099    -0.0134332   -0.0952592     0.0007545    0.0002456     0.0010678    0.0004066    -0.0466834   -0.1361227 
   0.188497124    -0.0135594   -0.0956677     0.0009408    0.0005426     0.0010228    0.0003706    -0.0459204   -0.1373000 
   0.188597149    -0.0130291   -0.0955846     0.0011318    0.0002676     0.0009865    0.0005440    -0.0462014   -0.1367254 
   0.188697174    -0.0133835   -0.0951533     0.0011020    0.0002801     0.0009767    0.0003642    -0.0461918   -0.1360973 
   0.188797199    -0.0138612   -0.0954246     0.0008962    0.0002307     0.0009830    0.0004802    -0.0461358   -0.1364953 
   0.188897224    -0.0132424   -0.0953668     0.0008774    0.0003159     0.0009640    0.0004652    -0.0463704   -0.1367842 
   0.188997249    -0.0135497   -0.0951706     0.0010872    0.0002703     0.0011213    0.0002948    -0.0467438   -0.1371627 
   0.189097274    -0.0139360   -0.0953549     0.0007983    0.0002147     0.0010659    0.0006008    -0.0469619   -0.1358919 
   0.189197299    -0.0127950   -0.0950200     0.0009606    0.0004429     0.0009226    0.0004321    -0.0474265   -0.1370019 
   0.189297324    -0.0129383   -0.0948994     0.0009512    0.0004232     0.0007674    0.0003315    -0.0473980   -0.1367615 
   0.189397349    -0.0124853   -0.0946762     0.0008870    0.0003451     0.0010949    0.0004449    -0.0468273   -0.1353714 
   0.189497374    -0.0129014   -0.0949611     0.0008572    0.0004991     0.0009074    0.0004104    -0.0462561   -0.1364339 
   0.189597399    -0.0137003   -0.0948161     0.0007374    0.0003851     0.0012282    0.0003916    -0.0474576   -0.1359533 
   0.189697424    -0.0132608   -0.0946204     0.0009701    0.0002331     0.0010330    0.0003688    -0.0466628   -0.1364554 
   0.189797449    -0.0127783   -0.0945950     0.0011022    0.0004876     0.0010940    0.0003910    -0.0478604   -0.1370337 
   0.189897474    -0.0124679   -0.0948218     0.0012366    0.0001766     0.0008949    0.0001924    -0.0477801   -0.1361998 
   0.189997499    -0.0128654   -0.0936041     0.0009865    0.0000945     0.0010672    0.0004332    -0.0466176   -0.1360422 
   0.190097524    -0.0129060   -0.0937055     0.0009136    0.0005717     0.0008580    0.0005867    -0.0474437   -0.1359498 
   0.190197549    -0.0124337   -0.0932826     0.0008901    0.0003206     0.0010747    0.0005243    -0.0470630   -0.1358239 
   0.190297574    -0.0126534   -0.0938973     0.0011495    0.0004399     0.0010577    0.0004437    -0.0472616   -0.1354669 
   0.190397599    -0.0125225   -0.0939475     0.0009657    0.0002368     0.0010312    0.0001053    -0.0477639   -0.1356595 
   0.190497624    -0.0128962   -0.0940803     0.0008138    0.0004868     0.0010623    0.0003781    -0.0478335   -0.1356883 
   0.190597649    -0.0127478   -0.0937740     0.0009247    0.0002339     0.0009542    0.0004399    -0.0485042   -0.1352784 
   0.190697674    -0.0128355   -0.0937338     0.0008536    0.0002852     0.0010221    0.0002548    -0.0476583   -0.1359592 
   0.190797699    -0.0127219   -0.0939531     0.0009301    0.0003688     0.0010774    0.0003818    -0.0483053   -0.1356483 
   0.190897724    -0.0126102   -0.0929762     0.0009361    0.0004495     0.0011877    0.0002684    -0.0481679   -0.1356969 
   0.190997749    -0.0137072   -0.0930614     0.0008888    0.0002866     0.0009938    0.0002573    -0.0474203   -0.1348614 
   0.191097774    -0.0124955   -0.0937009     0.0009290    0.0003929     0.0011833    0.0002086    -0.0480563   -0.1345573 
   0.191197799    -0.0122700   -0.0935416     0.0009326    0.0004056     0.0007920    0.0005128    -0.0479758   -0.1355561 
   0.191297824    -0.0120662   -0.0930300     0.0008049    0.0002197     0.0011279    0.0002377    -0.0486754   -0.1351495 
   0.191397849    -0.0126362   -0.0932124     0.0011026    0.0002163     0.0009415    0.0004913    -0.0486199   -0.1344239 
   0.191497874    -0.0123540   -0.0925159     0.0012790    0.0001273     0.0010244    0.0002446    -0.0477951   -0.1354360 
   0.191597899    -0.0125239   -0.0925665     0.0010634    0.0003475     0.0009130    0.0003496    -0.0483978   -0.1350715 
   0.191697924    -0.0125801   -0.0926304     0.0007824    0.0005710     0.0009688    0.0004475    -0.0484919   -0.1351229 
   0.191797949    -0.0124205   -0.0928822     0.0008620    0.0004530     0.0011067    0.0002748    -0.0490029   -0.1350132 
   0.191897974    -0.0121512   -0.0923209     0.0009798    0.0002444     0.0010573    0.0004233    -0.0487502   -0.1352986 
   0.191997999    -0.0129324   -0.0918143     0.0010965    0.0003740     0.0010606    0.0003284    -0.0492369   -0.1348793 
   0.192098024    -0.0126276   -0.0927557     0.0010170    0.0004336     0.0011839    0.0004686    -0.0487430   -0.1350589 
   0.192198049    -0.0118338   -0.0921364     0.0009413    0.0004805     0.0010110    0.0003648    -0.0495068   -0.1352956 
   0.192298074    -0.0117099   -0.0923686     0.0009448    0.0001338     0.0007927    0.0003457    -0.0490621   -0.1350330 
   0.192398099    -0.0120569   -0.0917037     0.0008362    0.0003980     0.0011546    0.0003679    -0.0493317   -0.1347560 
   0.192498124    -0.0118449   -0.0916498     0.0011109    0.0003430     0.0008899    0.0001145    -0.0498951   -0.1341624 
   0.192598149    -0.0123320   -0.0918673     0.0011407    0.0005593     0.0009059    0.0002059    -0.0495329   -0.1349220 
   0.192698174    -0.0123228   -0.0914780     0.0010065    0.0006052     0.0008637    0.0004507    -0.0494770   -0.1346384 
   0.192798199    -0.0123009   -0.0918627     0.0009935    0.0002189     0.0010659    0.0003784    -0.0500323   -0.1347930 
   0.192898224    -0.0128307   -0.0920875     0.0009909    0.0005698     0.0009172    0.0004148    -0.0503413   -0.1337294 
   0.192998249    -0.0122911   -0.0917477     0.0008780    0.0002768     0.0008968    0.0001625    -0.0505935   -0.1343014 
   0.193098274    -0.0115771   -0.0914412     0.0010237    0.0003746     0.0010585    0.0004563    -0.0499032   -0.1339412 
   0.193198299    -0.0114155   -0.0911120     0.0010851    0.0004652     0.0010928    0.0003235    -0.0499023   -0.1344953 
   0.193298324    -0.0115052   -0.0912051     0.0009134    0.0005511     0.0009554    0.0001217    -0.0499721   -0.1347151 
   0.193398349    -0.0120816   -0.0912280     0.0011022    0.0004573     0.0012068    0.0005235    -0.0496185   -0.1342846 
   0.193498374    -0.0115333   -0.0898581     0.0010660    0.0005127     0.0009641    0.0005030    -0.0503486   -0.1342358 
   0.193598399    -0.0119286   -0.0904410     0.0011484    0.0003407     0.0007396    0.0005203    -0.0500834   -0.1340007 
   0.193698424    -0.0122306   -0.0905206     0.0009677    0.0003386     0.0012959    0.0004161    -0.0501358   -0.1342563 
   0.193798449    -0.0115191   -0.0911387     0.0011000    0.0002541     0.0012938    0.0003508    -0.0501146   -0.1348158 
   0.193898474    -0.0119451   -0.0907042     0.0007819    0.0004156     0.0009723    0.0002764    -0.0503839   -0.1342822 
   0.193998499    -0.0119771   -0.0904594     0.0011273    0.0002368     0.0008776    0.0003865    -0.0513137   -0.1338291 
   0.194098524    -0.0115831   -0.0904759     0.0009704    0.0005147     0.0008968    0.0002282    -0.0507487   -0.1335437 
   0.194198549    -0.0123195   -0.0899933     0.0009805    0.0002766     0.0011558    0.0002108    -0.0505188   -0.1334045 
   0.194298574    -0.0118011   -0.0908143     0.0010043    0.0002305     0.0009564    0.0003111    -0.0513070   -0.1337312 
   0.194398599    -0.0113033   -0.0894336     0.0008996    0.0002867     0.0010153    0.0003278    -0.0509885   -0.1333718 
   0.194498624    -0.0115075   -0.0894390     0.0010653    0.0004286     0.0010275    0.0003467    -0.0509086   -0.1332008 
   0.194598649    -0.0124482   -0.0894249     0.0007154    0.0004608     0.0010243    0.0003095    -0.0519428   -0.1339062 
   0.194698674    -0.0113054   -0.0893898     0.0011507    0.0005998     0.0011067    0.0003437    -0.0506237   -0.1337568 
   0.194798699    -0.0109253   -0.0901903     0.0009909    0.0004167     0.0011375    0.0004690    -0.0514179   -0.1332333 
   0.194898724    -0.0109790   -0.0895163     0.0011981    0.0004377     0.0009726    0.0004947    -0.0511963   -0.1340288 
   0.194998749    -0.0123675   -0.0898694     0.0012744    0.0003245     0.0009624    0.0004174    -0.0509254   -0.1333332 
   0.195098774    -0.0123364   -0.0891804     0.0009413    0.0002345     0.0011056    0.0006250    -0.0510849   -0.1333455 
   0.195198799    -0.0114002   -0.0893004     0.0011066    0.0002043     0.0010692    0.0002655    -0.0516133   -0.1331390 
   0.195298824    -0.0118145   -0.0893776     0.0009473    0.0004431     0.0009340    0.0004547    -0.0517656   -0.1329618 
   0.195398849    -0.0107783   -0.0888541     0.0009966    0.0002826     0.0011160    0.0004618    -0.0520015   -0.1336398 
   0.195498874    -0.0116394   -0.0892060     0.0013702    0.0005608     0.0010983    0.0002401    -0.0515811   -0.1337103 
   0.195598899    -0.0116317   -0.0888244     0.0009994    0.0002867     0.0009986    0.0003079    -0.0514550   -0.1333480 
   0.195698924    -0.0111424   -0.0889392     0.0010751    0.0002193     0.0009619    0.0005716    -0.0521858   -0.1333754 
   0.195798949    -0.0114987   -0.0892286     0.0009977    0.0003876     0.0009705    0.0003021    -0.0519566   -0.1327166 
   0.195898974    -0.0115658   -0.0885523     0.0014179    0.0006688     0.0008756    0.0003680    -0.0515900   -0.1321975 
   0.195998999    -0.0106357   -0.0886577     0.0011012    0.0005296     0.0009486    0.0003246    -0.0519084   -0.1327266 
   0.196099025    -0.0116137   -0.0879262     0.0010174    0.0001897     0.0008981    0.0002197    -0.0520247   -0.1326528 
   0.196199050    -0.0115342   -0.0883440     0.0008504    0.0002385     0.0010175    0.0004797    -0.0529443   -0.1328719 
   0.196299075    -0.0106386   -0.0884178     0.0012305    0.0003870     0.0009376    0.0003927    -0.0522046   -0.1325441 
   0.196399100    -0.0110446   -0.0884122     0.0008737    0.0007230     0.0011928    0.0006124    -0.0523982   -0.1324880 
   0.196499125    -0.0104178   -0.0883544     0.0011515    0.0004718     0.0010384    0.0002754    -0.0526621   -0.1323572 
   0.196599150    -0.0113126   -0.0879396     0.0014565    0.0004675     0.0010380    0.0004368    -0.0528354   -0.1330864 
   0.196699175    -0.0110754   -0.0881444     0.0011351    0.0004464     0.0009279    0.0003816    -0.0528533   -0.1327367 
   0.196799200    -0.0107685   -0.0876171     0.0007385    0.0004605     0.0009846    0.0004636    -0.0527837   -0.1320085 
   0.196899225    -0.0108265   -0.0877589     0.0011875    0.0003607     0.0010089    0.0004249    -0.0530934   -0.1318891 
   0.196999250    -0.0107923   -0.0874381     0.0011875    0.0001982     0.0011277    0.0003281    -0.0528837   -0.1325995 
   0.197099275    -0.0101218   -0.0877557     0.0010856    0.0003101     0.0011204    0.0001936    -0.0534757   -0.1329165 
   0.197199300    -0.0106957   -0.0873869     0.0011966    0.0006768     0.0011234    0.0002384    -0.0531352   -0.1317042 
   0.197299325    -0.0102248   -0.0874421     0.0008876    0.0003240     0.0011360    0.0003449    -0.0528933   -0.1324312 
   0.197399350    -0.0111245   -0.0878277     0.0008823    0.0003830     0.0010639    0.0003788    -0.0531038   -0.1319136 
   0.197499375    -0.0106665   -0.0873864     0.0009171    0.0001968     0.0010180    0.0001652    -0.0530326   -0.1316864 
   0.197599400    -0.0103931   -0.0872199     0.0010766    0.0001744     0.0009963    0.0002708    -0.0526080   -0.1320618 
   0.197699425    -0.0105840   -0.0870602     0.0010541    0.0001063     0.0010636    0.0002694    -0.0530572   -0.1314004 
   0.197799450    -0.0099558   -0.0872031     0.0009357    0.0002754     0.0008642    0.0004671    -0.0535898   -0.1313652 
   0.197899475    -0.0104015   -0.0873079     0.0011550    0.0003086     0.0012325    0.0002627    -0.0541240   -0.1317129 
   0.197999500    -0.0099441   -0.0864929     0.0011357    0.0004360     0.0009038    0.0003040    -0.0541580   -0.1317667 
   0.198099525    -0.0104740   -0.0865645     0.0009758    0.0002290     0.0009132    0.0004764    -0.0533063   -0.1310030 
   0.198199550    -0.0097829   -0.0867892     0.0013590    0.0004445     0.0010627    0.0002633    -0.0537158   -0.1316039 
   0.198299575    -0.0096924   -0.0867361     0.0011703    0.0002353     0.0010642    0.0001361    -0.0537215   -0.1312560 
   0.198399600    -0.0096203   -0.0860860     0.0010853    0.0004545     0.0011514    0.0002654    -0.0541295   -0.1317930 
   0.198499625    -0.0097955   -0.0868977     0.0010291    0.0002935     0.0010144    0.0004159    -0.0545629   -0.1312129 
   0.198599650    -0.0101611   -0.0862892     0.0011266    0.0003577     0.0010756    0.0001408    -0.0541684   -0.1323786 
   0.198699675    -0.0102251   -0.0857175     0.0007487    0.0003431     0.0009924    0.0004178    -0.0542579   -0.1314792 
   0.198799700    -0.0102999   -0.0858975     0.0008509    0.0007697     0.0010395    0.0003223    -0.0546098   -0.1317094 
   0.198899725    -0.0098417   -0.0860283     0.0011161    0.0006283     0.0010394    0.0004763    -0.0546012   -0.1312549 
   0.198999750    -0.0104947   -0.0861644     0.0011713    0.0004700     0.0010417    0.0003698    -0.0541399   -0.1310476 
   0.199099775    -0.0107671   -0.0857946     0.0011839    0.0003051     0.0013011    0.0003225    -0.0546169   -0.1310446 
   0.199199800    -0.0097089   -0.0857415     0.0012460    0.0005317     0.0011244    0.0002264    -0.0548169   -0.1310600 
   0.199299825    -0.0096356   -0.0855103     0.0006586    0.0002892     0.0010116    0.0003917    -0.0552218   -0.1311378 
   0.199399850    -0.0099721   -0.0855446     0.0008635    0.0004948     0.0011209    0.0001515    -0.0546769   -0.1314132 
   0.199499875    -0.0099219   -0.0851511     0.0009511    0.0004624     0.0011502    0.0002563    -0.0552873   -0.1313402 
   0.199599900    -0.0101256   -0.0850256     0.0010518    0.0003817     0.0008929    0.0002936    -0.0550741   -0.1310043 
   0.199699925    -0.0097998   -0.0854433     0.0011850    0.0002835     0.0009910    0.0004840    -0.0551417   -0.1308510 
   0.199799950    -0.0100559   -0.0853813     0.0011803    0.0002031     0.0011491    0.0003397    -0.0554075   -0.1306489 
   0.199899975    -0.0100842   -0.0847482     0.0010627    0.0004614     0.0009799    0.0003044    -0.0552487   -0.1301908 
   0.200000000    -0.0098509   -0.0850131     0.0010497    0.0001760     0.0012506    0.0002978    -0.0555912   -0.1304800 
