! 27-Aug-26 2:33:24 PM
! E:\20260827_VNA\T2T2E3_LONGSHORT_2.S2P
! CHANNEL.1
! TR.MEASUREMENT
! CORRECTED.DATA
# GHZ S RI R 50.0
! FREQ.GHZ         S11RE         S11IM         S21RE         S21IM         S12RE         S12IM         S22RE         S22IM         
!; PortSelection: Port_12
   0.000050000    -1.9040770    0.7974742    -0.5725280   -1.4839330     0.0028465   -0.0065017     1.0997430   -0.0006047 
   0.000150025    -0.1293882    0.1014316    -0.3129812   -0.3300816     0.0001067   -0.0003497     1.0102550   -0.0056908 
   0.000250050    -0.1423762   -0.3924296    -0.0061305    0.0176360    -0.0001170    0.0004637     1.0084520   -0.0226317 
   0.000350075     0.9569286   -0.0132706    -0.0013451   -0.0066532     0.0019826   -0.0006116     0.9950749   -0.0383830 
   0.000450100     0.9766471   -0.1072621     0.0005868   -0.0099301     0.0007902    0.0002985     1.0019150   -0.0186624 
   0.000550125     0.9981145   -0.0129687    -0.0070811   -0.0091728     0.0005672    0.0012124     0.9897404   -0.0393681 
   0.000650150     0.9924283   -0.0133352    -0.0073067   -0.0106068     0.0008215    0.0005306     1.0015560   -0.0497888 
   0.000750175     0.9779836   -0.0525578    -0.0067408   -0.0075969     0.0003299   -0.0002180     0.9965081   -0.0590110 
   0.000850200     0.9913446   -0.1094696    -0.0129905   -0.0047350    -0.0003555   -0.0008041     1.0000720   -0.0585718 
   0.000950225     1.0311240   -0.0677928    -0.0133864   -0.0075716    -0.0013615    0.0001667     0.9805878   -0.0719225 
   0.001050250     1.0070110   -0.0532342    -0.0125349   -0.0048287     0.0004900   -0.0004539     0.9948076   -0.0688762 
   0.001150275     0.9730504   -0.0792908    -0.0084389   -0.0038218     0.0002539   -0.0004182     0.9844909   -0.0790981 
   0.001250300     0.9872216   -0.0604457    -0.0095492   -0.0027969     0.0008373    0.0004403     0.9931920   -0.0972564 
   0.001350325     0.9888848   -0.0656868    -0.0085526   -0.0033474     0.0000857   -0.0005895     0.9837043   -0.1033321 
   0.001450350     0.9836707   -0.0605778    -0.0094957    0.0028502    -0.0000562   -0.0000947     0.9876294   -0.1070550 
   0.001550375     0.9685017   -0.0597189    -0.0129856    0.0003446    -0.0000360    0.0001676     0.9978529   -0.1120326 
   0.001650400     0.9931992   -0.0081295    -0.0065304    0.0010778    -0.0005362   -0.0008319     0.9821133   -0.1143559 
   0.001750425     0.9946228   -0.0444142    -0.0086780    0.0017684     0.0003068   -0.0007326     0.9869102   -0.1214183 
   0.001850450     0.9474999   -0.0761086    -0.0089229    0.0018342    -0.0005119   -0.0002919     0.9889590   -0.1346679 
   0.001950475     1.0064320   -0.0066802    -0.0085621    0.0008012     0.0001330   -0.0005199     0.9855633   -0.1433959 
   0.002050500     1.0039540   -0.0491925    -0.0072871    0.0035813     0.0003170    0.0007074     0.9808857   -0.1478870 
   0.002150525     0.9546729   -0.0651992    -0.0062873    0.0058125     0.0002519    0.0008463     0.9786791   -0.1555862 
   0.002250550     0.9983706   -0.0635009    -0.0072657    0.0034459    -0.0006197   -0.0002540     0.9718122   -0.1649830 
   0.002350575     0.9753876   -0.1106955    -0.0045317    0.0004947     0.0005163   -0.0004351     0.9673743   -0.1633548 
   0.002450600     0.9639256   -0.0684601    -0.0029833   -0.0002282    -0.0002688   -0.0000104     0.9778883   -0.1727577 
   0.002550625     0.9614410   -0.1066221    -0.0051297    0.0042666     0.0010346   -0.0002051     0.9726216   -0.1816029 
   0.002650650     0.9724572   -0.0292550    -0.0048441    0.0044701     0.0001276   -0.0001287     0.9663437   -0.1923031 
   0.002750675     0.9974303   -0.0692023    -0.0009234    0.0022679    -0.0003723   -0.0000376     0.9592900   -0.1989221 
   0.002850700     0.9905277   -0.0767758    -0.0024212    0.0018601    -0.0002857   -0.0003146     0.9591753   -0.1974171 
   0.002950725     0.9573869   -0.0809562    -0.0038425    0.0035038    -0.0005298   -0.0007299     0.9616717   -0.2056718 
   0.003050750     0.9653370   -0.0587057    -0.0023826    0.0021692    -0.0001468    0.0003612     0.9502617   -0.2156355 
   0.003150775     0.9724777   -0.1481977    -0.0021929    0.0002222    -0.0002814   -0.0007189     0.9422069   -0.2194138 
   0.003250800     0.9895957   -0.0892729    -0.0000879    0.0002720     0.0002704    0.0004039     0.9494041   -0.2204462 
   0.003350825     1.0043460   -0.1156552    -0.0030058    0.0039453    -0.0003366   -0.0005674     0.9497113   -0.2290321 
   0.003450850     0.9694425   -0.1389145    -0.0014242    0.0047324    -0.0003741   -0.0000937     0.9403103   -0.2387558 
   0.003550875     0.9747045   -0.1099154    -0.0019838   -0.0012708    -0.0005625    0.0000909     0.9383500   -0.2474740 
   0.003650900     0.9896884   -0.1078617    -0.0014396    0.0037575     0.0004863   -0.0003229     0.9316047   -0.2531701 
   0.003750925     0.9616570   -0.1423787    -0.0026400    0.0021444     0.0004789   -0.0002803     0.9260305   -0.2560121 
   0.003850950     0.9745774   -0.1258288    -0.0008734    0.0004667    -0.0000434    0.0004570     0.9257981   -0.2624938 
   0.003950975     0.9989191   -0.0878190     0.0000832    0.0021250    -0.0005347    0.0003490     0.9216959   -0.2679946 
   0.004051001     0.9722416   -0.1837964    -0.0020662    0.0016291    -0.0001402   -0.0007746     0.9171384   -0.2740015 
   0.004151026     1.0226110   -0.1394227    -0.0005690    0.0018897    -0.0002054    0.0002398     0.9141313   -0.2791375 
   0.004251051     0.9485223   -0.1288004    -0.0014429    0.0008224     0.0001450    0.0003961     0.9141958   -0.2887289 
   0.004351076     0.9895527   -0.1336172     0.0007261    0.0000118    -0.0004848   -0.0003373     0.9086504   -0.2909627 
   0.004451101     0.9771002   -0.1637536    -0.0008047    0.0010985     0.0001101   -0.0006166     0.9038714   -0.2945997 
   0.004551126     0.9986085   -0.1392757    -0.0023865   -0.0003576    -0.0000509    0.0003147     0.9011791   -0.2967751 
   0.004651151     0.9575073   -0.1499328     0.0003952    0.0011836    -0.0001902   -0.0003647     0.9005987   -0.3073829 
   0.004751176     0.9809324   -0.1623002     0.0015602    0.0033753     0.0007671   -0.0002541     0.8938636   -0.3125675 
   0.004851201     0.9695689   -0.1677090     0.0019860    0.0024036     0.0002315   -0.0004082     0.8854381   -0.3145500 
   0.004951226     0.9476256   -0.1635541    -0.0021197    0.0005818     0.0002239    0.0001755     0.8864449   -0.3166206 
   0.005051251     1.0098530   -0.1877973     0.0008515   -0.0004734     0.0000114    0.0002742     0.8818634   -0.3196852 
   0.005151276     0.9575627   -0.1518473     0.0003566    0.0018883     0.0004759    0.0002989     0.8713842   -0.3298292 
   0.005251301     0.9564014   -0.1688299    -0.0015007    0.0009600     0.0006577   -0.0004415     0.8727162   -0.3345455 
   0.005351326     0.9621404   -0.1625865    -0.0005898   -0.0015409     0.0003835   -0.0005277     0.8690127   -0.3359688 
   0.005451351     0.9927007   -0.1907181    -0.0004651   -0.0006049    -0.0000820   -0.0007485     0.8633541   -0.3454211 
   0.005551376     0.9954756   -0.1892625    -0.0018987    0.0005061     0.0000504   -0.0008876     0.8576636   -0.3451888 
   0.005651401     0.9860238   -0.1759993     0.0016523    0.0032421     0.0001808   -0.0002668     0.8528206   -0.3564453 
   0.005751426     0.9380040   -0.1883652    -0.0014221    0.0015323    -0.0000669    0.0008465     0.8507150   -0.3584564 
   0.005851451     0.9471058   -0.2245663     0.0017509    0.0009177    -0.0002401    0.0002291     0.8411235   -0.3558330 
   0.005951476     0.9618641   -0.2040089    -0.0003970    0.0006781    -0.0000314    0.0003252     0.8410124   -0.3648434 
   0.006051501     0.9754120   -0.2240863     0.0002136    0.0010300    -0.0001051    0.0000289     0.8364074   -0.3736372 
   0.006151526     0.9665935   -0.2159124    -0.0015170    0.0008660     0.0001386    0.0001532     0.8291100   -0.3739467 
   0.006251551     0.9667011   -0.1886787     0.0006252    0.0024187    -0.0001649   -0.0004357     0.8249535   -0.3819267 
   0.006351576     0.9508569   -0.2301172    -0.0006690    0.0003292    -0.0001927   -0.0003214     0.8222747   -0.3777787 
   0.006451601     0.9473425   -0.2085367     0.0001756    0.0012158     0.0003581    0.0000188     0.8160439   -0.3876547 
   0.006551626     0.9499043   -0.2276224     0.0006645   -0.0003973    -0.0006172   -0.0002574     0.8114389   -0.3909559 
   0.006651651     0.9612228   -0.2329319    -0.0001209   -0.0003172    -0.0002037   -0.0003295     0.8047454   -0.3939585 
   0.006751676     0.9517918   -0.2709760    -0.0007421   -0.0014152     0.0000491    0.0000987     0.8012770   -0.3982540 
   0.006851701     0.9797052   -0.2486282     0.0020873    0.0000279     0.0000372   -0.0000609     0.7944043   -0.3992752 
   0.006951726     0.9289510   -0.2463153     0.0007226   -0.0007055    -0.0002497    0.0000346     0.7899640   -0.4014018 
   0.007051751     0.9410971   -0.2288938    -0.0009080   -0.0002466    -0.0001925    0.0003580     0.7862982   -0.4053328 
   0.007151776     0.9245991   -0.2458765     0.0001554    0.0000965     0.0006143   -0.0000671     0.7806372   -0.4105734 
   0.007251801     0.9621297   -0.2418077    -0.0007475    0.0001514    -0.0000659   -0.0001583     0.7780201   -0.4148301 
   0.007351826     0.9467404   -0.2503345     0.0012898    0.0015457     0.0001195    0.0002017     0.7741387   -0.4164065 
   0.007451851     0.9305226   -0.2454881    -0.0002288   -0.0001561    -0.0000237   -0.0004044     0.7685226   -0.4187429 
   0.007551876     0.9454202   -0.2557072     0.0005556    0.0007912     0.0005336    0.0001723     0.7657958   -0.4217955 
   0.007651901     0.9415187   -0.2758128    -0.0010717    0.0000296    -0.0000897   -0.0002411     0.7590995   -0.4187818 
   0.007751926     0.9413746   -0.2609737     0.0007199    0.0003526     0.0002336    0.0002683     0.7553478   -0.4268767 
   0.007851951     0.9595202   -0.2677813    -0.0002812    0.0001239     0.0000430   -0.0004494     0.7481516   -0.4292430 
   0.007951976     0.9375088   -0.2941506     0.0005384   -0.0001205    -0.0001682   -0.0002569     0.7417813   -0.4316125 
   0.008052001     0.9525777   -0.2851346    -0.0004940   -0.0006637     0.0003816    0.0004574     0.7387714   -0.4364577 
   0.008152026     0.9433976   -0.2866965     0.0010680    0.0001074    -0.0000898    0.0002177     0.7382793   -0.4378800 
   0.008252051     0.9377044   -0.2607102    -0.0003995   -0.0003134    -0.0001331   -0.0004412     0.7267126   -0.4393378 
   0.008352076     0.9494159   -0.2884026     0.0004963    0.0011443     0.0001201    0.0001524     0.7258722   -0.4421929 
   0.008452101     0.9380433   -0.2850222     0.0022806    0.0000639     0.0001150    0.0001081     0.7232197   -0.4451230 
   0.008552126     0.9556735   -0.2896024    -0.0010784   -0.0007012     0.0001472   -0.0002378     0.7185712   -0.4458539 
   0.008652151     0.9386343   -0.2787418    -0.0009625    0.0006549     0.0001751    0.0000181     0.7080971   -0.4519036 
   0.008752176     0.9571870   -0.2883871    -0.0000985   -0.0000743    -0.0002765   -0.0001074     0.7092057   -0.4560133 
   0.008852201     0.9235723   -0.2907076    -0.0013910    0.0002536     0.0000986    0.0005034     0.7006642   -0.4541138 
   0.008952226     0.9504670   -0.2968870    -0.0002863    0.0003099    -0.0002907    0.0004929     0.7001759   -0.4546241 
   0.009052251     0.9651657   -0.3108922    -0.0009124    0.0005459    -0.0000499    0.0002994     0.6923508   -0.4574395 
   0.009152276     0.9421967   -0.2996621     0.0006066    0.0002549    -0.0001061    0.0003318     0.6858462   -0.4623767 
   0.009252301     0.9292262   -0.3203275     0.0005643    0.0000932    -0.0000767    0.0003138     0.6829897   -0.4642364 
   0.009352326     0.9504662   -0.3197499    -0.0011120    0.0002005     0.0000546    0.0000686     0.6789929   -0.4623249 
   0.009452351     0.9255533   -0.3250333     0.0004051    0.0005667     0.0001453    0.0000964     0.6717766   -0.4640445 
   0.009552376     0.9328800   -0.3395116     0.0003121    0.0006980     0.0001141   -0.0003103     0.6686156   -0.4663809 
   0.009652401     0.9131923   -0.3363706    -0.0011195   -0.0004111     0.0000987   -0.0002538     0.6620372   -0.4651873 
   0.009752426     0.9217898   -0.3433813    -0.0003639    0.0003272    -0.0001369    0.0000137     0.6610591   -0.4694817 
   0.009852451     0.9246925   -0.3600323    -0.0000981    0.0005543    -0.0000733    0.0001166     0.6546972   -0.4716859 
   0.009952476     0.9214293   -0.3692139     0.0002493   -0.0005283    -0.0002950    0.0000929     0.6467935   -0.4676515 
   0.010052501     0.9101433   -0.3523727    -0.0002623   -0.0000944    -0.0001896   -0.0003208     0.6461451   -0.4690000 
   0.010152526     0.9086673   -0.3492554     0.0015722   -0.0003424    -0.0001072    0.0000996     0.6418737   -0.4704987 
   0.010252551     0.9112836   -0.3541739    -0.0002724    0.0005185    -0.0002285   -0.0000629     0.6381790   -0.4782579 
   0.010352576     0.9315252   -0.3753283    -0.0002990   -0.0006031     0.0001614    0.0003239     0.6329440   -0.4750119 
   0.010452601     0.9360341   -0.3602937    -0.0006930   -0.0005148     0.0002135    0.0000818     0.6287709   -0.4775677 
   0.010552626     0.8893855   -0.3845620    -0.0006402    0.0000741     0.0001009    0.0000175     0.6238931   -0.4818697 
   0.010652651     0.9137270   -0.3886489    -0.0002017   -0.0007202    -0.0000088   -0.0000514     0.6191847   -0.4789638 
   0.010752676     0.9065254   -0.4024689    -0.0000692    0.0005383    -0.0002198   -0.0001731     0.6151216   -0.4807089 
   0.010852701     0.9032889   -0.3739549    -0.0008619   -0.0002293     0.0000627   -0.0000882     0.6122755   -0.4808220 
   0.010952726     0.8930957   -0.3941926    -0.0000076   -0.0006234     0.0000324    0.0001120     0.6066459   -0.4820401 
   0.011052751     0.8957455   -0.4152699    -0.0003108   -0.0017880     0.0000834   -0.0001799     0.6021411   -0.4833854 
   0.011152776     0.8954550   -0.4046641    -0.0006388    0.0004437     0.0001596    0.0001887     0.5983905   -0.4857851 
   0.011252801     0.8899692   -0.4159721     0.0014027   -0.0002424    -0.0000310   -0.0001077     0.5923222   -0.4853645 
   0.011352826     0.8776544   -0.4263703    -0.0005218   -0.0010813     0.0002833    0.0001406     0.5912167   -0.4851972 
   0.011452851     0.8706383   -0.4237955    -0.0007825    0.0003444    -0.0001002   -0.0003430     0.5842413   -0.4871199 
   0.011552876     0.8771148   -0.4372835     0.0001957    0.0002816     0.0000206    0.0000425     0.5831754   -0.4897612 
   0.011652901     0.8718619   -0.4384421     0.0002598    0.0001542    -0.0001073    0.0000916     0.5781699   -0.4883170 
   0.011752926     0.8604275   -0.4259735    -0.0010705   -0.0001054    -0.0000576   -0.0001455     0.5751938   -0.4856674 
   0.011852951     0.8601091   -0.4508555    -0.0002124    0.0011526     0.0001013    0.0001172     0.5721619   -0.4918792 
   0.011952976     0.8696923   -0.4443708    -0.0000180    0.0002805    -0.0000609   -0.0002015     0.5644481   -0.4885148 
   0.012053002     0.8469234   -0.4713744     0.0000127    0.0003715    -0.0000893    0.0001817     0.5618888   -0.4899322 
   0.012153027     0.8599056   -0.4625767    -0.0007400    0.0000516    -0.0001794    0.0002094     0.5572091   -0.4915492 
   0.012253052     0.8404432   -0.4566741     0.0005551    0.0004640    -0.0001216   -0.0003432     0.5552957   -0.4907123 
   0.012353077     0.8468775   -0.4727283    -0.0001123    0.0000429    -0.0002847   -0.0003398     0.5525801   -0.4912561 
   0.012453102     0.8494092   -0.4711081    -0.0004455    0.0008724     0.0001904   -0.0000641     0.5471659   -0.4932199 
   0.012553127     0.8330972   -0.4973059     0.0006922    0.0008639    -0.0003196    0.0001543     0.5397085   -0.4917361 
   0.012653152     0.8581445   -0.4790701     0.0004499    0.0001470     0.0000991    0.0001146     0.5392138   -0.4934070 
   0.012753177     0.8295932   -0.4801909     0.0006465    0.0001720    -0.0001193    0.0000352     0.5347727   -0.4905485 
   0.012853202     0.8278624   -0.4807038     0.0004815   -0.0005994    -0.0000951   -0.0001088     0.5286159   -0.4909489 
   0.012953227     0.8288634   -0.5009531     0.0006304   -0.0004518    -0.0001777   -0.0000635     0.5286095   -0.4939674 
   0.013053252     0.7978154   -0.5212405     0.0001149    0.0012451    -0.0001693    0.0000654     0.5238568   -0.4930140 
   0.013153277     0.8115373   -0.5243318    -0.0000418    0.0008132     0.0000731    0.0000597     0.5192498   -0.4939802 
   0.013253302     0.8070436   -0.5287852     0.0009041    0.0001713    -0.0000299    0.0001044     0.5172505   -0.4920290 
   0.013353327     0.7976540   -0.5351509    -0.0005360    0.0005179     0.0001565    0.0000732     0.5115476   -0.4937728 
   0.013453352     0.7900157   -0.5301521     0.0002859   -0.0001724     0.0001524   -0.0000585     0.5068625   -0.4925309 
   0.013553377     0.7683756   -0.5451952    -0.0009587   -0.0000019    -0.0003405   -0.0000030     0.5035877   -0.4944764 
   0.013653402     0.7745777   -0.5521117    -0.0003578    0.0003816    -0.0000625    0.0001948     0.5005579   -0.4905883 
   0.013753427     0.7697024   -0.5771486     0.0006344   -0.0000503     0.0001507   -0.0002499     0.4982358   -0.4906807 
   0.013853452     0.7596496   -0.5888806    -0.0000292   -0.0006378    -0.0003545    0.0000364     0.4973943   -0.4923306 
   0.013953477     0.7280082   -0.5688707    -0.0005694   -0.0006758    -0.0000617   -0.0000947     0.4910509   -0.4957159 
   0.014053502     0.7238150   -0.6066401    -0.0003708   -0.0009190    -0.0003191    0.0000316     0.4872846   -0.4921356 
   0.014153527     0.7121934   -0.6013281     0.0003238   -0.0005626    -0.0000363   -0.0001310     0.4873150   -0.4906158 
   0.014253552     0.7128712   -0.6206959    -0.0005362   -0.0000146     0.0000013    0.0000199     0.4818316   -0.4922933 
   0.014353577     0.6768798   -0.6145740     0.0003163   -0.0001013    -0.0002638    0.0001616     0.4750206   -0.4905489 
   0.014453602     0.6640925   -0.6258950    -0.0008851   -0.0003166    -0.0002078   -0.0002215     0.4742840   -0.4893282 
   0.014553627     0.6539961   -0.6433707     0.0001021   -0.0000470    -0.0001043   -0.0000373     0.4711910   -0.4916873 
   0.014653652     0.6387618   -0.6594284    -0.0000835    0.0008505    -0.0000480   -0.0000973     0.4654821   -0.4911557 
   0.014753677     0.6038189   -0.6618404     0.0007959    0.0004455    -0.0002279    0.0001613     0.4623531   -0.4895767 
   0.014853702     0.5956004   -0.6691000     0.0003213    0.0005143    -0.0000637   -0.0001900     0.4593397   -0.4892294 
   0.014953727     0.5423765   -0.6968526     0.0001733   -0.0005559    -0.0002187    0.0000838     0.4573724   -0.4890070 
   0.015053752     0.5220683   -0.6919819    -0.0000021   -0.0002716    -0.0000572   -0.0000741     0.4531517   -0.4891790 
   0.015153777     0.4788742   -0.6994659     0.0002598   -0.0000126     0.0000731   -0.0000410     0.4527600   -0.4906002 
   0.015253802     0.4305719   -0.7029830     0.0004183    0.0000168    -0.0001298    0.0000754     0.4481407   -0.4893451 
   0.015353827     0.3848535   -0.7028531     0.0005949    0.0006247    -0.0001564    0.0000859     0.4460353   -0.4880644 
   0.015453852     0.3359536   -0.6938912     0.0002867   -0.0002476    -0.0002050    0.0000368     0.4406574   -0.4865033 
   0.015553877     0.2654126   -0.6771719    -0.0005340    0.0000141    -0.0000517    0.0000988     0.4395225   -0.4859116 
   0.015653902     0.2062111   -0.6520953    -0.0004110   -0.0006778    -0.0000876    0.0000330     0.4359398   -0.4898674 
   0.015753927     0.1380451   -0.6043981    -0.0001756    0.0003773    -0.0000808    0.0000659     0.4325167   -0.4859751 
   0.015853952     0.0586282   -0.5431597    -0.0007139   -0.0002514    -0.0000077   -0.0000271     0.4309464   -0.4855661 
   0.015953977    -0.0000117   -0.4543863    -0.0000030   -0.0001200     0.0001179    0.0002080     0.4264866   -0.4838595 
   0.016054002    -0.0447047   -0.3360026     0.0010337    0.0003739    -0.0002576    0.0001247     0.4247121   -0.4864200 
   0.016154027    -0.0631235   -0.2093823    -0.0010421   -0.0002045    -0.0001346    0.0002796     0.4210266   -0.4858541 
   0.016254052    -0.0402672   -0.0693247     0.0003799    0.0005818    -0.0001119    0.0002731     0.4168456   -0.4832784 
   0.016354077     0.0256536    0.0577942     0.0004502   -0.0002368    -0.0001493   -0.0001065     0.4154759   -0.4820218 
   0.016454102     0.1216348    0.1608975     0.0001312    0.0004102    -0.0000408    0.0002415     0.4113078   -0.4845114 
   0.016554127     0.2341780    0.2210670     0.0002094    0.0005243    -0.0000241    0.0000133     0.4086073   -0.4835244 
   0.016654152     0.3487650    0.2584297     0.0001824   -0.0002459    -0.0002471    0.0001757     0.4047829   -0.4826889 
   0.016754177     0.4532183    0.2572387     0.0008278   -0.0005009    -0.0000120   -0.0000579     0.4030336   -0.4801866 
   0.016854202     0.5430024    0.2447334    -0.0009217   -0.0005151     0.0002365    0.0001610     0.4019024   -0.4801580 
   0.016954227     0.6332750    0.2298560    -0.0010179    0.0009724     0.0002512   -0.0001003     0.3984387   -0.4808826 
   0.017054252     0.6905560    0.1854194     0.0003477    0.0002290    -0.0002068   -0.0000160     0.3939974   -0.4773101 
   0.017154277     0.7255855    0.1485111     0.0012997   -0.0003234     0.0000547   -0.0001176     0.3920516   -0.4782976 
   0.017254302     0.7615128    0.1119410    -0.0007473   -0.0007741     0.0001968   -0.0001532     0.3902490   -0.4772699 
   0.017354327     0.8170020    0.0754914     0.0002978    0.0004055    -0.0001439    0.0000796     0.3889938   -0.4777321 
   0.017454352     0.8245060    0.0363777    -0.0000345    0.0005755     0.0001927    0.0002010     0.3823763   -0.4767780 
   0.017554377     0.8529143   -0.0022767     0.0002609    0.0009760    -0.0000786    0.0001011     0.3817915   -0.4767470 
   0.017654402     0.8546404   -0.0185042    -0.0000340    0.0000677    -0.0000148    0.0000005     0.3783921   -0.4758391 
   0.017754427     0.8555340   -0.0653498     0.0006897   -0.0001669    -0.0000133    0.0001158     0.3782868   -0.4731315 
   0.017854452     0.8846520   -0.0887080    -0.0000258    0.0003981     0.0000676   -0.0000437     0.3749847   -0.4747204 
   0.017954477     0.8695248   -0.0991059     0.0001161    0.0013025    -0.0000629   -0.0000181     0.3739267   -0.4714810 
   0.018054502     0.8882071   -0.1237349    -0.0007886   -0.0000731    -0.0000059    0.0000427     0.3702164   -0.4723284 
   0.018154527     0.8843447   -0.1524768    -0.0001580   -0.0001805    -0.0002004   -0.0002429     0.3680992   -0.4723776 
   0.018254552     0.8914413   -0.1590519    -0.0009821   -0.0000255    -0.0001876    0.0000037     0.3642376   -0.4720660 
   0.018354577     0.9026379   -0.1851858    -0.0000932    0.0003196    -0.0001004   -0.0000192     0.3610548   -0.4700212 
   0.018454602     0.8863440   -0.2030401    -0.0000181    0.0006301     0.0000428   -0.0000151     0.3596233   -0.4707595 
   0.018554627     0.8974442   -0.2226504     0.0002366   -0.0001582    -0.0000991   -0.0001171     0.3585259   -0.4695176 
   0.018654652     0.8992702   -0.2399918    -0.0000414   -0.0003675    -0.0001070    0.0002044     0.3542632   -0.4675789 
   0.018754677     0.8935999   -0.2480831     0.0004795    0.0003074    -0.0001109    0.0002066     0.3535727   -0.4681767 
   0.018854702     0.8981122   -0.2519488     0.0004135    0.0005746     0.0000361    0.0002497     0.3533989   -0.4652078 
   0.018954727     0.9019777   -0.2662890    -0.0002750    0.0009949    -0.0003047    0.0000176     0.3493288   -0.4659967 
   0.019054752     0.8952281   -0.2739270     0.0007787    0.0001511    -0.0001181    0.0001941     0.3452799   -0.4643294 
   0.019154777     0.8864290   -0.3023045    -0.0010673   -0.0002613     0.0002187    0.0000179     0.3442844   -0.4640008 
   0.019254802     0.8859416   -0.3108784     0.0006582   -0.0008008    -0.0001662   -0.0000622     0.3404192   -0.4643269 
   0.019354827     0.8747116   -0.3136683     0.0007413    0.0004422    -0.0000196    0.0000975     0.3395679   -0.4635501 
   0.019454852     0.8780040   -0.3253087    -0.0006706    0.0000954    -0.0003779    0.0000466     0.3373739   -0.4641674 
   0.019554877     0.8682646   -0.3345883    -0.0000452    0.0015102    -0.0001384    0.0001056     0.3365287   -0.4618569 
   0.019654902     0.8862444   -0.3435343    -0.0000301    0.0001134    -0.0001369   -0.0000204     0.3352560   -0.4613656 
   0.019754927     0.8744649   -0.3552137    -0.0001183    0.0000476     0.0001202   -0.0001181     0.3311445   -0.4604187 
   0.019854952     0.8648086   -0.3637416     0.0004522   -0.0010171     0.0001153    0.0000212     0.3289748   -0.4581949 
   0.019954977     0.8640218   -0.3692987     0.0002045   -0.0007723    -0.0000033   -0.0000660     0.3284086   -0.4578494 
   0.020055003     0.8709769   -0.3820212    -0.0006395   -0.0007931    -0.0001009    0.0000493     0.3256775   -0.4578067 
   0.020155028     0.8577365   -0.3832406    -0.0003790    0.0006828     0.0000491   -0.0001100     0.3225749   -0.4579905 
   0.020255053     0.8562447   -0.3941869    -0.0004354   -0.0008860    -0.0000365   -0.0000882     0.3203949   -0.4557845 
   0.020355078     0.8545349   -0.4099907    -0.0001434    0.0001005    -0.0001860   -0.0000031     0.3185062   -0.4560949 
   0.020455103     0.8620124   -0.4100568     0.0002490    0.0002532     0.0000712    0.0000174     0.3192414   -0.4544868 
   0.020555128     0.8453808   -0.4262314     0.0003186    0.0002203    -0.0002457    0.0001610     0.3150232   -0.4538816 
   0.020655153     0.8469400   -0.4210306    -0.0004234    0.0002426     0.0000287   -0.0000840     0.3132477   -0.4517890 
   0.020755178     0.8395331   -0.4360819    -0.0003092    0.0005011    -0.0000847    0.0000918     0.3103404   -0.4525063 
   0.020855203     0.8406342   -0.4334070     0.0004662    0.0003572    -0.0002083    0.0002760     0.3080011   -0.4511650 
   0.020955228     0.8420070   -0.4350686    -0.0000677    0.0000729     0.0000069    0.0000453     0.3054684   -0.4493894 
   0.021055253     0.8306079   -0.4556248     0.0004767   -0.0005151     0.0001535    0.0000427     0.3063909   -0.4478149 
   0.021155278     0.8393223   -0.4616243     0.0004636    0.0004353    -0.0001420    0.0000049     0.3052627   -0.4483890 
   0.021255303     0.8188584   -0.4602055    -0.0004725   -0.0000282    -0.0001615    0.0000385     0.3014110   -0.4474800 
   0.021355328     0.8340937   -0.4660562    -0.0004010   -0.0002558    -0.0003059    0.0000476     0.3007132   -0.4465804 
   0.021455353     0.8174342   -0.4684450    -0.0007132    0.0000424    -0.0002334   -0.0000617     0.2980715   -0.4470152 
   0.021555378     0.8197916   -0.4802268     0.0005180    0.0001431    -0.0000127    0.0000643     0.2962107   -0.4437325 
   0.021655403     0.8149021   -0.4818776    -0.0001533    0.0001820    -0.0000732   -0.0001797     0.2959773   -0.4437281 
   0.021755428     0.8122910   -0.4852803     0.0001614   -0.0002734     0.0000482    0.0001387     0.2933558   -0.4437439 
   0.021855453     0.8122257   -0.4898665     0.0003837   -0.0001793    -0.0000689   -0.0000124     0.2908347   -0.4403840 
   0.021955478     0.8008363   -0.4954073     0.0001724   -0.0000300    -0.0000606   -0.0000378     0.2909825   -0.4416460 
   0.022055503     0.8126150   -0.5049962    -0.0004461   -0.0002132    -0.0002600   -0.0001759     0.2860342   -0.4399753 
   0.022155528     0.8064882   -0.5131772    -0.0001253    0.0001554    -0.0000746    0.0002226     0.2848942   -0.4401682 
   0.022255553     0.7905726   -0.5191201     0.0003363   -0.0001729    -0.0000553   -0.0001152     0.2836342   -0.4386129 
   0.022355578     0.7925976   -0.5172133    -0.0003688    0.0003367    -0.0001875   -0.0001386     0.2818670   -0.4391600 
   0.022455603     0.7914709   -0.5366294     0.0003059    0.0003262    -0.0000605   -0.0000798     0.2797928   -0.4360442 
   0.022555628     0.7865937   -0.5323116     0.0004803    0.0003340    -0.0000030    0.0000806     0.2783207   -0.4364917 
   0.022655653     0.7934490   -0.5279513     0.0003553    0.0001721    -0.0001256   -0.0001070     0.2766092   -0.4353518 
   0.022755678     0.7687272   -0.5449837    -0.0007570   -0.0000797    -0.0000193    0.0001074     0.2776674   -0.4342904 
   0.022855703     0.7745183   -0.5470608    -0.0009030    0.0006446    -0.0001630   -0.0000917     0.2744455   -0.4342797 
   0.022955728     0.7771812   -0.5485858    -0.0000901   -0.0002924    -0.0001162    0.0000391     0.2720479   -0.4324004 
   0.023055753     0.7664748   -0.5548852    -0.0003847    0.0000102    -0.0002911    0.0000058     0.2728895   -0.4326784 
   0.023155778     0.7704582   -0.5587588    -0.0000357   -0.0001995    -0.0001912   -0.0001371     0.2695172   -0.4315456 
   0.023255803     0.7596439   -0.5692412    -0.0002229   -0.0002309    -0.0000983    0.0001069     0.2679188   -0.4299697 
   0.023355828     0.7515506   -0.5679495    -0.0002260   -0.0005753    -0.0001877    0.0000534     0.2670777   -0.4305921 
   0.023455853     0.7528520   -0.5730482     0.0004359    0.0003966     0.0000491   -0.0000425     0.2643312   -0.4285063 
   0.023555878     0.7485027   -0.5833137    -0.0004538   -0.0002685    -0.0002106    0.0000021     0.2640319   -0.4288948 
   0.023655903     0.7409831   -0.5732890     0.0004568   -0.0001291    -0.0000091    0.0000663     0.2631405   -0.4271852 
   0.023755928     0.7383906   -0.5898513    -0.0002346   -0.0001609    -0.0001840    0.0000395     0.2601248   -0.4248836 
   0.023855953     0.7367771   -0.5889162     0.0005397    0.0003411    -0.0001036   -0.0000714     0.2582886   -0.4256997 
   0.023955978     0.7274643   -0.5966734    -0.0004586    0.0004782    -0.0000111    0.0001644     0.2578029   -0.4255741 
   0.024056003     0.7384741   -0.6001264     0.0002792    0.0001632    -0.0000820    0.0000257     0.2550200   -0.4237303 
   0.024156028     0.7181954   -0.5987980     0.0002470    0.0001632    -0.0000900    0.0000702     0.2547189   -0.4222594 
   0.024256053     0.7204886   -0.6050417     0.0001333    0.0001381     0.0000937   -0.0000459     0.2525187   -0.4212430 
   0.024356078     0.7134774   -0.6120791    -0.0004038    0.0001916    -0.0001046    0.0000877     0.2526848   -0.4221025 
   0.024456103     0.7021559   -0.6072937     0.0001899    0.0005750    -0.0001302    0.0000375     0.2496742   -0.4199122 
   0.024556128     0.7074163   -0.6153847    -0.0002032    0.0001836    -0.0001339    0.0000872     0.2481557   -0.4203200 
   0.024656153     0.7026681   -0.6250635     0.0002268   -0.0000923    -0.0000684    0.0000610     0.2486335   -0.4177590 
   0.024756178     0.6977192   -0.6308002    -0.0000321    0.0001338    -0.0000743    0.0000736     0.2471802   -0.4182018 
   0.024856203     0.6971493   -0.6393265    -0.0002836    0.0001739     0.0000344    0.0001152     0.2455010   -0.4154019 
   0.024956228     0.6977596   -0.6322142     0.0003107    0.0003327    -0.0001133   -0.0000345     0.2430723   -0.4165076 
   0.025056253     0.6788414   -0.6397980    -0.0001943   -0.0004315    -0.0001852    0.0001067     0.2430288   -0.4167113 
   0.025156278     0.6805755   -0.6503499     0.0003127   -0.0001338    -0.0001304   -0.0000001     0.2403447   -0.4146184 
   0.025256303     0.6749287   -0.6437384     0.0001781    0.0001271    -0.0002018    0.0000265     0.2393763   -0.4128756 
   0.025356328     0.6757821   -0.6574722     0.0001244    0.0006332    -0.0001245   -0.0000202     0.2389517   -0.4126437 
   0.025456353     0.6599811   -0.6605676    -0.0001530    0.0001084    -0.0001138    0.0000912     0.2374856   -0.4123683 
   0.025556378     0.6596069   -0.6634076    -0.0002706   -0.0002359    -0.0000977    0.0000552     0.2374881   -0.4110535 
   0.025656403     0.6599169   -0.6759541     0.0002406    0.0002198    -0.0000050    0.0000230     0.2334325   -0.4101663 
   0.025756428     0.6536716   -0.6770917     0.0004589   -0.0002315    -0.0000749    0.0000826     0.2329028   -0.4081869 
   0.025856453     0.6461252   -0.6772408     0.0000921   -0.0000851    -0.0001788    0.0000027     0.2315648   -0.4075964 
   0.025956478     0.6392425   -0.6793234    -0.0002188    0.0001579    -0.0000945    0.0000632     0.2315952   -0.4082219 
   0.026056503     0.6303928   -0.6846952    -0.0004908   -0.0000763    -0.0001028    0.0000496     0.2306618   -0.4069631 
   0.026156528     0.6211688   -0.6850058     0.0001991    0.0000663    -0.0001274   -0.0000159     0.2279008   -0.4062170 
   0.026256553     0.6258609   -0.6881773    -0.0001077   -0.0003348    -0.0001335   -0.0000188     0.2272455   -0.4049736 
   0.026356578     0.6186429   -0.7005396    -0.0004350   -0.0001374    -0.0001354    0.0000755     0.2265583   -0.4047908 
   0.026456603     0.6055942   -0.7058077    -0.0004858   -0.0000586    -0.0000990    0.0001102     0.2237875   -0.4031689 
   0.026556628     0.6015874   -0.7046186    -0.0000256   -0.0003722    -0.0002707    0.0000174     0.2229192   -0.4029038 
   0.026656653     0.5932175   -0.7057546    -0.0002080    0.0000786    -0.0002753    0.0000963     0.2222539   -0.4014149 
   0.026756678     0.5850845   -0.7160706     0.0000005    0.0000781    -0.0000531    0.0000403     0.2225118   -0.4015781 
   0.026856703     0.5823831   -0.7252974    -0.0000528   -0.0000828    -0.0001282    0.0001553     0.2215651   -0.4007275 
   0.026956728     0.5787823   -0.7201926     0.0000322    0.0001923    -0.0002441    0.0000858     0.2196959   -0.3988881 
   0.027056753     0.5681700   -0.7296505    -0.0001135    0.0000707    -0.0000781    0.0000943     0.2166997   -0.3981273 
   0.027156778     0.5588400   -0.7318453    -0.0000654    0.0001244    -0.0001719    0.0000975     0.2171129   -0.3970576 
   0.027256803     0.5547801   -0.7250008    -0.0001230   -0.0001856    -0.0001534    0.0000935     0.2146578   -0.3976301 
   0.027356828     0.5507283   -0.7382314    -0.0001777    0.0001670    -0.0001548   -0.0000150     0.2146115   -0.3957396 
   0.027456853     0.5346670   -0.7465001    -0.0002415    0.0001202    -0.0001786    0.0001061     0.2126254   -0.3965829 
   0.027556878     0.5328685   -0.7408465    -0.0001527    0.0002250    -0.0001340    0.0000918     0.2113942   -0.3935361 
   0.027656903     0.5290434   -0.7538243    -0.0002515    0.0001110    -0.0000816    0.0001926     0.2124125   -0.3936862 
   0.027756928     0.5111278   -0.7490788    -0.0002974    0.0001176    -0.0001995    0.0001284     0.2107426   -0.3932055 
   0.027856953     0.5086359   -0.7569408    -0.0000583    0.0001737    -0.0001766    0.0000695     0.2099856   -0.3921747 
   0.027956978     0.5000947   -0.7544785    -0.0001552    0.0004605    -0.0001443    0.0000974     0.2070645   -0.3916076 
   0.028057004     0.4899918   -0.7591883    -0.0002742    0.0003827    -0.0001605    0.0001091     0.2066835   -0.3889439 
   0.028157029     0.4787351   -0.7664632    -0.0002974    0.0002768    -0.0000737    0.0000417     0.2061480   -0.3889841 
   0.028257054     0.4653018   -0.7685137     0.0000799   -0.0000261    -0.0002197    0.0000833     0.2056302   -0.3904389 
   0.028357079     0.4574639   -0.7686312    -0.0001492    0.0002362    -0.0001217    0.0001341     0.2024351   -0.3875149 
   0.028457104     0.4453998   -0.7743882     0.0000536    0.0004335    -0.0001031    0.0001062     0.2026552   -0.3876021 
   0.028557129     0.4351409   -0.7835278    -0.0001273    0.0002276    -0.0002095    0.0000608     0.2022898   -0.3873878 
   0.028657154     0.4318730   -0.7832965    -0.0000474   -0.0001738    -0.0001898    0.0000933     0.2008319   -0.3850145 
   0.028757179     0.4207689   -0.7868652    -0.0003922   -0.0000362    -0.0000796    0.0001661     0.2002094   -0.3850551 
   0.028857204     0.4046866   -0.7878804     0.0000859   -0.0001097    -0.0002252    0.0001834     0.1986865   -0.3844172 
   0.028957229     0.3933019   -0.7901303    -0.0001894    0.0001333    -0.0001722    0.0001102     0.1984329   -0.3833771 
   0.029057254     0.3843379   -0.8002065    -0.0000803   -0.0001127    -0.0001253    0.0000606     0.1979692   -0.3837862 
   0.029157279     0.3672118   -0.7933074    -0.0000640    0.0001952    -0.0002604    0.0000608     0.1956285   -0.3825582 
   0.029257304     0.3545778   -0.8010039    -0.0006342   -0.0001583    -0.0001681    0.0001471     0.1946499   -0.3802589 
   0.029357329     0.3388544   -0.7949235    -0.0005737    0.0001821    -0.0002557    0.0001544     0.1949370   -0.3801927 
   0.029457354     0.3332152   -0.8039836    -0.0000949   -0.0000536    -0.0001583    0.0001857     0.1937679   -0.3791351 
   0.029557379     0.3125696   -0.8084590    -0.0002199    0.0003124    -0.0001760    0.0000141     0.1921861   -0.3794860 
   0.029657404     0.3042345   -0.8048054     0.0003049    0.0000330    -0.0001801    0.0000941     0.1919598   -0.3786936 
   0.029757429     0.2824865   -0.8058050    -0.0002816   -0.0000600    -0.0001911    0.0001136     0.1904884   -0.3775647 
   0.029857454     0.2648946   -0.7987322     0.0002513    0.0001747    -0.0002618    0.0001853     0.1896508   -0.3771729 
   0.029957479     0.2569914   -0.8019368    -0.0001131    0.0002094    -0.0001136    0.0000001     0.1889536   -0.3758105 
   0.030057504     0.2355935   -0.8022581    -0.0001474    0.0001494    -0.0001295    0.0000948     0.1882240   -0.3745376 
   0.030157529     0.2234057   -0.7986821    -0.0000930   -0.0000002    -0.0002515    0.0001182     0.1871632   -0.3735970 
   0.030257554     0.2046088   -0.7948748    -0.0004266   -0.0000056    -0.0002442    0.0001269     0.1865490   -0.3729679 
   0.030357579     0.1931192   -0.7925258    -0.0004517   -0.0000282    -0.0002684    0.0001036     0.1852272   -0.3731553 
   0.030457604     0.1655086   -0.7967743    -0.0003566    0.0003317    -0.0001982    0.0001932     0.1852444   -0.3730661 
   0.030557629     0.1459219   -0.7913754    -0.0004027   -0.0001111    -0.0002455    0.0002453     0.1835149   -0.3717824 
   0.030657654     0.1217695   -0.7849245    -0.0007076    0.0004496    -0.0002241    0.0001299     0.1828072   -0.3714085 
   0.030757679     0.1015849   -0.7768010    -0.0002250   -0.0000189    -0.0003091    0.0001245     0.1819379   -0.3708744 
   0.030857704     0.0801919   -0.7773466    -0.0001714    0.0001383    -0.0001323    0.0001580     0.1814499   -0.3697048 
   0.030957729     0.0605003   -0.7745433    -0.0000276    0.0003259    -0.0001456    0.0000303     0.1794738   -0.3693354 
   0.031057754     0.0406170   -0.7533894    -0.0003650    0.0003695    -0.0002908    0.0003530     0.1804821   -0.3684185 
   0.031157779     0.0054992   -0.7549677    -0.0000450    0.0000538    -0.0001249    0.0002868     0.1788149   -0.3668924 
   0.031257804    -0.0201812   -0.7359510    -0.0004169    0.0004569    -0.0001492    0.0002659     0.1782264   -0.3668777 
   0.031357829    -0.0382266   -0.7243870     0.0001536    0.0002750    -0.0003495    0.0001218     0.1775677   -0.3656299 
   0.031457854    -0.0594063   -0.7047218    -0.0003701   -0.0000338    -0.0002498    0.0001987     0.1762229   -0.3660007 
   0.031557879    -0.0929509   -0.6836201    -0.0003558    0.0008698    -0.0001104    0.0002277     0.1752702   -0.3642165 
   0.031657904    -0.1160841   -0.6618760    -0.0007718    0.0004125    -0.0001964    0.0001171     0.1744336   -0.3637248 
   0.031757929    -0.1426718   -0.6431493    -0.0002675   -0.0000755    -0.0001568    0.0001667     0.1729007   -0.3632779 
   0.031857954    -0.1711889   -0.6164728     0.0004167   -0.0002112    -0.0003387    0.0001803     0.1740089   -0.3621933 
   0.031957979    -0.1893501   -0.5900459    -0.0002829    0.0001735    -0.0001377    0.0003199     0.1724504   -0.3614717 
   0.032058004    -0.2182226   -0.5581567    -0.0000429    0.0004296    -0.0002928    0.0005279     0.1707631   -0.3619415 
   0.032158029    -0.2421684   -0.5185334    -0.0001510   -0.0000602    -0.0000792    0.0003061     0.1716259   -0.3596693 
   0.032258054    -0.2645060   -0.4770711    -0.0006145    0.0006433    -0.0003552    0.0001361     0.1697531   -0.3597192 
   0.032358079    -0.2829060   -0.4357229    -0.0003177    0.0004787    -0.0000770    0.0001487     0.1693397   -0.3575507 
   0.032458104    -0.3014174   -0.3893150     0.0000162    0.0003953    -0.0000871    0.0000204     0.1687581   -0.3589097 
   0.032558129    -0.3128076   -0.3344535    -0.0000349    0.0002511    -0.0000996    0.0003821     0.1672329   -0.3582291 
   0.032658154    -0.3184262   -0.2806007    -0.0001967    0.0001984    -0.0003532    0.0003224     0.1665198   -0.3566171 
   0.032758179    -0.3205766   -0.2274776    -0.0005837    0.0004455    -0.0000435    0.0000684     0.1667640   -0.3559798 
   0.032858204    -0.3143553   -0.1660172    -0.0000290    0.0005808    -0.0000952    0.0005436     0.1644948   -0.3564675 
   0.032958229    -0.3078342   -0.1079932    -0.0003085    0.0001961    -0.0000599    0.0003371     0.1641549   -0.3536227 
   0.033058254    -0.2891005   -0.0502502    -0.0008093    0.0003327    -0.0001310    0.0002224     0.1643075   -0.3548207 
   0.033158279    -0.2669487    0.0133130    -0.0002860    0.0008870    -0.0002186    0.0001940     0.1635714   -0.3523677 
   0.033258304    -0.2348527    0.0742418    -0.0004649    0.0001451    -0.0001661    0.0005801     0.1620350   -0.3524986 
   0.033358329    -0.1923824    0.1281933     0.0003582    0.0006183    -0.0000011    0.0004746     0.1622670   -0.3524731 
   0.033458354    -0.1479655    0.1766447    -0.0000027   -0.0007228     0.0002145    0.0003017     0.1618029   -0.3516181 
   0.033558379    -0.1014311    0.2211596    -0.0007343    0.0000399     0.0002094    0.0003837     0.1607173   -0.3501479 
   0.033658404    -0.0450825    0.2591455     0.0000976   -0.0003472    -0.0000654    0.0002671     0.1599297   -0.3496098 
   0.033758429     0.0157411    0.2918236    -0.0001158   -0.0000984     0.0001595    0.0003398     0.1595795   -0.3492808 
   0.033858454     0.0767785    0.3107110     0.0005317   -0.0002937     0.0001396    0.0003563     0.1586684   -0.3483069 
   0.033958479     0.1430493    0.3332657    -0.0000539    0.0002410     0.0000998    0.0003193     0.1578189   -0.3479823 
   0.034058504     0.2039584    0.3411992     0.0006714    0.0007552     0.0001414    0.0002818     0.1574743   -0.3487427 
   0.034158529     0.2634342    0.3393011     0.0005145    0.0003058    -0.0000714    0.0002048     0.1566125   -0.3465185 
   0.034258554     0.3219443    0.3332085    -0.0001661    0.0004687     0.0003532    0.0001726     0.1565792   -0.3466962 
   0.034358579     0.3770860    0.3241411     0.0002285    0.0008185     0.0002060    0.0001962     0.1551581   -0.3454187 
   0.034458604     0.4333587    0.3103466    -0.0004600   -0.0003190     0.0000146   -0.0000402     0.1555042   -0.3443264 
   0.034558629     0.4788660    0.2864340    -0.0005708    0.0002989     0.0001503    0.0002962     0.1529160   -0.3446614 
   0.034658654     0.5211756    0.2680977     0.0005279    0.0004173     0.0002104    0.0003221     0.1534032   -0.3436238 
   0.034758679     0.5663407    0.2407288     0.0006154    0.0003340    -0.0000593   -0.0000966     0.1532263   -0.3428203 
   0.034858704     0.6046202    0.2141978     0.0000058    0.0010240     0.0002068    0.0001535     0.1509191   -0.3421803 
   0.034958729     0.6335484    0.1885139    -0.0000791   -0.0005534    -0.0001956   -0.0000127     0.1517873   -0.3415982 
   0.035058754     0.6602911    0.1560262    -0.0001742   -0.0001883     0.0000842    0.0000764     0.1501558   -0.3413911 
   0.035158779     0.6883650    0.1279641     0.0004022    0.0003465    -0.0000421    0.0001184     0.1487649   -0.3399904 
   0.035258804     0.7110285    0.0976892     0.0004771   -0.0002204    -0.0000172    0.0001072     0.1496840   -0.3396067 
   0.035358829     0.7262996    0.0686907    -0.0001281    0.0002208     0.0001347    0.0001990     0.1492260   -0.3383020 
   0.035458854     0.7437279    0.0382278     0.0005644    0.0001309    -0.0000297    0.0002680     0.1479849   -0.3391169 
   0.035558879     0.7620407    0.0141693     0.0001625    0.0003537     0.0000513    0.0000726     0.1496025   -0.3375989 
   0.035658904     0.7691905   -0.0227482     0.0007921    0.0000962    -0.0001768    0.0001648     0.1474656   -0.3369121 
   0.035758929     0.7767928   -0.0432640     0.0003028    0.0003766     0.0000599    0.0000017     0.1471531   -0.3365942 
   0.035858954     0.7879612   -0.0700102    -0.0003743    0.0000013     0.0000103    0.0000800     0.1458151   -0.3352176 
   0.035958979     0.7958391   -0.0972492    -0.0001765    0.0003505     0.0000315    0.0001359     0.1462947   -0.3359306 
   0.036059005     0.8027047   -0.1206029     0.0002222    0.0004423    -0.0000117    0.0000465     0.1457968   -0.3337446 
   0.036159030     0.8059793   -0.1438438    -0.0000277    0.0001678     0.0000245    0.0001794     0.1440149   -0.3346521 
   0.036259055     0.7997909   -0.1701607    -0.0002045   -0.0000287     0.0000041    0.0000612     0.1433350   -0.3339896 
   0.036359080     0.8071212   -0.1909426     0.0001074    0.0000119     0.0000530    0.0000860     0.1435597   -0.3336901 
   0.036459105     0.8109292   -0.2145613    -0.0002404    0.0001256    -0.0000310    0.0001070     0.1428473   -0.3332452 
   0.036559130     0.8096130   -0.2288917     0.0000443    0.0002668     0.0000072    0.0000471     0.1422238   -0.3315134 
   0.036659155     0.8087999   -0.2524125    -0.0000457    0.0000123    -0.0000132    0.0001221     0.1409818   -0.3310678 
   0.036759180     0.8069322   -0.2707669    -0.0000324    0.0002047    -0.0000038    0.0000090     0.1419450   -0.3311453 
   0.036859205     0.8046879   -0.2892176    -0.0001050    0.0001022    -0.0001922    0.0000683     0.1410845   -0.3303672 
   0.036959230     0.8004970   -0.3127197     0.0001527   -0.0001642     0.0000348    0.0000072     0.1397839   -0.3299050 
   0.037059255     0.8000799   -0.3257563    -0.0002340    0.0000012    -0.0000889    0.0000768     0.1392040   -0.3297363 
   0.037159280     0.7947252   -0.3434201    -0.0003792    0.0000333    -0.0000035    0.0000282     0.1396028   -0.3287689 
   0.037259305     0.7960426   -0.3575176     0.0002226    0.0000889    -0.0000192    0.0001374     0.1371949   -0.3275760 
   0.037359330     0.7897620   -0.3732663     0.0000165    0.0002242    -0.0001040    0.0001300     0.1376611   -0.3272436 
   0.037459355     0.7850951   -0.3860154    -0.0000699    0.0001472    -0.0001548    0.0001933     0.1370848   -0.3273205 
   0.037559380     0.7816544   -0.4007626    -0.0000748    0.0001472    -0.0000437    0.0001058     0.1369790   -0.3260733 
   0.037659405     0.7739540   -0.4143029    -0.0001316    0.0000640    -0.0001067    0.0000074     0.1365519   -0.3256822 
   0.037759430     0.7721978   -0.4247098    -0.0002505    0.0003201    -0.0000688    0.0000203     0.1357344   -0.3243991 
   0.037859455     0.7644069   -0.4379814    -0.0004015    0.0000116    -0.0000654    0.0000895     0.1355633   -0.3247163 
   0.037959480     0.7583930   -0.4527425    -0.0001086   -0.0001926    -0.0000199    0.0001019     0.1341769   -0.3238958 
   0.038059505     0.7546474   -0.4560729     0.0003069    0.0001719     0.0000320    0.0001777     0.1342606   -0.3234967 
   0.038159530     0.7491322   -0.4729607    -0.0001598    0.0003119    -0.0000595    0.0000332     0.1340233   -0.3221226 
   0.038259555     0.7433656   -0.4872240    -0.0002132    0.0003146    -0.0000912    0.0001234     0.1334066   -0.3221932 
   0.038359580     0.7393961   -0.4914873     0.0001634    0.0001864    -0.0000914    0.0000251     0.1327470   -0.3201872 
   0.038459605     0.7296770   -0.5043135     0.0002745   -0.0006215    -0.0000525    0.0001352     0.1312561   -0.3211136 
   0.038559630     0.7260919   -0.5176106    -0.0001746    0.0000902    -0.0001501    0.0000286     0.1309838   -0.3210291 
   0.038659655     0.7237957   -0.5243178    -0.0001352    0.0002734    -0.0001269    0.0001094     0.1319005   -0.3195916 
   0.038759680     0.7150588   -0.5299346    -0.0004814   -0.0001386    -0.0001379    0.0000470     0.1300260   -0.3194462 
   0.038859705     0.7052698   -0.5510685    -0.0002786    0.0004863    -0.0002006    0.0000923     0.1308416   -0.3191037 
   0.038959730     0.6989731   -0.5528830    -0.0000649    0.0000207    -0.0002146    0.0001205     0.1297922   -0.3185692 
   0.039059755     0.6957490   -0.5664849    -0.0001758    0.0004228    -0.0001675    0.0000176     0.1298222   -0.3176282 
   0.039159780     0.6867481   -0.5687459    -0.0004447    0.0001950     0.0000560    0.0000605     0.1281723   -0.3179617 
   0.039259805     0.6848641   -0.5764645    -0.0000468    0.0002590    -0.0000989    0.0000938     0.1279188   -0.3169785 
   0.039359830     0.6717587   -0.5853984    -0.0002484    0.0001094    -0.0002265    0.0001195     0.1276993   -0.3161987 
   0.039459855     0.6686507   -0.5932539    -0.0001588    0.0001737    -0.0001702    0.0001262     0.1271104   -0.3151281 
   0.039559880     0.6663474   -0.5984365    -0.0002811   -0.0001869    -0.0000663    0.0001067     0.1271153   -0.3147747 
   0.039659905     0.6556619   -0.6106413     0.0001064   -0.0000093    -0.0001721    0.0000618     0.1262385   -0.3138341 
   0.039759930     0.6470654   -0.6180841    -0.0002318    0.0006125    -0.0000733    0.0001102     0.1259687   -0.3137280 
   0.039859955     0.6422203   -0.6220106    -0.0004610    0.0003681    -0.0002150    0.0001348     0.1264113   -0.3131518 
   0.039959980     0.6333348   -0.6327139    -0.0002094   -0.0000043    -0.0000899    0.0000748     0.1246283   -0.3136333 
   0.040060005     0.6314327   -0.6367508    -0.0000898    0.0000177    -0.0001369    0.0001572     0.1250297   -0.3124595 
   0.040160030     0.6222889   -0.6430894     0.0001007   -0.0000662    -0.0001286    0.0003063     0.1242948   -0.3112403 
   0.040260055     0.6178992   -0.6515684    -0.0005383    0.0004454    -0.0000489    0.0002626     0.1233305   -0.3112446 
   0.040360080     0.6046969   -0.6532475     0.0000802    0.0004708    -0.0002856    0.0002209     0.1232298   -0.3100167 
   0.040460105     0.6019177   -0.6608042    -0.0005653    0.0001671    -0.0001418    0.0000345     0.1222893   -0.3096790 
   0.040560130     0.5904436   -0.6669447    -0.0004500    0.0003537    -0.0002396    0.0001064     0.1232287   -0.3099434 
   0.040660155     0.5909709   -0.6740372    -0.0001356    0.0000379    -0.0002446    0.0000929     0.1214645   -0.3084855 
   0.040760180     0.5777774   -0.6714448    -0.0005601    0.0001055    -0.0000356    0.0003737     0.1212189   -0.3086022 
   0.040860205     0.5692734   -0.6813480    -0.0001169    0.0001443    -0.0003382    0.0000244     0.1212556   -0.3078155 
   0.040960230     0.5619177   -0.6903371     0.0001864    0.0000748    -0.0001945    0.0001314     0.1205457   -0.3071925 
   0.041060255     0.5649568   -0.6915399    -0.0003074   -0.0001310    -0.0001409    0.0000233     0.1207253   -0.3079917 
   0.041160280     0.5525319   -0.7014627    -0.0004117    0.0007646    -0.0001238    0.0001083     0.1197489   -0.3064874 
   0.041260305     0.5434192   -0.7022668     0.0001380   -0.0002435    -0.0000927    0.0001306     0.1191526   -0.3056329 
   0.041360330     0.5386153   -0.7059008     0.0001018    0.0000354    -0.0002887    0.0001997     0.1191224   -0.3055209 
   0.041460355     0.5263468   -0.7110083    -0.0003077   -0.0000645    -0.0001346    0.0001628     0.1187832   -0.3053175 
   0.041560380     0.5252216   -0.7140977    -0.0002372    0.0009520    -0.0001050    0.0002188     0.1180329   -0.3052263 
   0.041660405     0.5187570   -0.7235168     0.0003038    0.0001467    -0.0000319    0.0001038     0.1180170   -0.3041923 
   0.041760430     0.5068629   -0.7256278    -0.0008313    0.0002752    -0.0001487    0.0002443     0.1178291   -0.3036940 
   0.041860455     0.5027190   -0.7357105    -0.0002302    0.0008153    -0.0001071    0.0002005     0.1171198   -0.3036316 
   0.041960480     0.4833222   -0.7387629     0.0000547    0.0001004    -0.0000404    0.0002250     0.1162660   -0.3025401 
   0.042060505     0.4836482   -0.7337456    -0.0000552    0.0000028    -0.0002600    0.0002508     0.1161551   -0.3015690 
   0.042160530     0.4707710   -0.7346949    -0.0002002    0.0001794    -0.0000506    0.0001115     0.1154120   -0.3017157 
   0.042260555     0.4609626   -0.7449641    -0.0002909   -0.0003098    -0.0001314    0.0002015     0.1157517   -0.3012358 
   0.042360580     0.4641140   -0.7512082    -0.0004767    0.0005795    -0.0000983    0.0002124     0.1150811   -0.3009665 
   0.042460605     0.4517314   -0.7619369    -0.0002769    0.0001731    -0.0000776    0.0002444     0.1146614   -0.3005261 
   0.042560630     0.4402725   -0.7672486    -0.0005173    0.0004349    -0.0001046    0.0003695     0.1143773   -0.2998775 
   0.042660655     0.4339357   -0.7608901    -0.0000793    0.0000661    -0.0000892    0.0000536     0.1138083   -0.2992728 
   0.042760680     0.4271534   -0.7639641    -0.0006498    0.0005507    -0.0002922   -0.0000976     0.1133760   -0.2985530 
   0.042860705     0.4151050   -0.7734196    -0.0005492    0.0005047    -0.0002113    0.0001960     0.1140770   -0.2982698 
   0.042960730     0.4079072   -0.7711576     0.0001199    0.0001702    -0.0001281    0.0001524     0.1128770   -0.2981294 
   0.043060755     0.4051520   -0.7732528     0.0000679    0.0002733    -0.0003691    0.0001052     0.1121730   -0.2981580 
   0.043160780     0.3899537   -0.7818962    -0.0000812    0.0001716     0.0000806    0.0003185     0.1119885   -0.2974211 
   0.043260805     0.3784948   -0.7842267     0.0000063    0.0002353    -0.0001911    0.0001371     0.1118263   -0.2965857 
   0.043360830     0.3822574   -0.7785065    -0.0001158   -0.0004483    -0.0000964    0.0002038     0.1111515   -0.2958290 
   0.043460855     0.3652790   -0.7798225     0.0002924    0.0005402    -0.0000393    0.0001537     0.1108626   -0.2958486 
   0.043560880     0.3578752   -0.7880875     0.0001624   -0.0001167    -0.0002152    0.0001748     0.1109258   -0.2954631 
   0.043660905     0.3539175   -0.7957367     0.0005142    0.0008486    -0.0001848    0.0000717     0.1092132   -0.2951165 
   0.043760930     0.3318596   -0.7987500    -0.0002678    0.0009961    -0.0004354    0.0000128     0.1094618   -0.2950814 
   0.043860955     0.3359625   -0.7952027    -0.0007813    0.0007463    -0.0003095    0.0006427     0.1079485   -0.2938522 
   0.043960980     0.3243783   -0.7993320    -0.0006017    0.0001784    -0.0003266    0.0003636     0.1084031   -0.2929050 
   0.044061006     0.3190638   -0.7872640     0.0001454    0.0004202    -0.0004074    0.0003346     0.1089745   -0.2937031 
   0.044161031     0.3062906   -0.8041682     0.0005687    0.0007072    -0.0001535    0.0002141     0.1084873   -0.2918285 
   0.044261056     0.2906285   -0.8020360    -0.0003279   -0.0005048    -0.0002006    0.0001987     0.1079463   -0.2926404 
   0.044361081     0.2890995   -0.7977035    -0.0001743    0.0000863    -0.0005869    0.0001128     0.1074640   -0.2915880 
   0.044461106     0.2745212   -0.8022447     0.0000019    0.0002479    -0.0001836    0.0005148     0.1075448   -0.2909382 
   0.044561131     0.2660932   -0.8094522     0.0003912    0.0007107    -0.0003614    0.0003592     0.1073726   -0.2909273 
   0.044661156     0.2487997   -0.8125609     0.0001589    0.0003392    -0.0005151    0.0003303     0.1064986   -0.2911260 
   0.044761181     0.2447967   -0.8069476    -0.0006021    0.0001236     0.0000631    0.0003286     0.1061685   -0.2906958 
   0.044861206     0.2349780   -0.8064150     0.0001386    0.0001170    -0.0002057    0.0003098     0.1060536   -0.2892811 
   0.044961231     0.2232435   -0.8049375    -0.0003319    0.0005977    -0.0004304    0.0005300     0.1049049   -0.2884585 
   0.045061256     0.2108871   -0.8153965     0.0004786   -0.0000639    -0.0000509    0.0002273     0.1051169   -0.2888365 
   0.045161281     0.2036543   -0.8058550    -0.0006211    0.0002844    -0.0002193    0.0002070     0.1052252   -0.2873496 
   0.045261306     0.1850123   -0.8067628    -0.0002681   -0.0001567    -0.0003049    0.0003546     0.1047820   -0.2886835 
   0.045361331     0.1787335   -0.8113297     0.0000183    0.0001882    -0.0004229    0.0003614     0.1037667   -0.2874858 
   0.045461356     0.1641849   -0.8051513    -0.0005023    0.0005183    -0.0001959    0.0002191     0.1041521   -0.2869745 
   0.045561381     0.1560771   -0.8146060    -0.0005235    0.0008714    -0.0002074    0.0004218     0.1043667   -0.2860046 
   0.045661406     0.1397932   -0.8015184    -0.0002682   -0.0000584    -0.0002898    0.0003167     0.1034415   -0.2857813 
   0.045761431     0.1302259   -0.8175414    -0.0004544    0.0006259    -0.0004150    0.0002714     0.1023304   -0.2856372 
   0.045861456     0.1224772   -0.8012390    -0.0006552   -0.0002204    -0.0000491    0.0002355     0.1026887   -0.2851303 
   0.045961481     0.0997528   -0.7983897    -0.0014981    0.0006275    -0.0001313    0.0002799     0.1018971   -0.2846462 
   0.046061506     0.0913150   -0.7948231    -0.0006273    0.0004616    -0.0000097    0.0000755     0.1022994   -0.2847788 
   0.046161531     0.0837524   -0.7947330    -0.0004305   -0.0001081    -0.0000454    0.0003321     0.1012092   -0.2844892 
   0.046261556     0.0723288   -0.7961667    -0.0001556    0.0015416    -0.0003439    0.0003866     0.1012480   -0.2832780 
   0.046361581     0.0537680   -0.7850441    -0.0006929    0.0004973    -0.0001688    0.0003184     0.1012644   -0.2832845 
   0.046461606     0.0346978   -0.7935318     0.0002024    0.0011402    -0.0002479    0.0000790     0.1011983   -0.2819209 
   0.046561631     0.0225124   -0.7771037    -0.0003959    0.0003382    -0.0004201    0.0003821     0.1005332   -0.2812888 
   0.046661656     0.0217452   -0.7822987     0.0001222    0.0010046    -0.0003273    0.0006147     0.1002031   -0.2815822 
   0.046761681     0.0007014   -0.7769741    -0.0012200   -0.0002291    -0.0001923    0.0003132     0.0987097   -0.2810057 
   0.046861706    -0.0125631   -0.7716677    -0.0004369    0.0004305    -0.0005581    0.0003332     0.0991149   -0.2815608 
   0.046961731    -0.0198518   -0.7737373    -0.0001281    0.0009470    -0.0004111    0.0001346     0.0997580   -0.2807727 
   0.047061756    -0.0350260   -0.7562436    -0.0003383    0.0006266     0.0000305    0.0006415     0.0983763   -0.2796598 
   0.047161781    -0.0496711   -0.7666007     0.0009469    0.0002748    -0.0004805    0.0006507     0.0982104   -0.2796012 
   0.047261806    -0.0679339   -0.7437496     0.0004462    0.0013207    -0.0000502    0.0004104     0.0983702   -0.2793002 
   0.047361831    -0.0731902   -0.7353263    -0.0008128    0.0006225    -0.0004706    0.0005657     0.0973660   -0.2794112 
   0.047461856    -0.0962782   -0.7313330    -0.0007183   -0.0002946    -0.0003047    0.0005642     0.0969822   -0.2794743 
   0.047561881    -0.1016519   -0.7265295    -0.0006100    0.0009584    -0.0002209    0.0005178     0.0974807   -0.2781022 
   0.047661906    -0.1332032   -0.7166882     0.0000800    0.0006798    -0.0004306    0.0002938     0.0972997   -0.2774979 
   0.047761931    -0.1452512   -0.7091187    -0.0002655    0.0005133    -0.0002975    0.0003430     0.0978135   -0.2766070 
   0.047861956    -0.1543630   -0.6937823    -0.0007585    0.0000663    -0.0000831    0.0004836     0.0973863   -0.2771887 
   0.047961981    -0.1730851   -0.6774750     0.0001292    0.0003647    -0.0002252    0.0004944     0.0968194   -0.2760894 
   0.048062006    -0.1936252   -0.6650643    -0.0001293    0.0005046    -0.0001779    0.0005807     0.0954077   -0.2763100 
   0.048162031    -0.2016147   -0.6593224     0.0004162    0.0010218    -0.0001894    0.0004046     0.0954232   -0.2754536 
   0.048262056    -0.2159811   -0.6460489    -0.0003998    0.0006082    -0.0003380    0.0006792     0.0960805   -0.2764875 
   0.048362081    -0.2258322   -0.6261212    -0.0009098    0.0001446     0.0000304    0.0004043     0.0956926   -0.2753253 
   0.048462106    -0.2380808   -0.6129763     0.0002193    0.0018057    -0.0000652    0.0005521     0.0945265   -0.2743811 
   0.048562131    -0.2555718   -0.5995113    -0.0004640    0.0006970     0.0000091    0.0005269     0.0945793   -0.2743845 
   0.048662156    -0.2755552   -0.5797459    -0.0001371    0.0006167    -0.0003333    0.0006256     0.0945582   -0.2733412 
   0.048762181    -0.2875837   -0.5607598     0.0001126    0.0004758    -0.0000474    0.0005589     0.0938009   -0.2732548 
   0.048862206    -0.3022414   -0.5446633    -0.0001375   -0.0005676    -0.0001630    0.0003760     0.0941727   -0.2742452 
   0.048962231    -0.3143259   -0.5239272    -0.0004268    0.0007241    -0.0002804    0.0003601     0.0936033   -0.2726544 
   0.049062256    -0.3354756   -0.4994110     0.0005455    0.0007778    -0.0004274    0.0007202     0.0929839   -0.2729940 
   0.049162281    -0.3447178   -0.4787785    -0.0001326   -0.0002972    -0.0000021    0.0005351     0.0927386   -0.2722398 
   0.049262306    -0.3595284   -0.4514576    -0.0004892    0.0000554    -0.0001295    0.0003734     0.0918397   -0.2720158 
   0.049362331    -0.3622828   -0.4249591    -0.0005596    0.0013730    -0.0001090    0.0004435     0.0935191   -0.2715275 
   0.049462356    -0.3726325   -0.3884986    -0.0008977    0.0005626     0.0000665    0.0004906     0.0911516   -0.2705204 
   0.049562381    -0.3864371   -0.3692927    -0.0003947    0.0003719     0.0001162    0.0009129     0.0912975   -0.2701237 
   0.049662406    -0.3887935   -0.3375455     0.0001820    0.0009475     0.0003440    0.0006895     0.0924103   -0.2706930 
   0.049762431    -0.3983758   -0.3055285     0.0001074    0.0002022     0.0000865    0.0003057     0.0912841   -0.2690241 
   0.049862456    -0.3941938   -0.2678552     0.0006063   -0.0004703    -0.0001144    0.0004994     0.0907664   -0.2688919 
   0.049962481    -0.4059089   -0.2393421     0.0007984    0.0001179     0.0001077    0.0006262     0.0909910   -0.2689009 
   0.050062506    -0.4016033   -0.2079657    -0.0000816    0.0007755    -0.0000510    0.0001620     0.0904194   -0.2687469 
   0.050162531    -0.3940642   -0.1700574     0.0010994    0.0009289     0.0000664    0.0007905     0.0900409   -0.2684121 
   0.050262556    -0.3919338   -0.1370996    -0.0001828    0.0005426    -0.0000708    0.0004338     0.0894344   -0.2672295 
   0.050362581    -0.3904389   -0.1007955    -0.0002776    0.0006750    -0.0001395    0.0006724     0.0890898   -0.2678596 
   0.050462606    -0.3768302   -0.0630410    -0.0007761   -0.0000237     0.0002070    0.0002407     0.0900148   -0.2669757 
   0.050562631    -0.3610116   -0.0303367     0.0003492    0.0002671    -0.0003661    0.0004736     0.0888497   -0.2664650 
   0.050662656    -0.3465576    0.0092767    -0.0004908    0.0011039     0.0001782    0.0007506     0.0891733   -0.2665782 
   0.050762681    -0.3296593    0.0434683    -0.0003509    0.0015625     0.0002714    0.0004950     0.0888703   -0.2663384 
   0.050862706    -0.3104645    0.0812659     0.0002151    0.0007137    -0.0000190    0.0008101     0.0877427   -0.2658624 
   0.050962731    -0.2890803    0.1130879     0.0000421    0.0006042     0.0000760    0.0006172     0.0882834   -0.2657124 
   0.051062756    -0.2600663    0.1467699    -0.0000623    0.0000603     0.0003010    0.0005385     0.0879179   -0.2648112 
   0.051162781    -0.2305637    0.1762666    -0.0002497    0.0003522     0.0000800    0.0006114     0.0876474   -0.2650294 
   0.051262806    -0.1976707    0.2078921    -0.0000250    0.0009555     0.0002441    0.0006276     0.0873672   -0.2649174 
   0.051362831    -0.1649609    0.2350817    -0.0001094    0.0006639     0.0001242    0.0005473     0.0869807   -0.2650254 
   0.051462856    -0.1295298    0.2607734     0.0002012    0.0001996     0.0001694    0.0004256     0.0868436   -0.2631589 
   0.051562881    -0.0944339    0.2841589     0.0000179    0.0003871     0.0001448    0.0004387     0.0862084   -0.2630239 
   0.051662906    -0.0502614    0.3019444     0.0001541    0.0011777     0.0004117    0.0003699     0.0858058   -0.2629387 
   0.051762931    -0.0104505    0.3142821    -0.0001549    0.0006456     0.0003683    0.0003210     0.0859634   -0.2635902 
   0.051862956     0.0324234    0.3258850     0.0002627    0.0003752     0.0002446    0.0004278     0.0862664   -0.2619649 
   0.051962981     0.0733124    0.3366681     0.0002207    0.0009526     0.0000817    0.0005806     0.0859274   -0.2628666 
   0.052063007     0.1189530    0.3425834     0.0003118    0.0004147     0.0001995    0.0002518     0.0855042   -0.2618728 
   0.052163032     0.1594567    0.3435591     0.0002209    0.0000569     0.0000846    0.0004078     0.0853366   -0.2609265 
   0.052263057     0.2028710    0.3428581     0.0000694    0.0003683     0.0002153    0.0003976     0.0851151   -0.2608182 
   0.052363082     0.2474497    0.3420777     0.0003783    0.0002670     0.0002377    0.0003127     0.0847360   -0.2606400 
   0.052463107     0.2877625    0.3324409     0.0000217    0.0003012     0.0003631    0.0001457     0.0846033   -0.2607561 
   0.052563132     0.3247707    0.3249792     0.0000908    0.0009618     0.0002539    0.0004088     0.0849670   -0.2601623 
   0.052663157     0.3629903    0.3124661     0.0005962    0.0000697     0.0002127    0.0003471     0.0847025   -0.2597114 
   0.052763182     0.3978250    0.2969243     0.0009069    0.0004986     0.0003371    0.0002415     0.0834816   -0.2595913 
   0.052863207     0.4364795    0.2783171     0.0003422    0.0002602     0.0002581    0.0002861     0.0838633   -0.2593953 
   0.052963232     0.4653316    0.2604479     0.0002297    0.0004356     0.0002687    0.0003255     0.0833628   -0.2578489 
   0.053063257     0.4973886    0.2397142     0.0006326   -0.0003601     0.0002880    0.0002793     0.0832086   -0.2577658 
   0.053163282     0.5250455    0.2171301     0.0001787   -0.0002131     0.0000566    0.0002313     0.0825938   -0.2592544 
   0.053263307     0.5535436    0.1940270    -0.0001817   -0.0001384     0.0001020    0.0001858     0.0833615   -0.2577097 
   0.053363332     0.5786464    0.1732118     0.0001903    0.0005090     0.0003131    0.0002940     0.0829292   -0.2576135 
   0.053463357     0.5994084    0.1486540     0.0001665    0.0004100     0.0000187    0.0001974     0.0824752   -0.2567029 
   0.053563382     0.6203825    0.1238877     0.0001246    0.0002925     0.0000363    0.0002695     0.0817647   -0.2574722 
   0.053663407     0.6379899    0.0970410     0.0005982    0.0000139     0.0001089    0.0002207     0.0820236   -0.2556463 
   0.053763432     0.6523038    0.0716043     0.0001174    0.0005551     0.0002068    0.0003455     0.0827007   -0.2563237 
   0.053863457     0.6668755    0.0467014    -0.0001300    0.0004012     0.0001368    0.0000418     0.0810874   -0.2569912 
   0.053963482     0.6771465    0.0205025     0.0001187   -0.0001099     0.0001718    0.0002438     0.0803697   -0.2557431 
   0.054063507     0.6930008   -0.0063310    -0.0000417    0.0004808     0.0002068    0.0002178     0.0806475   -0.2547126 
   0.054163532     0.7014416   -0.0277852     0.0001427    0.0000697    -0.0000616    0.0002398     0.0804477   -0.2547427 
   0.054263557     0.7099725   -0.0577495     0.0002096    0.0004865     0.0000734    0.0001347     0.0801654   -0.2546640 
   0.054363582     0.7152553   -0.0817445     0.0003571    0.0001046    -0.0000191    0.0001945     0.0796726   -0.2547472 
   0.054463607     0.7224149   -0.1040618    -0.0001961    0.0001035    -0.0000311    0.0001249     0.0806983   -0.2537144 
   0.054563632     0.7284731   -0.1294084     0.0000509    0.0005634    -0.0000205    0.0001826     0.0803701   -0.2534836 
   0.054663657     0.7273943   -0.1515808     0.0000695   -0.0000611     0.0000318    0.0001637     0.0796186   -0.2534365 
   0.054763682     0.7305256   -0.1775071    -0.0002213   -0.0000640    -0.0002058    0.0003333     0.0793213   -0.2517609 
   0.054863707     0.7357740   -0.1933845    -0.0002207   -0.0005371     0.0002561    0.0000288     0.0803703   -0.2526712 
   0.054963732     0.7334118   -0.2241269     0.0002115    0.0001042     0.0000964    0.0001062     0.0792290   -0.2521932 
   0.055063757     0.7365136   -0.2433073    -0.0003631    0.0001425     0.0000558    0.0001801     0.0786851   -0.2524749 
   0.055163782     0.7308802   -0.2656453    -0.0002175    0.0004892    -0.0001354    0.0003596     0.0781497   -0.2515106 
   0.055263807     0.7312458   -0.2817524    -0.0004568    0.0005462    -0.0002960    0.0001180     0.0789521   -0.2520656 
   0.055363832     0.7265623   -0.2976293    -0.0001587    0.0004419    -0.0001994    0.0000216     0.0784898   -0.2517976 
   0.055463857     0.7208924   -0.3176241    -0.0000335    0.0005361    -0.0001711    0.0002075     0.0777813   -0.2509131 
   0.055563882     0.7204614   -0.3348117     0.0000769   -0.0004806    -0.0000237    0.0004760     0.0777588   -0.2500207 
   0.055663907     0.7108037   -0.3542758     0.0002668    0.0004219    -0.0002012    0.0002176     0.0775499   -0.2501786 
   0.055763932     0.7203501   -0.3650278    -0.0004685   -0.0004574     0.0002438    0.0002831     0.0773470   -0.2507153 
   0.055863957     0.7111696   -0.3904344     0.0004379    0.0001931     0.0003114   -0.0000318     0.0768126   -0.2494814 
   0.055963982     0.7012784   -0.4053281     0.0002002   -0.0011215    -0.0000753    0.0002267     0.0776538   -0.2493403 
   0.056064007     0.6989589   -0.4158007    -0.0001022    0.0011476    -0.0000010    0.0002273     0.0771583   -0.2498330 
   0.056164032     0.6884828   -0.4377116     0.0004507    0.0004223    -0.0000430   -0.0000097     0.0768458   -0.2494331 
   0.056264057     0.6830760   -0.4529480     0.0000119    0.0001642    -0.0002807    0.0005532     0.0761532   -0.2481379 
   0.056364082     0.6747926   -0.4666592     0.0004590    0.0001498    -0.0001434    0.0002204     0.0765235   -0.2493608 
   0.056464107     0.6739339   -0.4859144     0.0000425    0.0002747    -0.0002292    0.0001951     0.0752883   -0.2481645 
   0.056564132     0.6627901   -0.4941524    -0.0005598   -0.0002648     0.0000411    0.0000741     0.0755805   -0.2486580 
   0.056664157     0.6585634   -0.5029248    -0.0007208   -0.0000105    -0.0003365    0.0003650     0.0754116   -0.2474828 
   0.056764182     0.6472354   -0.5178392    -0.0005648    0.0015343     0.0000192    0.0002385     0.0757232   -0.2465395 
   0.056864207     0.6377734   -0.5246311     0.0002378    0.0001332    -0.0001322    0.0001623     0.0753856   -0.2473058 
   0.056964232     0.6369745   -0.5475212     0.0003757    0.0002127    -0.0001042    0.0003897     0.0742597   -0.2470114 
   0.057064257     0.6163359   -0.5544432    -0.0004055   -0.0004102     0.0000092    0.0002850     0.0746484   -0.2454280 
   0.057164282     0.6134403   -0.5655161     0.0003995    0.0002576    -0.0000420    0.0001782     0.0740413   -0.2459294 
   0.057264307     0.6071142   -0.5685598     0.0004807    0.0012628    -0.0001898    0.0002720     0.0746566   -0.2452293 
   0.057364332     0.6030965   -0.5806087    -0.0008746   -0.0000625    -0.0001690    0.0004644     0.0747650   -0.2449136 
   0.057464357     0.5956162   -0.5925487     0.0000471    0.0005858    -0.0003540    0.0004465     0.0741423   -0.2454599 
   0.057564382     0.5879629   -0.5997868    -0.0006118   -0.0003333    -0.0005300    0.0003533     0.0736396   -0.2448153 
   0.057664407     0.5712212   -0.6078960    -0.0002085    0.0001099     0.0001164    0.0003199     0.0734185   -0.2443695 
   0.057764432     0.5606812   -0.6218295    -0.0000658   -0.0002329    -0.0001127    0.0004716     0.0737787   -0.2444532 
   0.057864457     0.5514757   -0.6360211    -0.0008866    0.0004189    -0.0003006    0.0005935     0.0736563   -0.2445437 
   0.057964482     0.5436454   -0.6375870    -0.0005129   -0.0001092    -0.0001084    0.0000655     0.0724945   -0.2441114 
   0.058064507     0.5394050   -0.6429092    -0.0008495    0.0008732    -0.0000691    0.0001937     0.0733423   -0.2438523 
   0.058164532     0.5256176   -0.6488265     0.0003770    0.0004573    -0.0005198    0.0002287     0.0720376   -0.2429622 
   0.058264557     0.5266793   -0.6605847     0.0002441   -0.0001892    -0.0001456    0.0004140     0.0721390   -0.2427306 
   0.058364582     0.5019389   -0.6702560    -0.0002882    0.0006898    -0.0004605    0.0001380     0.0722221   -0.2421178 
   0.058464607     0.5013114   -0.6733472    -0.0010086   -0.0010079    -0.0001409    0.0002130     0.0722932   -0.2420192 
   0.058564632     0.4930478   -0.6791145    -0.0006489    0.0005635    -0.0001159    0.0002331     0.0718885   -0.2419637 
   0.058664657     0.4816844   -0.6950801    -0.0009082    0.0001179    -0.0002353    0.0003209     0.0714410   -0.2409308 
   0.058764682     0.4691915   -0.6935987     0.0006789    0.0007924     0.0002593    0.0004649     0.0716521   -0.2404649 
   0.058864707     0.4665564   -0.7078861    -0.0007101    0.0002650    -0.0004362    0.0004386     0.0718239   -0.2420770 
   0.058964732     0.4589144   -0.7015676    -0.0003269   -0.0003216     0.0001302    0.0003346     0.0705700   -0.2409693 
   0.059064757     0.4477823   -0.7130967    -0.0005886   -0.0001699     0.0000874    0.0001580     0.0709064   -0.2409528 
   0.059164782     0.4312708   -0.7223881     0.0005961    0.0006435    -0.0000396    0.0002989     0.0706048   -0.2402541 
   0.059264807     0.4301493   -0.7244043    -0.0003290    0.0004098    -0.0001745    0.0002718     0.0705788   -0.2403656 
   0.059364832     0.4058228   -0.7222435    -0.0005973    0.0005076    -0.0002014    0.0004343     0.0703864   -0.2404805 
   0.059464857     0.4117604   -0.7287393    -0.0000890    0.0003201     0.0002235    0.0005261     0.0704156   -0.2397329 
   0.059564882     0.3938885   -0.7356042     0.0005911   -0.0004775    -0.0002416    0.0005021     0.0696795   -0.2396131 
   0.059664907     0.3876050   -0.7389881    -0.0001928    0.0000889    -0.0001820    0.0003129     0.0688685   -0.2398487 
   0.059764932     0.3846709   -0.7446986     0.0001180   -0.0000680    -0.0003955   -0.0000044     0.0693700   -0.2387007 
   0.059864957     0.3693203   -0.7468162    -0.0005968    0.0000764     0.0000412    0.0002439     0.0695635   -0.2382278 
   0.059964982     0.3565789   -0.7573426    -0.0000529    0.0004231    -0.0001439    0.0004418     0.0693897   -0.2388431 
   0.060065008     0.3480618   -0.7614741     0.0003077    0.0000493    -0.0005027    0.0002290     0.0686475   -0.2386647 
   0.060165033     0.3338668   -0.7628026    -0.0001624    0.0010844    -0.0006135    0.0005090     0.0701737   -0.2376460 
   0.060265058     0.3262775   -0.7726429    -0.0001200    0.0003815    -0.0002260    0.0004308     0.0687322   -0.2370913 
   0.060365083     0.3048721   -0.7617953    -0.0007092    0.0003573    -0.0001450    0.0006691     0.0690083   -0.2366982 
   0.060465108     0.3122760   -0.7771605    -0.0000844    0.0007470    -0.0000816    0.0006945     0.0692323   -0.2368977 
   0.060565133     0.2932604   -0.7763156     0.0001676    0.0004616    -0.0003343    0.0002030     0.0688129   -0.2374542 
   0.060665158     0.2825375   -0.7788501    -0.0005934    0.0001975    -0.0004058    0.0002030     0.0682502   -0.2368870 
   0.060765183     0.2804342   -0.7786440     0.0002980    0.0006212    -0.0003624    0.0004125     0.0680931   -0.2358360 
   0.060865208     0.2674983   -0.7726496     0.0011949    0.0006976    -0.0001874    0.0003376     0.0675646   -0.2353291 
   0.060965233     0.2504392   -0.7871684    -0.0004872    0.0005671    -0.0001218    0.0007905     0.0669410   -0.2358103 
   0.061065258     0.2435252   -0.7745927     0.0001094   -0.0001883    -0.0002695    0.0001256     0.0676589   -0.2351533 
   0.061165283     0.2329824   -0.7802524    -0.0007179    0.0009759    -0.0004196    0.0002731     0.0670856   -0.2353140 
   0.061265308     0.2252382   -0.7798586    -0.0010007    0.0003432    -0.0002585    0.0002754     0.0674849   -0.2349066 
   0.061365333     0.2217725   -0.7866044     0.0001158    0.0002285    -0.0005224   -0.0000585     0.0667895   -0.2352571 
   0.061465358     0.2035303   -0.7866327     0.0000059    0.0007854    -0.0001750    0.0004278     0.0672770   -0.2337413 
   0.061565383     0.1919382   -0.7911322    -0.0003499   -0.0001078    -0.0008023    0.0005925     0.0670071   -0.2337617 
   0.061665408     0.1812773   -0.7936988    -0.0011588    0.0005005    -0.0003127    0.0006642     0.0667478   -0.2341080 
   0.061765433     0.1710313   -0.8037980    -0.0002986    0.0008762    -0.0005005    0.0006257     0.0662887   -0.2340563 
   0.061865458     0.1630190   -0.7888429     0.0001478   -0.0001003    -0.0005373    0.0007323     0.0653098   -0.2336320 
   0.061965483     0.1516414   -0.7898145     0.0003217    0.0002902     0.0000322    0.0006194     0.0672677   -0.2331580 
   0.062065508     0.1339668   -0.7938302     0.0002124    0.0003110    -0.0004161    0.0006040     0.0666358   -0.2323644 
   0.062165533     0.1330044   -0.7876574     0.0002547   -0.0009004    -0.0004153    0.0005210     0.0658936   -0.2320191 
   0.062265558     0.1128719   -0.7978341    -0.0004850    0.0007337     0.0001124    0.0005787     0.0653493   -0.2326230 
   0.062365583     0.1060898   -0.7901038     0.0007649   -0.0000272    -0.0001528    0.0004440     0.0643929   -0.2320257 
   0.062465608     0.1037663   -0.7937778    -0.0001266   -0.0006678    -0.0007008    0.0008077     0.0661682   -0.2320244 
   0.062565633     0.0774699   -0.7946216     0.0002981   -0.0005158    -0.0004045    0.0007937     0.0647175   -0.2324636 
   0.062665658     0.0793440   -0.7869712    -0.0000888   -0.0008576    -0.0000047    0.0004801     0.0650868   -0.2316393 
   0.062765683     0.0627249   -0.7961983    -0.0003878    0.0008344    -0.0004672    0.0004260     0.0637210   -0.2316578 
   0.062865708     0.0516743   -0.7818252    -0.0001795    0.0007407    -0.0002064    0.0003242     0.0649042   -0.2323795 
   0.062965733     0.0406132   -0.7873799     0.0002407    0.0001168    -0.0001104    0.0002257     0.0643020   -0.2313314 
   0.063065758     0.0192719   -0.7792275    -0.0006616   -0.0000111    -0.0001254    0.0006475     0.0641744   -0.2304396 
   0.063165783     0.0147260   -0.7719450     0.0001813   -0.0001747    -0.0001461    0.0003258     0.0645681   -0.2305804 
   0.063265808     0.0109237   -0.7650661    -0.0004241   -0.0000134    -0.0002748    0.0003867     0.0637129   -0.2301281 
   0.063365833    -0.0086012   -0.7817023    -0.0000658    0.0006019    -0.0003610    0.0006163     0.0643430   -0.2300136 
   0.063465858    -0.0102589   -0.7597814    -0.0002019    0.0002247    -0.0002934    0.0005973     0.0632464   -0.2292242 
   0.063565883    -0.0238012   -0.7689336    -0.0001958    0.0011027     0.0000619    0.0003059     0.0632322   -0.2298867 
   0.063665908    -0.0368908   -0.7593901    -0.0004601    0.0009636    -0.0003461    0.0002114     0.0631738   -0.2287604 
   0.063765933    -0.0560535   -0.7479175    -0.0006539    0.0004846    -0.0002607    0.0004843     0.0634265   -0.2292637 
   0.063865958    -0.0681565   -0.7586037    -0.0007813   -0.0000399    -0.0002226    0.0006632     0.0637575   -0.2275027 
   0.063965983    -0.0779054   -0.7519374    -0.0008383    0.0007883    -0.0001269    0.0008480     0.0629103   -0.2278615 
   0.064066008    -0.0889629   -0.7431499     0.0004105    0.0005940    -0.0001782    0.0004393     0.0629249   -0.2279508 
   0.064166033    -0.1022393   -0.7373866     0.0002148    0.0006039    -0.0002167    0.0005785     0.0629428   -0.2273960 
   0.064266058    -0.1165104   -0.7313907     0.0001368    0.0002439    -0.0003279    0.0009451     0.0619152   -0.2284195 
   0.064366083    -0.1199647   -0.7259929     0.0000166    0.0016413    -0.0001665    0.0008769     0.0628669   -0.2280938 
   0.064466108    -0.1313502   -0.7277873     0.0006142    0.0012388    -0.0002520    0.0004160     0.0618304   -0.2278064 
   0.064566133    -0.1476231   -0.7214181    -0.0010045    0.0007019    -0.0002555    0.0009012     0.0630716   -0.2271381 
   0.064666158    -0.1657932   -0.7047735     0.0003490   -0.0002672    -0.0001256    0.0004479     0.0617405   -0.2265854 
   0.064766183    -0.1722880   -0.6949165     0.0000277   -0.0001574     0.0000623    0.0007686     0.0617404   -0.2268266 
   0.064866208    -0.1807912   -0.6955705    -0.0005740   -0.0000597     0.0003123    0.0003146     0.0606971   -0.2268644 
   0.064966233    -0.1858207   -0.6732582    -0.0000578    0.0007139    -0.0000408    0.0003850     0.0612615   -0.2263912 
   0.065066258    -0.2029236   -0.6751267    -0.0005839    0.0005814    -0.0003848    0.0007350     0.0604875   -0.2265282 
   0.065166283    -0.2233355   -0.6697885     0.0001771    0.0002698    -0.0002849    0.0008203     0.0607926   -0.2265329 
   0.065266308    -0.2304527   -0.6573347    -0.0001431    0.0006381    -0.0001171    0.0008931     0.0618966   -0.2258620 
   0.065366333    -0.2339042   -0.6478496    -0.0002208    0.0001745    -0.0001450    0.0006542     0.0620549   -0.2249959 
   0.065466358    -0.2546353   -0.6402255     0.0004261    0.0005837    -0.0001455    0.0006032     0.0608216   -0.2250201 
   0.065566383    -0.2693253   -0.6222613    -0.0011959    0.0010993    -0.0002151    0.0007038     0.0598537   -0.2255201 
   0.065666408    -0.2779625   -0.6192212    -0.0002422    0.0001876    -0.0002378    0.0003701     0.0601950   -0.2254379 
   0.065766433    -0.2853290   -0.5983144     0.0006422    0.0008528    -0.0000480    0.0007408     0.0598110   -0.2253166 
   0.065866458    -0.2925630   -0.5865796    -0.0004680    0.0009888    -0.0002705    0.0007146     0.0603962   -0.2243603 
   0.065966483    -0.3063734   -0.5702489     0.0000096    0.0000596     0.0000116    0.0009958     0.0600495   -0.2244576 
   0.066066508    -0.3199084   -0.5594905    -0.0000367    0.0005292    -0.0000423    0.0006881     0.0598040   -0.2236283 
   0.066166533    -0.3296342   -0.5515786     0.0001231    0.0014038     0.0000266    0.0010751     0.0593403   -0.2238038 
   0.066266558    -0.3424586   -0.5300104    -0.0006560    0.0007883    -0.0001512    0.0006697     0.0595501   -0.2239722 
   0.066366583    -0.3425920   -0.5236622    -0.0007746    0.0005222    -0.0002694    0.0007180     0.0588182   -0.2240692 
   0.066466608    -0.3568615   -0.5064151     0.0002643    0.0004492    -0.0002418    0.0008459     0.0594631   -0.2236219 
   0.066566633    -0.3621821   -0.4858874    -0.0001191    0.0012428    -0.0001308    0.0005760     0.0582189   -0.2227146 
   0.066666658    -0.3784462   -0.4705102    -0.0001346    0.0003717    -0.0001089    0.0005002     0.0593593   -0.2225381 
   0.066766683    -0.3831980   -0.4545709    -0.0002128    0.0009993    -0.0002687    0.0008412     0.0590900   -0.2228894 
   0.066866708    -0.3985903   -0.4426058    -0.0001723    0.0006808    -0.0001336    0.0004041     0.0580730   -0.2224681 
   0.066966733    -0.4024318   -0.4187919     0.0002610    0.0003640     0.0000529    0.0008184     0.0585665   -0.2220778 
   0.067066758    -0.4088337   -0.3960096     0.0003518    0.0011807     0.0000220    0.0008660     0.0577436   -0.2221418 
   0.067166783    -0.4175608   -0.3776464     0.0000493    0.0010890     0.0000051    0.0008770     0.0563849   -0.2223669 
   0.067266808    -0.4226322   -0.3554286     0.0001132    0.0002433    -0.0001124    0.0005340     0.0579894   -0.2215042 
   0.067366833    -0.4182554   -0.3368721     0.0002676    0.0001801     0.0000899    0.0005695     0.0576012   -0.2211829 
   0.067466858    -0.4256634   -0.3156571     0.0001078    0.0008897     0.0002943    0.0006231     0.0571362   -0.2205672 
   0.067566883    -0.4325984   -0.2960978     0.0002779    0.0009767     0.0001321    0.0007374     0.0571450   -0.2206578 
   0.067666908    -0.4326547   -0.2685361    -0.0001653    0.0005823    -0.0000658    0.0008676     0.0577855   -0.2204933 
   0.067766933    -0.4389725   -0.2408001    -0.0004512    0.0011596     0.0001249    0.0007679     0.0573789   -0.2211675 
   0.067866958    -0.4386723   -0.2242574     0.0006005    0.0011258     0.0000472    0.0007466     0.0578630   -0.2208387 
   0.067966983    -0.4397587   -0.1957380     0.0006866    0.0002230    -0.0001007    0.0010455     0.0559529   -0.2202532 
   0.068067009    -0.4358178   -0.1695659     0.0000881    0.0014616    -0.0000473    0.0008147     0.0566871   -0.2197840 
   0.068167034    -0.4310760   -0.1445676     0.0003060    0.0005686     0.0000432    0.0007217     0.0569343   -0.2201013 
   0.068267059    -0.4295431   -0.1212402     0.0003961    0.0010286     0.0004459    0.0006680     0.0571025   -0.2194691 
   0.068367084    -0.4209124   -0.0914643     0.0004343    0.0007509     0.0000516    0.0007988     0.0570463   -0.2193571 
   0.068467109    -0.4140700   -0.0683867    -0.0002178    0.0005973     0.0004738    0.0007757     0.0567322   -0.2194188 
   0.068567134    -0.4129337   -0.0447266     0.0006359    0.0005093     0.0001827    0.0005689     0.0556440   -0.2184810 
   0.068667159    -0.4003205   -0.0132980     0.0007054    0.0007523     0.0002482    0.0009065     0.0560597   -0.2193065 
   0.068767184    -0.3907726    0.0106313     0.0004234    0.0006110     0.0001712    0.0008673     0.0558864   -0.2194348 
   0.068867209    -0.3735323    0.0403044     0.0001235    0.0004389     0.0003384    0.0005517     0.0554756   -0.2183915 
   0.068967234    -0.3614742    0.0634253     0.0004401    0.0010588     0.0001464    0.0007311     0.0563045   -0.2177453 
   0.069067259    -0.3467600    0.0888043    -0.0000083    0.0009384     0.0001976    0.0006605     0.0551270   -0.2178323 
   0.069167284    -0.3302237    0.1156216     0.0000110    0.0011323     0.0001837    0.0005811     0.0556348   -0.2188063 
   0.069267309    -0.3092392    0.1420741     0.0003980    0.0008657    -0.0000554    0.0007196     0.0554532   -0.2173964 
   0.069367334    -0.2872772    0.1647871     0.0006221    0.0003744     0.0002465    0.0005937     0.0548128   -0.2177577 
   0.069467359    -0.2639148    0.1861412     0.0006276    0.0011418     0.0003856    0.0006741     0.0553829   -0.2168493 
   0.069567384    -0.2423562    0.2068133     0.0004901    0.0004017     0.0004557    0.0005627     0.0541977   -0.2179220 
   0.069667409    -0.2170599    0.2274963     0.0002167    0.0005864     0.0003737    0.0006737     0.0548152   -0.2163281 
   0.069767434    -0.1921782    0.2479011     0.0003471    0.0004214     0.0001800    0.0006094     0.0546663   -0.2161901 
   0.069867459    -0.1639702    0.2633587     0.0004650    0.0009012     0.0004775    0.0008583     0.0538319   -0.2166264 
   0.069967484    -0.1341795    0.2817219     0.0006592    0.0005123     0.0003859    0.0005929     0.0543782   -0.2170292 
   0.070067509    -0.1069562    0.2941783     0.0000374    0.0009535     0.0003189    0.0005611     0.0540308   -0.2166106 
   0.070167534    -0.0755574    0.3068909     0.0004298    0.0003184     0.0004033    0.0004769     0.0532609   -0.2151701 
   0.070267559    -0.0407426    0.3193175     0.0002872    0.0005206     0.0003897    0.0003837     0.0536905   -0.2163074 
   0.070367584    -0.0102445    0.3275841     0.0005174    0.0007538     0.0002746    0.0004480     0.0542159   -0.2159120 
   0.070467609     0.0240215    0.3342173     0.0000017    0.0007284     0.0003755    0.0004886     0.0537550   -0.2147548 
   0.070567634     0.0552563    0.3392387     0.0000524    0.0010793     0.0001653    0.0004328     0.0528109   -0.2153117 
   0.070667659     0.0932719    0.3404320     0.0004768    0.0002648     0.0002979    0.0003872     0.0538878   -0.2149794 
   0.070767684     0.1262485    0.3420650     0.0001866    0.0003765     0.0004964    0.0006613     0.0530710   -0.2145028 
   0.070867709     0.1612259    0.3398087     0.0006256    0.0008479     0.0005274    0.0004652     0.0532621   -0.2149245 
   0.070967734     0.1920560    0.3359468     0.0002783    0.0006420     0.0004370    0.0005431     0.0525458   -0.2151001 
   0.071067759     0.2254842    0.3335934     0.0008222    0.0002262     0.0003731    0.0004474     0.0530082   -0.2136362 
   0.071167784     0.2599064    0.3246621     0.0004525    0.0004532     0.0003158    0.0003959     0.0535438   -0.2142437 
   0.071267809     0.2888999    0.3171846     0.0006758   -0.0000691     0.0004406    0.0003927     0.0514620   -0.2138198 
   0.071367834     0.3237606    0.3031123     0.0003692    0.0001299     0.0003907    0.0003928     0.0536164   -0.2133860 
   0.071467859     0.3507107    0.2901766    -0.0001817    0.0003376     0.0002860    0.0004785     0.0530799   -0.2132158 
   0.071567884     0.3793705    0.2777945    -0.0005733    0.0001437     0.0002738    0.0003177     0.0525341   -0.2129992 
   0.071667909     0.4081845    0.2614687    -0.0000528    0.0001835     0.0001750    0.0001570     0.0522815   -0.2131681 
   0.071767934     0.4339439    0.2442253     0.0006178   -0.0000397     0.0002195    0.0004710     0.0508612   -0.2133218 
   0.071867959     0.4584989    0.2236444     0.0005104   -0.0003026     0.0003099    0.0003280     0.0516238   -0.2124796 
   0.071967984     0.4818557    0.2074915     0.0000844    0.0003787     0.0004014    0.0001214     0.0514502   -0.2126423 
   0.072068009     0.5043146    0.1859790    -0.0002753    0.0002690     0.0001518    0.0001448     0.0517766   -0.2115985 
   0.072168034     0.5256548    0.1603826     0.0003461   -0.0001938     0.0001841    0.0000860     0.0510825   -0.2128597 
   0.072268059     0.5414539    0.1417014     0.0004270    0.0001956    -0.0000055    0.0003376     0.0515874   -0.2114522 
   0.072368084     0.5616281    0.1214457     0.0000577    0.0001906     0.0004712    0.0002081     0.0515466   -0.2117940 
   0.072468109     0.5741416    0.0984953     0.0000489   -0.0002978     0.0002172    0.0002036     0.0520733   -0.2127750 
   0.072568134     0.5914021    0.0723616     0.0005195   -0.0000182     0.0002264    0.0003964     0.0513076   -0.2111321 
   0.072668159     0.6008855    0.0562660    -0.0002454   -0.0003595     0.0003664    0.0004219     0.0511591   -0.2109002 
   0.072768184     0.6168195    0.0251816    -0.0000660    0.0007151     0.0003681    0.0001809     0.0507061   -0.2112778 
   0.072868209     0.6269689    0.0007527    -0.0001997   -0.0004334     0.0000986    0.0000434     0.0502304   -0.2106663 
   0.072968234     0.6400652   -0.0177946    -0.0000212    0.0006435     0.0001976    0.0001590     0.0504365   -0.2108774 
   0.073068259     0.6445876   -0.0429578     0.0011583    0.0000055     0.0001191    0.0005793     0.0504028   -0.2107874 
   0.073168284     0.6519659   -0.0651170    -0.0001256   -0.0002589     0.0001705    0.0003854     0.0508682   -0.2108047 
   0.073268309     0.6584799   -0.0929294    -0.0001004    0.0003327     0.0000978    0.0003320     0.0503404   -0.2103295 
   0.073368334     0.6617848   -0.1153042     0.0005105    0.0004302    -0.0000386   -0.0001466     0.0504424   -0.2103461 
   0.073468359     0.6629062   -0.1359136     0.0003903    0.0001730     0.0003278    0.0004311     0.0509112   -0.2090785 
   0.073568384     0.6668813   -0.1626199     0.0008271    0.0006573     0.0000070    0.0005085     0.0489230   -0.2106579 
   0.073668409     0.6645997   -0.1775615     0.0003175   -0.0002607     0.0003840   -0.0000192     0.0501773   -0.2090919 
   0.073768434     0.6688596   -0.2066535    -0.0008324    0.0002817     0.0002574    0.0002619     0.0500392   -0.2093893 
   0.073868459     0.6719171   -0.2250800     0.0002836   -0.0001200    -0.0001854    0.0004225     0.0489913   -0.2090987 
   0.073968484     0.6695345   -0.2456809    -0.0005163    0.0005763    -0.0002030    0.0003903     0.0493284   -0.2091578 
   0.074068509     0.6618960   -0.2728651    -0.0005808    0.0000529     0.0000123    0.0004337     0.0483592   -0.2091542 
   0.074168534     0.6616444   -0.2879040    -0.0000388    0.0008022    -0.0000388    0.0003279     0.0488442   -0.2089329 
   0.074268559     0.6591369   -0.3083955     0.0002012    0.0002822    -0.0002204    0.0002657     0.0485851   -0.2093633 
   0.074368584     0.6608040   -0.3178962     0.0001529   -0.0002866     0.0001026    0.0000973     0.0492903   -0.2094357 
   0.074468609     0.6483060   -0.3433041    -0.0000333    0.0002948    -0.0003170    0.0003178     0.0486181   -0.2086604 
   0.074568634     0.6506190   -0.3664684     0.0001044    0.0006410     0.0002339    0.0002191     0.0489201   -0.2078032 
   0.074668659     0.6432320   -0.3822533    -0.0008554    0.0003319     0.0002089    0.0001537     0.0471236   -0.2091621 
   0.074768684     0.6380736   -0.3869750    -0.0005922    0.0004491    -0.0002132    0.0006378     0.0477801   -0.2080561 
   0.074868709     0.6346003   -0.4107782    -0.0003882   -0.0000201     0.0000188    0.0003692     0.0482215   -0.2081659 
   0.074968734     0.6184385   -0.4235368     0.0003487   -0.0005531     0.0000096    0.0000658     0.0479419   -0.2077376 
   0.075068759     0.6137797   -0.4506785     0.0002025    0.0000812     0.0002383    0.0000213     0.0469971   -0.2075802 
   0.075168784     0.6079732   -0.4604039     0.0000387    0.0001972    -0.0000133    0.0005694     0.0475118   -0.2067050 
   0.075268809     0.5984423   -0.4739690    -0.0000938    0.0000605    -0.0000645    0.0004617     0.0478416   -0.2073004 
   0.075368834     0.5958658   -0.4849849     0.0012027    0.0000228     0.0001389    0.0003024     0.0484607   -0.2070389 
   0.075468859     0.5860828   -0.5025823    -0.0002261    0.0004099    -0.0003172    0.0003526     0.0474344   -0.2066262 
   0.075568884     0.5791399   -0.5120674     0.0005881    0.0001029    -0.0001583    0.0003573     0.0472360   -0.2069502 
   0.075668909     0.5664917   -0.5397885     0.0001255    0.0007889    -0.0001375    0.0003551     0.0460179   -0.2067157 
   0.075768934     0.5507054   -0.5423471     0.0000671   -0.0002171    -0.0001656    0.0001893     0.0467634   -0.2058090 
   0.075868959     0.5431670   -0.5516132    -0.0001650   -0.0002799    -0.0004661    0.0005270     0.0469953   -0.2058205 
   0.075968984     0.5370455   -0.5681387    -0.0003674    0.0006528    -0.0001860    0.0000117     0.0470040   -0.2068971 
   0.076069010     0.5334949   -0.5762001    -0.0002737   -0.0001143    -0.0001950    0.0003091     0.0461765   -0.2060106 
   0.076169035     0.5188186   -0.5904150    -0.0007086    0.0000056    -0.0004451   -0.0001530     0.0462098   -0.2055618 
   0.076269060     0.5062906   -0.5977246     0.0000031    0.0003309     0.0000843    0.0003566     0.0459549   -0.2051182 
   0.076369085     0.4988860   -0.6072357    -0.0004130    0.0000261    -0.0000989    0.0006414     0.0474665   -0.2049459 
   0.076469110     0.4843134   -0.6131588    -0.0001109   -0.0001327    -0.0001923    0.0003882     0.0462771   -0.2060941 
   0.076569135     0.4765347   -0.6246816     0.0004957    0.0000023    -0.0003299    0.0007538     0.0457474   -0.2050527 
   0.076669160     0.4712892   -0.6366941     0.0001106    0.0002840    -0.0000036    0.0004083     0.0452318   -0.2056904 
   0.076769185     0.4570194   -0.6422578     0.0001575   -0.0003903    -0.0001735    0.0000112     0.0462835   -0.2040723 
   0.076869210     0.4459996   -0.6615912    -0.0001950   -0.0001633    -0.0003074    0.0003120     0.0457861   -0.2044076 
   0.076969235     0.4334193   -0.6610196     0.0001088    0.0014761    -0.0000694    0.0005220     0.0459214   -0.2045533 
   0.077069260     0.4249571   -0.6629262    -0.0000416   -0.0000697    -0.0002569    0.0005197     0.0451166   -0.2045186 
   0.077169285     0.4124867   -0.6724500    -0.0001668   -0.0004163     0.0000465    0.0005788     0.0457413   -0.2039070 
   0.077269310     0.4098480   -0.6746002     0.0001046    0.0000717    -0.0004103    0.0002220     0.0450457   -0.2049990 
   0.077369335     0.3869986   -0.6943815     0.0003837    0.0000757    -0.0000320    0.0004887     0.0450918   -0.2051121 
   0.077469360     0.3759780   -0.6948226     0.0001003    0.0000334    -0.0002430    0.0000590     0.0449628   -0.2037390 
   0.077569385     0.3696684   -0.7025892     0.0000881   -0.0002288    -0.0001451    0.0003410     0.0450308   -0.2034232 
   0.077669410     0.3583170   -0.7050457     0.0000592    0.0001764    -0.0002441    0.0006174     0.0450774   -0.2049473 
   0.077769435     0.3483253   -0.7135571    -0.0001767    0.0008242    -0.0004135    0.0007785     0.0453122   -0.2028251 
   0.077869460     0.3256930   -0.7248993    -0.0006869    0.0001169    -0.0001252    0.0002832     0.0451292   -0.2039718 
   0.077969485     0.3228246   -0.7210869    -0.0000346    0.0002896    -0.0002184    0.0007866     0.0448619   -0.2034398 
   0.078069510     0.3059391   -0.7230001    -0.0004398    0.0008951    -0.0004363    0.0003674     0.0445757   -0.2035858 
   0.078169535     0.3057447   -0.7282287     0.0000946    0.0008611     0.0003361    0.0007427     0.0433374   -0.2024540 
   0.078269560     0.2910345   -0.7346389     0.0000750    0.0003654    -0.0001958    0.0002661     0.0442721   -0.2021256 
   0.078369585     0.2805297   -0.7325678    -0.0005106    0.0002743    -0.0000267    0.0004956     0.0441830   -0.2027942 
   0.078469610     0.2689282   -0.7427819    -0.0004566    0.0003284     0.0000366    0.0003074     0.0440815   -0.2025356 
   0.078569635     0.2606591   -0.7396258     0.0000295    0.0001505    -0.0002035    0.0002271     0.0435769   -0.2016858 
   0.078669660     0.2494930   -0.7467111     0.0001826    0.0003893     0.0000017    0.0002629     0.0439959   -0.2020321 
   0.078769685     0.2282450   -0.7577801    -0.0004445    0.0004870    -0.0001885    0.0004518     0.0443001   -0.2019325 
   0.078869710     0.2149004   -0.7572988    -0.0005902    0.0011092    -0.0000272    0.0005240     0.0428069   -0.2021208 
   0.078969735     0.2071867   -0.7589623     0.0003144   -0.0004067    -0.0000116    0.0005922     0.0434637   -0.2021309 
   0.079069760     0.1989377   -0.7487641    -0.0001655    0.0004217    -0.0002924    0.0004165     0.0432727   -0.2007809 
   0.079169785     0.1830279   -0.7509914     0.0004194    0.0002454    -0.0002553    0.0007338     0.0429457   -0.2018450 
   0.079269810     0.1811897   -0.7616990    -0.0000130    0.0002657    -0.0000385    0.0006103     0.0434888   -0.2015849 
   0.079369835     0.1621053   -0.7514486     0.0003402    0.0005832    -0.0002047    0.0006299     0.0433751   -0.2006899 
   0.079469860     0.1498217   -0.7586722    -0.0000945   -0.0000761    -0.0002178    0.0005492     0.0436345   -0.2007399 
   0.079569885     0.1405176   -0.7549646    -0.0001657    0.0007291    -0.0000477    0.0005074     0.0431396   -0.1996344 
   0.079669910     0.1313345   -0.7621313     0.0001596    0.0009612    -0.0000512    0.0003652     0.0418419   -0.2000948 
   0.079769935     0.1173313   -0.7663345     0.0003504    0.0003464    -0.0000685    0.0007354     0.0428306   -0.2005628 
   0.079869960     0.1100339   -0.7637006     0.0001542    0.0006994    -0.0000972    0.0006421     0.0423480   -0.2002513 
   0.079969985     0.0974224   -0.7699029     0.0001211    0.0008098    -0.0002981    0.0007438     0.0428212   -0.2001677 
   0.080070010     0.0854373   -0.7640630     0.0000321    0.0002570    -0.0000972    0.0006435     0.0423028   -0.2002329 
   0.080170035     0.0741132   -0.7631179    -0.0007127    0.0002536     0.0000271    0.0005005     0.0421134   -0.1998449 
   0.080270060     0.0616740   -0.7596669    -0.0001033    0.0002650     0.0000741    0.0006381     0.0414881   -0.1993916 
   0.080370085     0.0533770   -0.7638108    -0.0003705    0.0003461    -0.0001605    0.0005477     0.0421888   -0.1997763 
   0.080470110     0.0359681   -0.7596729     0.0004165    0.0008633     0.0000232    0.0007370     0.0412466   -0.1997830 
   0.080570135     0.0308493   -0.7637362     0.0001577    0.0007776    -0.0003675    0.0008120     0.0419698   -0.2000639 
   0.080670160     0.0181702   -0.7567549    -0.0004920    0.0008816    -0.0002060    0.0006585     0.0410538   -0.2004109 
   0.080770185     0.0081060   -0.7514178    -0.0000608    0.0009349     0.0000082    0.0005541     0.0414608   -0.1991376 
   0.080870210    -0.0078404   -0.7540851    -0.0000024    0.0009542    -0.0003397    0.0005141     0.0415834   -0.1990556 
   0.080970235    -0.0223668   -0.7509546    -0.0009646    0.0002830     0.0000021    0.0009811     0.0415219   -0.1991287 
   0.081070260    -0.0246379   -0.7426867    -0.0003289    0.0014561    -0.0000177    0.0007911     0.0417247   -0.1992574 
   0.081170285    -0.0453679   -0.7387990     0.0002284    0.0014394    -0.0001202    0.0007423     0.0408434   -0.1988024 
   0.081270310    -0.0610798   -0.7374523    -0.0005141    0.0007644    -0.0001054    0.0008404     0.0411236   -0.1996321 
   0.081370335    -0.0668345   -0.7360007    -0.0000762    0.0002926    -0.0000460    0.0009834     0.0399854   -0.1988640 
   0.081470360    -0.0750703   -0.7242491     0.0003509    0.0006762    -0.0000639    0.0005418     0.0411150   -0.1979638 
   0.081570385    -0.0850171   -0.7313213     0.0001195    0.0011214    -0.0000919    0.0006610     0.0410643   -0.1981203 
   0.081670410    -0.0976148   -0.7248812     0.0001598    0.0010536    -0.0000763    0.0009068     0.0403785   -0.1978152 
   0.081770435    -0.1091708   -0.7206013    -0.0000831    0.0011033     0.0000462    0.0005962     0.0403534   -0.1972357 
   0.081870460    -0.1201419   -0.7130103     0.0001375    0.0011575    -0.0000680    0.0007537     0.0404680   -0.1987780 
   0.081970485    -0.1319845   -0.7100787     0.0001226    0.0011501    -0.0001347    0.0009252     0.0402957   -0.1978934 
   0.082070510    -0.1415232   -0.7023094    -0.0005028    0.0008291    -0.0000102    0.0007640     0.0404444   -0.1984309 
   0.082170535    -0.1561096   -0.6973905    -0.0002562    0.0002205    -0.0002892    0.0007970     0.0395569   -0.1972771 
   0.082270560    -0.1575944   -0.6969604    -0.0002890    0.0005890    -0.0001341    0.0009387     0.0399328   -0.1974323 
   0.082370585    -0.1823147   -0.6941040    -0.0003038    0.0007801    -0.0003638    0.0007463     0.0404918   -0.1968455 
   0.082470610    -0.1826858   -0.6826680    -0.0001727    0.0011555    -0.0001591    0.0009432     0.0402317   -0.1962259 
   0.082570635    -0.1958733   -0.6717584     0.0000265    0.0012074     0.0000738    0.0008377     0.0399594   -0.1969313 
   0.082670660    -0.2069649   -0.6642797    -0.0003232    0.0006985    -0.0002097    0.0007879     0.0390340   -0.1970694 
   0.082770685    -0.2179080   -0.6610128    -0.0000159    0.0003755     0.0000397    0.0008647     0.0388400   -0.1963779 
   0.082870710    -0.2287837   -0.6509294    -0.0004280    0.0008039     0.0001506    0.0007323     0.0395816   -0.1969626 
   0.082970735    -0.2403263   -0.6466775    -0.0000430    0.0010475    -0.0000802    0.0007165     0.0393971   -0.1967801 
   0.083070760    -0.2518761   -0.6394742    -0.0003872    0.0009158    -0.0000123    0.0008358     0.0389741   -0.1959796 
   0.083170785    -0.2595745   -0.6352213    -0.0000582    0.0011217    -0.0000819    0.0008921     0.0391796   -0.1965741 
   0.083270810    -0.2656104   -0.6215898     0.0001647    0.0004416    -0.0000685    0.0007586     0.0382384   -0.1947596 
   0.083370835    -0.2781049   -0.6075640    -0.0001644    0.0011238    -0.0000630    0.0008409     0.0388485   -0.1961025 
   0.083470860    -0.2899130   -0.6018459     0.0002856    0.0008637    -0.0000055    0.0009101     0.0381176   -0.1958454 
   0.083570885    -0.2969230   -0.5925584     0.0002790    0.0010709     0.0000189    0.0009968     0.0388610   -0.1951354 
   0.083670910    -0.3039589   -0.5838218     0.0001500    0.0013857     0.0000536    0.0008246     0.0388372   -0.1951583 
   0.083770935    -0.3135953   -0.5704037    -0.0000675    0.0008504     0.0000323    0.0007146     0.0387726   -0.1948713 
   0.083870960    -0.3297594   -0.5630399     0.0000704    0.0010542     0.0000476    0.0009032     0.0382569   -0.1953892 
   0.083970985    -0.3377332   -0.5484755    -0.0001649    0.0008967    -0.0000648    0.0010489     0.0382344   -0.1957737 
   0.084071011    -0.3478554   -0.5372255     0.0004040    0.0006021     0.0000339    0.0008330     0.0373013   -0.1959857 
   0.084171036    -0.3512488   -0.5298495     0.0000101    0.0007479    -0.0001572    0.0009099     0.0383565   -0.1950118 
   0.084271061    -0.3590625   -0.5155652    -0.0002045    0.0006247     0.0001704    0.0007324     0.0382017   -0.1948008 
   0.084371086    -0.3731093   -0.5024635    -0.0004424    0.0011968     0.0001528    0.0007840     0.0379379   -0.1947784 
   0.084471111    -0.3777283   -0.4919234    -0.0002617    0.0007688     0.0000424    0.0008998     0.0373872   -0.1944085 
   0.084571136    -0.3855020   -0.4803447     0.0002104    0.0010400     0.0000513    0.0009468     0.0367257   -0.1943006 
   0.084671161    -0.3935615   -0.4659482     0.0001182    0.0010302     0.0000384    0.0010370     0.0368679   -0.1942564 
   0.084771186    -0.4024526   -0.4514906     0.0003188    0.0011604     0.0000647    0.0008667     0.0376302   -0.1946503 
   0.084871211    -0.4110032   -0.4367940     0.0001512    0.0007071     0.0002018    0.0009786     0.0371416   -0.1943894 
   0.084971236    -0.4151875   -0.4219285     0.0002309    0.0009705     0.0001232    0.0009283     0.0371657   -0.1937924 
   0.085071261    -0.4222530   -0.4067338     0.0001735    0.0010540     0.0003174    0.0008432     0.0369015   -0.1940703 
   0.085171286    -0.4268655   -0.3888792     0.0006021    0.0009368     0.0001952    0.0010234     0.0358765   -0.1937917 
   0.085271311    -0.4310167   -0.3752761     0.0005682    0.0009072     0.0001653    0.0009577     0.0361466   -0.1939249 
   0.085371336    -0.4351958   -0.3590975    -0.0000146    0.0008722     0.0002344    0.0011216     0.0367752   -0.1934982 
   0.085471361    -0.4425420   -0.3447611     0.0007370    0.0010351     0.0001593    0.0010109     0.0363090   -0.1938849 
   0.085571386    -0.4474683   -0.3217081     0.0001074    0.0007749     0.0002591    0.0009329     0.0370058   -0.1937725 
   0.085671411    -0.4504836   -0.3100675     0.0000024    0.0008478     0.0002592    0.0009869     0.0363935   -0.1931553 
   0.085771436    -0.4554725   -0.2902092     0.0004215    0.0010545    -0.0000052    0.0008902     0.0361448   -0.1928594 
   0.085871461    -0.4576550   -0.2715441     0.0001831    0.0007831     0.0002460    0.0009046     0.0364461   -0.1935314 
   0.085971486    -0.4578877   -0.2538996     0.0000898    0.0008863     0.0002181    0.0009144     0.0364202   -0.1926836 
   0.086071511    -0.4597822   -0.2349016     0.0004414    0.0010786     0.0002812    0.0010009     0.0367522   -0.1927984 
   0.086171536    -0.4591761   -0.2162672     0.0002695    0.0012872     0.0002180    0.0009851     0.0362924   -0.1922286 
   0.086271561    -0.4586353   -0.1973895     0.0002597    0.0009991     0.0002149    0.0010189     0.0354767   -0.1911609 
   0.086371586    -0.4598372   -0.1751837     0.0005337    0.0011959     0.0002749    0.0010687     0.0356802   -0.1917486 
   0.086471611    -0.4595530   -0.1567895     0.0004901    0.0009488     0.0003454    0.0009426     0.0349494   -0.1920005 
   0.086571636    -0.4567139   -0.1358175     0.0004573    0.0010457     0.0002737    0.0008940     0.0352080   -0.1913563 
   0.086671661    -0.4511787   -0.1137864     0.0003332    0.0008825     0.0002268    0.0009555     0.0356783   -0.1920391 
   0.086771686    -0.4488381   -0.0958009     0.0004376    0.0007700     0.0004026    0.0008797     0.0355835   -0.1920346 
   0.086871711    -0.4443091   -0.0741504     0.0000878    0.0008769     0.0002871    0.0008578     0.0345715   -0.1917582 
   0.086971736    -0.4391719   -0.0517072     0.0004134    0.0012450     0.0005566    0.0008639     0.0354720   -0.1915850 
   0.087071761    -0.4316973   -0.0317892     0.0003101    0.0012640     0.0004305    0.0008429     0.0350445   -0.1927964 
   0.087171786    -0.4255477   -0.0114755     0.0003953    0.0010635     0.0004779    0.0010461     0.0348272   -0.1916432 
   0.087271811    -0.4171068    0.0092364     0.0003830    0.0006337     0.0004058    0.0009350     0.0348706   -0.1919163 
   0.087371836    -0.4072300    0.0313970     0.0002035    0.0005492     0.0004554    0.0009664     0.0348907   -0.1911588 
   0.087471861    -0.3960557    0.0519770     0.0001789    0.0009208     0.0005118    0.0009971     0.0342713   -0.1914703 
   0.087571886    -0.3861297    0.0725747     0.0005772    0.0010109     0.0004376    0.0010049     0.0344404   -0.1913261 
   0.087671911    -0.3723067    0.0918742     0.0005176    0.0008864     0.0004580    0.0008665     0.0346362   -0.1911631 
   0.087771936    -0.3575976    0.1151286     0.0004380    0.0013124     0.0005499    0.0009351     0.0338685   -0.1901844 
   0.087871961    -0.3452691    0.1336146     0.0006811    0.0008081     0.0005061    0.0008505     0.0340873   -0.1907957 
   0.087971986    -0.3263219    0.1524383     0.0011734    0.0010130     0.0003363    0.0008607     0.0342671   -0.1900180 
   0.088072011    -0.3113715    0.1724243     0.0003677    0.0008122     0.0005199    0.0006458     0.0337301   -0.1907464 
   0.088172036    -0.2942232    0.1901735     0.0004942    0.0007982     0.0003754    0.0007474     0.0335020   -0.1903931 
   0.088272061    -0.2752996    0.2073642     0.0006687    0.0008330     0.0005701    0.0009994     0.0342749   -0.1902783 
   0.088372086    -0.2536706    0.2237162     0.0003523    0.0011250     0.0005303    0.0009150     0.0335059   -0.1896749 
   0.088472111    -0.2331552    0.2398398     0.0001551    0.0007337     0.0003902    0.0006851     0.0339768   -0.1901077 
   0.088572136    -0.2119074    0.2549093     0.0007342    0.0008089     0.0005177    0.0009638     0.0333290   -0.1899487 
   0.088672161    -0.1899359    0.2689430     0.0005608    0.0009005     0.0005628    0.0007492     0.0337335   -0.1894825 
   0.088772186    -0.1659816    0.2820361     0.0006145    0.0010187     0.0007547    0.0006906     0.0335144   -0.1898664 
   0.088872211    -0.1392420    0.2933151     0.0005299    0.0005904     0.0006447    0.0005831     0.0339089   -0.1890248 
   0.088972236    -0.1149369    0.3026013     0.0007096    0.0006764     0.0006453    0.0006733     0.0336402   -0.1895647 
   0.089072261    -0.0876780    0.3121597     0.0005889    0.0000099     0.0005925    0.0006072     0.0331568   -0.1899890 
   0.089172286    -0.0617312    0.3223894     0.0011087    0.0011874     0.0006972    0.0007569     0.0329107   -0.1896003 
   0.089272311    -0.0345606    0.3274162     0.0005295    0.0003889     0.0009729    0.0005438     0.0327605   -0.1892414 
   0.089372336    -0.0065096    0.3310527     0.0002614    0.0000885     0.0005519    0.0003998     0.0335832   -0.1898207 
   0.089472361     0.0210840    0.3376158     0.0005682    0.0004698     0.0007207    0.0007055     0.0330246   -0.1891748 
   0.089572386     0.0484226    0.3387614     0.0009200    0.0004194     0.0008226    0.0008514     0.0324910   -0.1883778 
   0.089672411     0.0795934    0.3409123     0.0005738    0.0007586     0.0006948    0.0004455     0.0326209   -0.1888386 
   0.089772436     0.1076961    0.3395521     0.0001454    0.0002227     0.0005783    0.0005098     0.0329783   -0.1887200 
   0.089872461     0.1360493    0.3396659     0.0002523    0.0005285     0.0005399    0.0002329     0.0323625   -0.1885423 
   0.089972486     0.1621751    0.3333784     0.0007940    0.0005751     0.0004251    0.0007490     0.0315861   -0.1894340 
   0.090072511     0.1916618    0.3287069     0.0005151    0.0003850     0.0005802    0.0005446     0.0324433   -0.1888815 
   0.090172536     0.2221504    0.3206910     0.0008235   -0.0002287     0.0003147    0.0006920     0.0319081   -0.1880690 
   0.090272561     0.2451536    0.3129120     0.0000909    0.0002241     0.0005169    0.0003698     0.0312677   -0.1883321 
   0.090372586     0.2743261    0.3029498     0.0003790   -0.0002116     0.0004958    0.0003685     0.0315002   -0.1882991 
   0.090472611     0.2989657    0.2934397     0.0001193    0.0002743     0.0005017    0.0006427     0.0324005   -0.1871059 
   0.090572636     0.3267893    0.2800474     0.0006463    0.0004669     0.0005268    0.0003704     0.0317341   -0.1884609 
   0.090672661     0.3518050    0.2662413     0.0004378    0.0007360     0.0003118    0.0007145     0.0316792   -0.1876211 
   0.090772686     0.3752826    0.2532067     0.0005531    0.0000603     0.0007932    0.0003229     0.0310999   -0.1877874 
   0.090872711     0.3960310    0.2347032     0.0008913    0.0004048     0.0005060    0.0002805     0.0311708   -0.1883667 
   0.090972736     0.4193845    0.2244385     0.0003481   -0.0000210     0.0005813    0.0003321     0.0305477   -0.1876765 
   0.091072761     0.4374321    0.1998581     0.0005741    0.0003466     0.0004994    0.0003747     0.0300518   -0.1875574 
   0.091172786     0.4568235    0.1836602     0.0005520    0.0001307     0.0000896    0.0002378     0.0310814   -0.1879564 
   0.091272811     0.4760066    0.1676660     0.0002074    0.0001582     0.0004033    0.0004206     0.0306046   -0.1875565 
   0.091372836     0.4911930    0.1456046     0.0002082    0.0006609     0.0003224    0.0003948     0.0308697   -0.1865051 
   0.091472861     0.5087426    0.1223602     0.0000593    0.0004368     0.0001451    0.0004061     0.0320103   -0.1874222 
   0.091572886     0.5262875    0.1030043     0.0003664    0.0005244    -0.0000216    0.0003581     0.0307106   -0.1864466 
   0.091672911     0.5360282    0.0797278     0.0003035    0.0007299     0.0002463    0.0004721     0.0295304   -0.1869360 
   0.091772936     0.5544930    0.0594719     0.0000600    0.0002116     0.0004030    0.0002140     0.0307451   -0.1874131 
   0.091872961     0.5676960    0.0397304     0.0004806    0.0002567     0.0003682    0.0001960     0.0305248   -0.1861807 
   0.091972986     0.5679439    0.0146333     0.0005457    0.0006788     0.0003209   -0.0000926     0.0304713   -0.1872067 
   0.092073012     0.5805784   -0.0115026    -0.0000249    0.0002878     0.0003355    0.0003757     0.0302142   -0.1864204 
   0.092173037     0.5876844   -0.0249023    -0.0002220    0.0004955     0.0004964    0.0000876     0.0305071   -0.1855277 
   0.092273062     0.5991049   -0.0508210     0.0001669    0.0000819     0.0002468    0.0003535     0.0300448   -0.1864263 
   0.092373087     0.6041461   -0.0741336     0.0004630    0.0003112     0.0000073    0.0004460     0.0299805   -0.1856585 
   0.092473112     0.6036028   -0.1011846     0.0002328    0.0005291     0.0001831    0.0003414     0.0303224   -0.1860176 
   0.092573137     0.6118765   -0.1241884     0.0007258    0.0007292     0.0003465    0.0003038     0.0293638   -0.1870586 
   0.092673162     0.6156618   -0.1460859     0.0008267    0.0000586     0.0001473    0.0003601     0.0295158   -0.1863113 
   0.092773187     0.6199484   -0.1689853     0.0004551    0.0000388     0.0002577    0.0000575     0.0296947   -0.1854029 
   0.092873212     0.6164278   -0.1882410     0.0005474    0.0002516     0.0001653    0.0006124     0.0295945   -0.1850690 
   0.092973237     0.6163957   -0.2108558    -0.0000033   -0.0002985     0.0005345    0.0004059     0.0292385   -0.1849353 
   0.093073262     0.6164935   -0.2329050    -0.0003992    0.0004611     0.0001997    0.0004084     0.0291395   -0.1849513 
   0.093173287     0.6066685   -0.2534476     0.0000394    0.0006978     0.0002017    0.0006809     0.0287155   -0.1847475 
   0.093273312     0.6096542   -0.2710583    -0.0000579    0.0002637    -0.0000460    0.0002310     0.0293602   -0.1846333 
   0.093373337     0.6025692   -0.2963125     0.0002386    0.0007295     0.0002051    0.0003483     0.0289420   -0.1857596 
   0.093473362     0.6074455   -0.3146645     0.0000569    0.0004400     0.0000235    0.0002282     0.0292546   -0.1855401 
   0.093573387     0.5953737   -0.3314175     0.0010282    0.0000866    -0.0000282    0.0002788     0.0291236   -0.1861862 
   0.093673412     0.5895526   -0.3491181     0.0002950   -0.0000587     0.0002859    0.0003564     0.0287834   -0.1849447 
   0.093773437     0.5854644   -0.3717016     0.0004446    0.0001653     0.0002294    0.0003278     0.0287804   -0.1848100 
   0.093873462     0.5797291   -0.3871306    -0.0005911    0.0007131     0.0005310    0.0003601     0.0282215   -0.1847343 
   0.093973487     0.5780282   -0.4005219     0.0000628    0.0003389     0.0000647    0.0003665     0.0278529   -0.1840240 
   0.094073512     0.5681686   -0.4227018    -0.0001673    0.0001774     0.0000963    0.0001125     0.0285135   -0.1846290 
   0.094173537     0.5518094   -0.4396003     0.0003937    0.0005181     0.0002419    0.0005209     0.0281750   -0.1848955 
   0.094273562     0.5462208   -0.4465711     0.0002080    0.0003242    -0.0000231    0.0003829     0.0283021   -0.1841747 
   0.094373587     0.5421936   -0.4652609     0.0000181    0.0000121    -0.0001071    0.0005661     0.0278381   -0.1843042 
   0.094473612     0.5276795   -0.4840356     0.0001016    0.0008282    -0.0000243    0.0002658     0.0278472   -0.1840839 
   0.094573637     0.5214649   -0.4994760    -0.0002835    0.0003746     0.0000175    0.0005061     0.0290199   -0.1841741 
   0.094673662     0.5139686   -0.5117275     0.0002555    0.0003459     0.0003506    0.0002123     0.0283292   -0.1840348 
   0.094773687     0.5058883   -0.5260795    -0.0002502   -0.0000562     0.0001086    0.0003521     0.0277837   -0.1838904 
   0.094873712     0.4915534   -0.5344483    -0.0000582    0.0003955    -0.0002747    0.0003777     0.0273991   -0.1829832 
   0.094973737     0.4837306   -0.5496239    -0.0001819    0.0007813    -0.0000135    0.0005155     0.0280528   -0.1835512 
   0.095073762     0.4720518   -0.5615192    -0.0003590    0.0001805     0.0000077    0.0002447     0.0280561   -0.1835382 
   0.095173787     0.4633937   -0.5679548    -0.0003218    0.0001014    -0.0000487    0.0004148     0.0277120   -0.1826743 
   0.095273812     0.4486869   -0.5807032    -0.0001542    0.0006000    -0.0000242    0.0004021     0.0276760   -0.1838523 
   0.095373837     0.4355988   -0.5924358    -0.0000291    0.0003147    -0.0002049    0.0005850     0.0269057   -0.1837037 
   0.095473862     0.4286351   -0.6080368    -0.0001023    0.0007970    -0.0000113    0.0004542     0.0276199   -0.1837251 
   0.095573887     0.4134194   -0.6172531    -0.0002821    0.0002238    -0.0001875    0.0005293     0.0265072   -0.1827981 
   0.095673912     0.4057639   -0.6250076     0.0000282    0.0004836    -0.0000796    0.0005819     0.0264391   -0.1832751 
   0.095773937     0.3949874   -0.6292513     0.0000814    0.0002010     0.0000487    0.0004694     0.0270307   -0.1840297 
   0.095873962     0.3764007   -0.6408839     0.0001508    0.0007784     0.0000057    0.0004920     0.0273885   -0.1823336 
   0.095973987     0.3687658   -0.6509603    -0.0000023    0.0006606     0.0001795    0.0006792     0.0270815   -0.1827805 
   0.096074012     0.3588816   -0.6584822     0.0000840    0.0001044     0.0000089    0.0004494     0.0268235   -0.1826864 
   0.096174037     0.3448190   -0.6591450    -0.0001086    0.0005473    -0.0001456    0.0006181     0.0258314   -0.1818104 
   0.096274062     0.3345870   -0.6724536     0.0000064    0.0002910    -0.0000460    0.0006998     0.0266267   -0.1821034 
   0.096374087     0.3182529   -0.6713820     0.0001605    0.0006196     0.0001137    0.0005705     0.0262007   -0.1826633 
   0.096474112     0.3063850   -0.6801330    -0.0001045    0.0004510     0.0001298    0.0006621     0.0267793   -0.1819707 
   0.096574137     0.2927892   -0.6894000     0.0001143    0.0007119    -0.0002388    0.0005367     0.0259125   -0.1827665 
   0.096674162     0.2839996   -0.6915821    -0.0001735    0.0008735    -0.0000603    0.0007917     0.0257886   -0.1818182 
   0.096774187     0.2660511   -0.6972718    -0.0001916    0.0004745    -0.0000246    0.0006623     0.0263363   -0.1827977 
   0.096874212     0.2578299   -0.7039652     0.0002822    0.0007934     0.0001673    0.0006988     0.0255093   -0.1813741 
   0.096974237     0.2463212   -0.7046206     0.0002302    0.0007159    -0.0001428    0.0006411     0.0259290   -0.1825474 
   0.097074262     0.2283838   -0.7094299     0.0000866    0.0008644    -0.0001175    0.0007130     0.0268298   -0.1820104 
   0.097174287     0.2225782   -0.7167850    -0.0000146    0.0005568    -0.0001651    0.0007170     0.0254884   -0.1814160 
   0.097274312     0.2091031   -0.7174338     0.0003171    0.0004931    -0.0000909    0.0006910     0.0253917   -0.1815539 
   0.097374337     0.1933736   -0.7204497    -0.0000855    0.0006180     0.0000174    0.0005528     0.0249736   -0.1819885 
   0.097474362     0.1819537   -0.7216223    -0.0003246    0.0006211    -0.0000475    0.0007942     0.0260867   -0.1820171 
   0.097574387     0.1676306   -0.7261606     0.0001184    0.0007290    -0.0002070    0.0008880     0.0249178   -0.1819204 
   0.097674412     0.1560422   -0.7270101    -0.0001505    0.0006240    -0.0001710    0.0008180     0.0251578   -0.1806811 
   0.097774437     0.1484916   -0.7350245     0.0000396    0.0008215    -0.0000914    0.0006604     0.0245456   -0.1823580 
   0.097874462     0.1340313   -0.7315783    -0.0000493    0.0009101    -0.0001057    0.0008224     0.0254228   -0.1817053 
   0.097974487     0.1221020   -0.7359024     0.0000372    0.0008338    -0.0001714    0.0006512     0.0239748   -0.1809747 
   0.098074512     0.1057541   -0.7345446     0.0000344    0.0007488    -0.0000536    0.0007206     0.0244215   -0.1818016 
   0.098174537     0.0976126   -0.7319295    -0.0001652    0.0006019     0.0001451    0.0007891     0.0244113   -0.1808761 
   0.098274562     0.0834208   -0.7346405    -0.0000508    0.0008694    -0.0000012    0.0008222     0.0248705   -0.1806475 
   0.098374587     0.0725377   -0.7365223    -0.0002260    0.0010082    -0.0001377    0.0008186     0.0248789   -0.1805811 
   0.098474612     0.0598575   -0.7371827    -0.0003512    0.0008916    -0.0000843    0.0007531     0.0247057   -0.1807690 
   0.098574637     0.0448741   -0.7349819     0.0000341    0.0007265    -0.0000434    0.0007497     0.0241556   -0.1802345 
   0.098674662     0.0325248   -0.7341704    -0.0000991    0.0006079     0.0000553    0.0007331     0.0236878   -0.1814855 
   0.098774687     0.0221880   -0.7316568     0.0002099    0.0009837     0.0000609    0.0008660     0.0244194   -0.1803733 
   0.098874712     0.0075458   -0.7339171    -0.0001844    0.0009292     0.0000975    0.0007524     0.0244373   -0.1799461 
   0.098974737    -0.0018527   -0.7295200     0.0000442    0.0008160    -0.0000341    0.0008335     0.0242184   -0.1799133 
   0.099074762    -0.0095239   -0.7289355    -0.0000142    0.0008964    -0.0000555    0.0009129     0.0240333   -0.1803043 
   0.099174787    -0.0263764   -0.7282120    -0.0000357    0.0009035    -0.0000804    0.0009005     0.0243297   -0.1798650 
   0.099274812    -0.0382886   -0.7263725     0.0001635    0.0007009     0.0000266    0.0008273     0.0234439   -0.1800852 
   0.099374837    -0.0513721   -0.7234073     0.0000040    0.0008836    -0.0000665    0.0008519     0.0237876   -0.1800954 
   0.099474862    -0.0640683   -0.7204848    -0.0000529    0.0010285     0.0000934    0.0010652     0.0234468   -0.1792828 
   0.099574887    -0.0724462   -0.7189650     0.0001798    0.0007825     0.0000033    0.0007548     0.0233561   -0.1799149 
   0.099674912    -0.0851086   -0.7130141     0.0001161    0.0007452    -0.0000935    0.0008133     0.0227446   -0.1797329 
   0.099774937    -0.0961706   -0.7102641    -0.0000386    0.0007259    -0.0000017    0.0008696     0.0231132   -0.1802994 
   0.099874962    -0.1080675   -0.7105317     0.0002631    0.0010280    -0.0000115    0.0008858     0.0235971   -0.1803448 
   0.099974987    -0.1177822   -0.7043981     0.0000372    0.0007685     0.0000440    0.0008930     0.0238296   -0.1797354 
   0.100075013    -0.1318894   -0.7021365     0.0000200    0.0009051     0.0001292    0.0009049     0.0227410   -0.1799407 
   0.100175038    -0.1373509   -0.6957362     0.0001038    0.0011073     0.0001759    0.0009697     0.0227045   -0.1799469 
   0.100275063    -0.1526165   -0.6883742     0.0000367    0.0008691     0.0001285    0.0009554     0.0226013   -0.1793426 
   0.100375088    -0.1650648   -0.6812932     0.0002311    0.0007963     0.0000593    0.0010201     0.0216840   -0.1798204 
   0.100475113    -0.1748215   -0.6793551     0.0000453    0.0011211     0.0000209    0.0009929     0.0222464   -0.1788180 
   0.100575138    -0.1873240   -0.6760474     0.0003430    0.0011332     0.0000988    0.0009823     0.0219669   -0.1793182 
   0.100675163    -0.1956564   -0.6690074    -0.0000185    0.0008275     0.0000603    0.0009675     0.0228910   -0.1784060 
   0.100775188    -0.2067942   -0.6616083     0.0001342    0.0009336     0.0002003    0.0010070     0.0223562   -0.1797150 
   0.100875213    -0.2165594   -0.6594931     0.0000873    0.0010836     0.0000944    0.0009528     0.0219079   -0.1794880 
   0.100975238    -0.2271992   -0.6457667     0.0001231    0.0010631     0.0000957    0.0010320     0.0222247   -0.1789637 
   0.101075263    -0.2394922   -0.6423188     0.0001151    0.0009118     0.0001141    0.0009818     0.0224015   -0.1784769 
   0.101175288    -0.2495793   -0.6364709     0.0001138    0.0008971     0.0000911    0.0009193     0.0221367   -0.1790262 
   0.101275313    -0.2584535   -0.6289138     0.0000781    0.0008634     0.0002518    0.0008961     0.0220075   -0.1788811 
   0.101375338    -0.2677401   -0.6237276     0.0001117    0.0007805     0.0000926    0.0011241     0.0218325   -0.1786623 
   0.101475363    -0.2798911   -0.6119200    -0.0000900    0.0009672     0.0001733    0.0010226     0.0218378   -0.1786025 
   0.101575388    -0.2909793   -0.6033899     0.0000541    0.0010904     0.0001702    0.0009892     0.0217288   -0.1784881 
   0.101675413    -0.3001415   -0.6001235     0.0001266    0.0009502     0.0000991    0.0008863     0.0218713   -0.1782906 
   0.101775438    -0.3095760   -0.5881099     0.0002221    0.0009094     0.0002124    0.0010318     0.0216053   -0.1788430 
   0.101875463    -0.3169802   -0.5797085     0.0000772    0.0008252     0.0002479    0.0010485     0.0220859   -0.1781778 
   0.101975488    -0.3257255   -0.5670874    -0.0000031    0.0010823     0.0002233    0.0010181     0.0213255   -0.1780869 
   0.102075513    -0.3347330   -0.5588917     0.0003444    0.0009799     0.0001887    0.0011675     0.0209992   -0.1783182 
   0.102175538    -0.3433600   -0.5487559     0.0002527    0.0009890     0.0001149    0.0011229     0.0212288   -0.1782423 
   0.102275563    -0.3534831   -0.5402620     0.0002080    0.0010713     0.0002425    0.0010271     0.0209811   -0.1774049 
   0.102375588    -0.3599169   -0.5287070     0.0004120    0.0010263     0.0000977    0.0010133     0.0210402   -0.1784250 
   0.102475613    -0.3670666   -0.5199571     0.0003089    0.0010997     0.0000657    0.0010533     0.0214593   -0.1777118 
   0.102575638    -0.3756211   -0.5109698     0.0000693    0.0009826     0.0002753    0.0009455     0.0209007   -0.1776347 
   0.102675663    -0.3857519   -0.4993524     0.0002516    0.0010932     0.0002249    0.0008971     0.0206426   -0.1773367 
   0.102775688    -0.3936786   -0.4884278    -0.0000416    0.0013035     0.0001796    0.0010227     0.0205924   -0.1783255 
   0.102875713    -0.4003087   -0.4773373     0.0002700    0.0011131     0.0003612    0.0011052     0.0208307   -0.1782114 
   0.102975738    -0.4065596   -0.4667110     0.0004119    0.0012394     0.0001424    0.0010201     0.0206974   -0.1782269 
   0.103075763    -0.4160242   -0.4518298     0.0004254    0.0011360     0.0001493    0.0010419     0.0202509   -0.1774914 
   0.103175788    -0.4206803   -0.4401507     0.0003883    0.0011889     0.0003804    0.0010331     0.0201406   -0.1768013 
   0.103275813    -0.4264820   -0.4277352     0.0004238    0.0010281     0.0003132    0.0010477     0.0206622   -0.1773478 
   0.103375838    -0.4339406   -0.4149695     0.0001399    0.0012498     0.0002748    0.0010047     0.0197668   -0.1770833 
   0.103475863    -0.4370425   -0.4014874     0.0004201    0.0009712     0.0001179    0.0010839     0.0198068   -0.1776116 
   0.103575888    -0.4426517   -0.3877707     0.0002889    0.0014444     0.0003497    0.0010016     0.0198017   -0.1772481 
   0.103675913    -0.4488154   -0.3728124     0.0004038    0.0015410     0.0004564    0.0009551     0.0205120   -0.1774226 
   0.103775938    -0.4536639   -0.3613553     0.0002904    0.0010138     0.0002721    0.0010933     0.0203977   -0.1773363 
   0.103875963    -0.4582520   -0.3479317     0.0005966    0.0011631     0.0003733    0.0010487     0.0194360   -0.1770424 
   0.103975988    -0.4615509   -0.3313490     0.0006863    0.0013266     0.0004268    0.0010626     0.0196463   -0.1767293 
   0.104076013    -0.4659831   -0.3171683     0.0005488    0.0014396     0.0003538    0.0009606     0.0195380   -0.1767352 
   0.104176038    -0.4701287   -0.3016844     0.0004899    0.0010962     0.0003691    0.0011253     0.0193158   -0.1765753 
   0.104276063    -0.4735720   -0.2886939     0.0004368    0.0013117     0.0005655    0.0010831     0.0188194   -0.1769663 
   0.104376088    -0.4733722   -0.2720897     0.0002403    0.0013870     0.0004831    0.0010295     0.0194868   -0.1762522 
   0.104476113    -0.4766752   -0.2545156     0.0002442    0.0008952     0.0005844    0.0010207     0.0190859   -0.1760088 
   0.104576138    -0.4809155   -0.2369130     0.0003406    0.0013492     0.0004207    0.0011278     0.0187001   -0.1761074 
   0.104676163    -0.4809584   -0.2258749     0.0005216    0.0010344     0.0004316    0.0008285     0.0190616   -0.1751920 
   0.104776188    -0.4815585   -0.2071825     0.0003373    0.0012208     0.0004359    0.0010318     0.0191509   -0.1763119 
   0.104876213    -0.4840074   -0.1903125     0.0003066    0.0011735     0.0006032    0.0012178     0.0195169   -0.1768775 
   0.104976238    -0.4819683   -0.1731498     0.0004742    0.0010337     0.0005950    0.0009648     0.0187783   -0.1762651 
   0.105076263    -0.4808455   -0.1576672     0.0007952    0.0010825     0.0003050    0.0010947     0.0187719   -0.1760214 
   0.105176288    -0.4815239   -0.1411373     0.0004594    0.0011079     0.0004231    0.0008775     0.0187002   -0.1759603 
   0.105276313    -0.4789596   -0.1220698     0.0007248    0.0011627     0.0007302    0.0011721     0.0188482   -0.1755828 
   0.105376338    -0.4761460   -0.1040264     0.0007600    0.0012937     0.0006254    0.0010686     0.0178544   -0.1763240 
   0.105476363    -0.4747895   -0.0860145     0.0007087    0.0012489     0.0006042    0.0011111     0.0189152   -0.1757773 
   0.105576388    -0.4702436   -0.0699447     0.0006029    0.0011631     0.0007936    0.0011800     0.0181161   -0.1754368 
   0.105676413    -0.4668955   -0.0516476     0.0008179    0.0009577     0.0007469    0.0011564     0.0183143   -0.1766490 
   0.105776438    -0.4611920   -0.0341095     0.0008052    0.0009301     0.0006538    0.0011732     0.0180371   -0.1758740 
   0.105876463    -0.4547487   -0.0163351     0.0009005    0.0007320     0.0006003    0.0009091     0.0176979   -0.1748262 
   0.105976488    -0.4490374    0.0047715     0.0005386    0.0012142     0.0006250    0.0008443     0.0183211   -0.1754537 
   0.106076513    -0.4428110    0.0208930     0.0006377    0.0013326     0.0006218    0.0010320     0.0178588   -0.1752028 
   0.106176538    -0.4348195    0.0375025     0.0005697    0.0014326     0.0008127    0.0010222     0.0174750   -0.1753381 
   0.106276563    -0.4259616    0.0561160     0.0005335    0.0009691     0.0006794    0.0010330     0.0174345   -0.1757589 
   0.106376588    -0.4155515    0.0721423     0.0008611    0.0008693     0.0005238    0.0010936     0.0177761   -0.1750073 
   0.106476613    -0.4066538    0.0898298     0.0006637    0.0011952     0.0007695    0.0011039     0.0181106   -0.1748027 
   0.106576638    -0.3944868    0.1083003     0.0007907    0.0010444     0.0008159    0.0009180     0.0174256   -0.1748421 
   0.106676663    -0.3855102    0.1260855     0.0008572    0.0011944     0.0006899    0.0009102     0.0175219   -0.1748091 
   0.106776688    -0.3731028    0.1414320     0.0004990    0.0010962     0.0007417    0.0008940     0.0167234   -0.1745165 
   0.106876713    -0.3584919    0.1582459     0.0006247    0.0008733     0.0006412    0.0008814     0.0179726   -0.1754462 
   0.106976738    -0.3441938    0.1728128     0.0009037    0.0012127     0.0009227    0.0009529     0.0180655   -0.1749873 
   0.107076763    -0.3291925    0.1883320     0.0010609    0.0007205     0.0007477    0.0008145     0.0167597   -0.1752108 
   0.107176788    -0.3134947    0.2047818     0.0010601    0.0007910     0.0007761    0.0010682     0.0173141   -0.1735140 
   0.107276813    -0.2977817    0.2173995     0.0005522    0.0005848     0.0007864    0.0008629     0.0166423   -0.1743893 
   0.107376838    -0.2816456    0.2349350     0.0007942    0.0009644     0.0007519    0.0010714     0.0170939   -0.1746067 
   0.107476863    -0.2625079    0.2463821     0.0007223    0.0006632     0.0008434    0.0009266     0.0170470   -0.1752054 
   0.107576888    -0.2447634    0.2586555     0.0006781    0.0005272     0.0008394    0.0007552     0.0170885   -0.1747078 
   0.107676913    -0.2249546    0.2724279     0.0009234    0.0006279     0.0006501    0.0009344     0.0167834   -0.1740503 
   0.107776938    -0.2033011    0.2830815     0.0012782    0.0011310     0.0009036    0.0008028     0.0163549   -0.1745964 
   0.107876963    -0.1819154    0.2956397     0.0010071    0.0008011     0.0006123    0.0006557     0.0166955   -0.1741387 
   0.107976988    -0.1614800    0.3034605     0.0007444    0.0007675     0.0008544    0.0007710     0.0169264   -0.1741989 
   0.108077014    -0.1401704    0.3115753     0.0010749    0.0008514     0.0010055    0.0006085     0.0161711   -0.1742022 
   0.108177039    -0.1170916    0.3208956     0.0007117    0.0008904     0.0008333    0.0008522     0.0157950   -0.1741226 
   0.108277064    -0.0936830    0.3244019     0.0009153    0.0008749     0.0009092    0.0006396     0.0162248   -0.1739260 
   0.108377089    -0.0706441    0.3339925     0.0009037    0.0007168     0.0009943    0.0006012     0.0159602   -0.1734785 
   0.108477114    -0.0452091    0.3406080     0.0007048    0.0002276     0.0010919    0.0006487     0.0162641   -0.1743112 
   0.108577139    -0.0211440    0.3392022     0.0011193    0.0001700     0.0007048    0.0008092     0.0156758   -0.1748324 
   0.108677164     0.0023718    0.3434780     0.0007729    0.0007902     0.0007562    0.0005595     0.0160248   -0.1731076 
   0.108777189     0.0274302    0.3471061     0.0008533    0.0004895     0.0008625    0.0009031     0.0153963   -0.1743307 
   0.108877214     0.0534162    0.3474955     0.0009723    0.0004730     0.0008132    0.0006294     0.0155149   -0.1738080 
   0.108977239     0.0769997    0.3444331     0.0009981    0.0007437     0.0008869    0.0004462     0.0155071   -0.1730258 
   0.109077264     0.1009965    0.3424169     0.0010574    0.0007267     0.0009711    0.0004298     0.0158740   -0.1733986 
   0.109177289     0.1262394    0.3394052     0.0009149    0.0006738     0.0008165    0.0004397     0.0150197   -0.1736629 
   0.109277314     0.1522486    0.3345262     0.0008163    0.0004789     0.0009322    0.0006846     0.0157744   -0.1728522 
   0.109377339     0.1784597    0.3318039     0.0004663    0.0003744     0.0009521    0.0003494     0.0154806   -0.1737158 
   0.109477364     0.2006175    0.3240106     0.0009355    0.0002692     0.0005094    0.0007713     0.0153197   -0.1731879 
   0.109577389     0.2252931    0.3136849     0.0008650    0.0003952     0.0007117    0.0006186     0.0153513   -0.1734173 
   0.109677414     0.2475876    0.3073136     0.0011166    0.0003164     0.0007011    0.0004493     0.0150599   -0.1729065 
   0.109777439     0.2707624    0.2949524     0.0007713    0.0007093     0.0004358    0.0005171     0.0148384   -0.1727484 
   0.109877464     0.2968024    0.2845747     0.0005343    0.0005671     0.0005475    0.0004405     0.0146214   -0.1732162 
   0.109977489     0.3160146    0.2719814     0.0003814    0.0005767     0.0005262    0.0004307     0.0151361   -0.1734298 
   0.110077514     0.3362050    0.2573622     0.0010807    0.0002784     0.0009461    0.0002422     0.0146870   -0.1730774 
   0.110177539     0.3588862    0.2423785     0.0010130    0.0003842     0.0006292    0.0004719     0.0149705   -0.1728744 
   0.110277564     0.3776346    0.2314704     0.0008285    0.0001450     0.0006540    0.0002928     0.0143003   -0.1730285 
   0.110377589     0.3961496    0.2124535     0.0006763    0.0003425     0.0004872    0.0002646     0.0136652   -0.1725883 
   0.110477614     0.4157036    0.1940458     0.0004420    0.0002935     0.0004946    0.0003356     0.0150773   -0.1726023 
   0.110577639     0.4309077    0.1759686     0.0007435    0.0001442     0.0006151    0.0002638     0.0144799   -0.1729867 
   0.110677664     0.4464395    0.1570841     0.0007283    0.0004515     0.0005591    0.0003209     0.0140248   -0.1717645 
   0.110777689     0.4648790    0.1384742     0.0006956    0.0009176     0.0005299    0.0003604     0.0145118   -0.1721768 
   0.110877714     0.4765767    0.1220324     0.0006941    0.0001326     0.0005153    0.0002676     0.0136632   -0.1721097 
   0.110977739     0.4905953    0.1004569     0.0009013    0.0002490     0.0004931    0.0001778     0.0140694   -0.1730760 
   0.111077764     0.5027578    0.0772972     0.0004656    0.0006406     0.0006466    0.0003540     0.0133573   -0.1724498 
   0.111177789     0.5129412    0.0579254     0.0008154    0.0002270     0.0005334    0.0004744     0.0132323   -0.1726290 
   0.111277814     0.5241889    0.0355493     0.0004791    0.0002737     0.0005188    0.0002739     0.0139664   -0.1724333 
   0.111377839     0.5338160    0.0162663     0.0004424    0.0004540     0.0003588    0.0003412     0.0133148   -0.1724957 
   0.111477864     0.5409102   -0.0069638     0.0007518    0.0003276     0.0005816    0.0003533     0.0140726   -0.1718364 
   0.111577889     0.5465848   -0.0312600     0.0004025    0.0003601     0.0005495    0.0003315     0.0132159   -0.1714050 
   0.111677914     0.5543051   -0.0491782     0.0003175    0.0001113     0.0004939    0.0003167     0.0133367   -0.1719238 
   0.111777939     0.5576226   -0.0739035     0.0005913    0.0005832     0.0004069    0.0002543     0.0133806   -0.1715319 
   0.111877964     0.5640011   -0.0962264     0.0006558   -0.0001166     0.0002928    0.0003743     0.0126289   -0.1718870 
   0.111977989     0.5652701   -0.1170647     0.0004641    0.0003729     0.0003700    0.0001942     0.0129359   -0.1711884 
   0.112078014     0.5718082   -0.1383838     0.0001607    0.0003938     0.0003368    0.0003393     0.0133687   -0.1717070 
   0.112178039     0.5708482   -0.1597690     0.0003645    0.0004573     0.0004241    0.0002677     0.0127454   -0.1715232 
   0.112278064     0.5705719   -0.1804548     0.0001898    0.0005033     0.0003762    0.0004051     0.0137379   -0.1712583 
   0.112378089     0.5682440   -0.2056338     0.0003296    0.0002994     0.0004216    0.0000871     0.0121987   -0.1716671 
   0.112478114     0.5682800   -0.2241802     0.0002850    0.0005959     0.0003949    0.0004341     0.0126328   -0.1716292 
   0.112578139     0.5666823   -0.2465219     0.0002691    0.0004135     0.0004662    0.0003882     0.0127301   -0.1709617 
   0.112678164     0.5638477   -0.2678503     0.0003945    0.0003996     0.0001668    0.0002191     0.0123841   -0.1721437 
   0.112778189     0.5613070   -0.2866244     0.0002516    0.0002301     0.0001681    0.0002749     0.0125326   -0.1709097 
   0.112878214     0.5526134   -0.3067454     0.0003186    0.0005140     0.0002473    0.0003775     0.0123547   -0.1717141 
   0.112978239     0.5495296   -0.3262116     0.0001690    0.0005223     0.0003650    0.0004779     0.0120874   -0.1706973 
   0.113078264     0.5444629   -0.3440042     0.0001288    0.0005623     0.0003184    0.0003339     0.0119452   -0.1711911 
   0.113178289     0.5354825   -0.3630452     0.0003813    0.0005157     0.0000832    0.0004838     0.0129880   -0.1714613 
   0.113278314     0.5312477   -0.3789547     0.0002585    0.0002584     0.0002083    0.0002760     0.0120982   -0.1711326 
   0.113378339     0.5224692   -0.3977321     0.0002977    0.0005981     0.0000851    0.0004542     0.0122214   -0.1714008 
   0.113478364     0.5140818   -0.4141402     0.0000695    0.0002943     0.0001091    0.0003689     0.0120089   -0.1709104 
   0.113578389     0.5069749   -0.4286045     0.0000788    0.0004144     0.0002370    0.0004113     0.0116390   -0.1705024 
   0.113678414     0.4971101   -0.4451183     0.0000507    0.0004069     0.0002464    0.0004198     0.0120532   -0.1710483 
   0.113778439     0.4888466   -0.4660719    -0.0001210    0.0004441     0.0002256    0.0004536     0.0114911   -0.1705007 
   0.113878464     0.4754353   -0.4758495    -0.0000484    0.0005801     0.0001863    0.0005092     0.0115994   -0.1707475 
   0.113978489     0.4661190   -0.4901762     0.0002868    0.0004958     0.0002038    0.0004639     0.0118591   -0.1706974 
   0.114078514     0.4552981   -0.5044897     0.0002569    0.0008137     0.0001629    0.0005921     0.0118657   -0.1704240 
   0.114178539     0.4433725   -0.5195655     0.0000952    0.0006778     0.0001560    0.0004750     0.0111716   -0.1704903 
   0.114278564     0.4333882   -0.5313900     0.0001239    0.0004305     0.0000998    0.0005091     0.0110888   -0.1710749 
   0.114378589     0.4227075   -0.5440837     0.0002720    0.0007924     0.0001674    0.0006559     0.0109899   -0.1706811 
   0.114478614     0.4109883   -0.5550277     0.0002380    0.0004429     0.0001595    0.0004684     0.0109836   -0.1703936 
   0.114578639     0.3989427   -0.5674080     0.0000764    0.0006154     0.0001424    0.0005419     0.0110904   -0.1702602 
   0.114678664     0.3871672   -0.5773012     0.0000526    0.0005904     0.0000820    0.0005434     0.0109181   -0.1706625 
   0.114778689     0.3727067   -0.5906832     0.0000439    0.0005225     0.0002526    0.0006205     0.0104048   -0.1701343 
   0.114878714     0.3623015   -0.6006246     0.0002524    0.0005949     0.0001360    0.0005325     0.0104044   -0.1700746 
   0.114978739     0.3483182   -0.6070870     0.0000011    0.0005216     0.0000716    0.0005333     0.0102481   -0.1696085 
   0.115078764     0.3347973   -0.6173968     0.0000530    0.0005201     0.0000939    0.0006050     0.0105608   -0.1697876 
   0.115178789     0.3201976   -0.6260796     0.0000469    0.0006637     0.0000622    0.0005964     0.0109037   -0.1702841 
   0.115278814     0.3081259   -0.6326662     0.0000206    0.0006524     0.0000701    0.0006459     0.0106040   -0.1701058 
   0.115378839     0.2946911   -0.6391323     0.0001841    0.0006109     0.0000870    0.0006838     0.0102186   -0.1695754 
   0.115478864     0.2832872   -0.6460917    -0.0000155    0.0005143     0.0001105    0.0006238     0.0100762   -0.1700702 
   0.115578889     0.2683953   -0.6534694     0.0000582    0.0005495     0.0000099    0.0006536     0.0098883   -0.1696265 
   0.115678914     0.2538186   -0.6583398    -0.0000295    0.0005804     0.0000153    0.0007388     0.0103538   -0.1696802 
   0.115778939     0.2439793   -0.6616524     0.0000439    0.0005849     0.0000769    0.0007551     0.0098616   -0.1695646 
   0.115878964     0.2292281   -0.6709136     0.0001960    0.0006592     0.0000153    0.0006169     0.0102763   -0.1698564 
   0.115978989     0.2143654   -0.6754976     0.0001565    0.0007524    -0.0000916    0.0007178     0.0098451   -0.1695213 
   0.116079015     0.2020061   -0.6791848     0.0001222    0.0005833     0.0000983    0.0006839     0.0100601   -0.1693248 
   0.116179040     0.1866504   -0.6834977    -0.0000883    0.0008329    -0.0000986    0.0008077     0.0098499   -0.1696590 
   0.116279065     0.1739011   -0.6856178     0.0001185    0.0007591     0.0000962    0.0007651     0.0100175   -0.1688985 
   0.116379090     0.1618407   -0.6892269     0.0001574    0.0007937     0.0001289    0.0007268     0.0099800   -0.1692000 
   0.116479115     0.1454908   -0.6950384    -0.0001371    0.0006369    -0.0000490    0.0008514     0.0098597   -0.1689774 
   0.116579140     0.1304855   -0.6976126    -0.0000868    0.0009622     0.0000909    0.0009566     0.0097329   -0.1690641 
   0.116679165     0.1191219   -0.6984955    -0.0000532    0.0007229     0.0002079    0.0010026     0.0091293   -0.1697713 
   0.116779190     0.1049550   -0.6996372    -0.0001332    0.0008979     0.0000480    0.0007498     0.0087225   -0.1694801 
   0.116879215     0.0935828   -0.7036369     0.0000849    0.0009501     0.0000513    0.0008009     0.0091249   -0.1691960 
   0.116979240     0.0817987   -0.7022683     0.0000583    0.0010178     0.0000122    0.0008453     0.0091418   -0.1688559 
   0.117079265     0.0658994   -0.7049372    -0.0001320    0.0008472    -0.0000196    0.0008299     0.0092846   -0.1692484 
   0.117179290     0.0532097   -0.7067597     0.0000893    0.0007326    -0.0000433    0.0007681     0.0088980   -0.1693006 
   0.117279315     0.0382241   -0.7036057    -0.0000992    0.0009850     0.0001160    0.0008714     0.0090677   -0.1685407 
   0.117379340     0.0266300   -0.7009072     0.0002799    0.0011344    -0.0000255    0.0007614     0.0087210   -0.1687957 
   0.117479365     0.0136865   -0.7043597     0.0000049    0.0008702     0.0000000    0.0008633     0.0092853   -0.1685937 
   0.117579390    -0.0017727   -0.7014531     0.0001803    0.0011015     0.0001663    0.0008370     0.0085850   -0.1686381 
   0.117679415    -0.0155747   -0.7019923     0.0000681    0.0010843     0.0001825    0.0009082     0.0084183   -0.1682230 
   0.117779440    -0.0247248   -0.6977782    -0.0001246    0.0008032     0.0000534    0.0009474     0.0079622   -0.1688283 
   0.117879465    -0.0398974   -0.6953372    -0.0001090    0.0007378     0.0002415    0.0009853     0.0080865   -0.1689317 
   0.117979490    -0.0516360   -0.6959959     0.0001138    0.0007770    -0.0000062    0.0010576     0.0084966   -0.1689678 
   0.118079515    -0.0618946   -0.6922458     0.0000259    0.0010135     0.0000986    0.0009681     0.0080886   -0.1681791 
   0.118179540    -0.0768750   -0.6941668     0.0002064    0.0009584     0.0000088    0.0009863     0.0081500   -0.1682887 
   0.118279565    -0.0884199   -0.6901818     0.0000414    0.0009301     0.0001301    0.0008544     0.0081838   -0.1684669 
   0.118379590    -0.1013228   -0.6850512     0.0004704    0.0010122     0.0002683    0.0010401     0.0080476   -0.1683455 
   0.118479615    -0.1157723   -0.6844034     0.0004205    0.0007317     0.0002074    0.0009516     0.0082013   -0.1683715 
   0.118579640    -0.1243083   -0.6756687    -0.0000125    0.0011732     0.0000320    0.0011551     0.0077061   -0.1677434 
   0.118679665    -0.1382850   -0.6735823     0.0002915    0.0008704     0.0001463    0.0010725     0.0073860   -0.1680368 
   0.118779690    -0.1479510   -0.6723452     0.0001260    0.0010910     0.0003134    0.0009432     0.0076026   -0.1682252 
   0.118879715    -0.1602380   -0.6640859     0.0004349    0.0010147     0.0001470    0.0008168     0.0073401   -0.1680013 
   0.118979740    -0.1726171   -0.6585726    -0.0001165    0.0009962     0.0003029    0.0009385     0.0078310   -0.1674060 
   0.119079765    -0.1822045   -0.6566191     0.0003429    0.0011981     0.0001938    0.0013673     0.0072491   -0.1673561 
   0.119179790    -0.1940754   -0.6512157    -0.0001340    0.0013055     0.0003243    0.0010661     0.0075928   -0.1681145 
   0.119279815    -0.2045455   -0.6447706     0.0000002    0.0011073     0.0001586    0.0010493     0.0076859   -0.1678759 
   0.119379840    -0.2164884   -0.6367157    -0.0001228    0.0011286     0.0002290    0.0011060     0.0076116   -0.1679578 
   0.119479865    -0.2284171   -0.6311041     0.0003523    0.0010495     0.0001221    0.0011139     0.0073567   -0.1679780 
   0.119579890    -0.2365913   -0.6234163     0.0003396    0.0008214     0.0003849    0.0010838     0.0075826   -0.1677735 
   0.119679915    -0.2507653   -0.6186621    -0.0001035    0.0011274     0.0003709    0.0012014     0.0066952   -0.1674851 
   0.119779940    -0.2582780   -0.6133033    -0.0001564    0.0016621     0.0003365    0.0011475     0.0073524   -0.1680492 
   0.119879965    -0.2706922   -0.6081590     0.0000908    0.0009542     0.0005198    0.0009037     0.0066724   -0.1674407 
   0.119979990    -0.2802013   -0.5980274     0.0005633    0.0007486     0.0004015    0.0009550     0.0068488   -0.1673647 
   0.120080015    -0.2905762   -0.5892215     0.0001456    0.0010490     0.0001343    0.0011490     0.0066498   -0.1668435 
   0.120180040    -0.2979029   -0.5840226     0.0002532    0.0016043     0.0002028    0.0012705     0.0067022   -0.1673251 
   0.120280065    -0.3092143   -0.5742918     0.0003301    0.0008371     0.0002776    0.0012307     0.0066506   -0.1674038 
   0.120380090    -0.3170410   -0.5686783     0.0004466    0.0010023     0.0003795    0.0010056     0.0066778   -0.1677340 
   0.120480115    -0.3267498   -0.5597520     0.0007567    0.0009131    -0.0001276    0.0008739     0.0062973   -0.1669134 
   0.120580140    -0.3350673   -0.5486220     0.0001734    0.0012572     0.0001769    0.0009620     0.0063659   -0.1670985 
   0.120680165    -0.3441019   -0.5396630     0.0006855    0.0011704     0.0006172    0.0012216     0.0061895   -0.1673989 
   0.120780190    -0.3574658   -0.5338948     0.0005179    0.0013532     0.0003642    0.0012821     0.0061961   -0.1675945 
   0.120880215    -0.3622394   -0.5216978     0.0005955    0.0011529     0.0004414    0.0011160     0.0060480   -0.1676228 
   0.120980240    -0.3705346   -0.5107850     0.0002744    0.0010890     0.0002544    0.0012472     0.0058990   -0.1674278 
   0.121080265    -0.3811367   -0.5037213     0.0003036    0.0011008     0.0006069    0.0012395     0.0056244   -0.1671124 
   0.121180290    -0.3869396   -0.4901588     0.0005330    0.0011279     0.0003631    0.0011228     0.0054845   -0.1667729 
   0.121280315    -0.3970035   -0.4852548     0.0007370    0.0013781     0.0005149    0.0011741     0.0055257   -0.1673704 
   0.121380340    -0.4025027   -0.4736219     0.0003343    0.0012553     0.0005723    0.0012317     0.0060898   -0.1667104 
   0.121480365    -0.4117331   -0.4608902     0.0003520    0.0009119     0.0004698    0.0012227     0.0055461   -0.1666857 
   0.121580390    -0.4175154   -0.4526475    -0.0000808    0.0013614     0.0003818    0.0009962     0.0056561   -0.1662010 
   0.121680415    -0.4234328   -0.4394503     0.0007010    0.0015930     0.0005592    0.0012482     0.0054632   -0.1674080 
   0.121780440    -0.4321786   -0.4302273     0.0006727    0.0011977     0.0004893    0.0011188     0.0054687   -0.1666462 
   0.121880465    -0.4360256   -0.4166030     0.0007771    0.0011933     0.0005583    0.0010734     0.0053804   -0.1659371 
   0.121980490    -0.4438052   -0.4055080     0.0001530    0.0016763     0.0005792    0.0013894     0.0050883   -0.1667407 
   0.122080515    -0.4492398   -0.3918836     0.0008478    0.0017665     0.0003747    0.0012618     0.0052083   -0.1663060 
   0.122180540    -0.4553942   -0.3816251     0.0007578    0.0012578     0.0006896    0.0013501     0.0049403   -0.1665309 
   0.122280565    -0.4579871   -0.3730886     0.0004967    0.0010460     0.0004505    0.0011598     0.0049267   -0.1665537 
   0.122380590    -0.4630440   -0.3553912     0.0001507    0.0010981     0.0003943    0.0011332     0.0045718   -0.1666206 
   0.122480615    -0.4693305   -0.3461078     0.0005771    0.0014870     0.0006640    0.0013204     0.0052571   -0.1662765 
   0.122580640    -0.4741374   -0.3289583     0.0003797    0.0012979     0.0007428    0.0011359     0.0049928   -0.1667357 
   0.122680665    -0.4786685   -0.3171913     0.0007850    0.0014394     0.0005978    0.0013072     0.0045922   -0.1661041 
   0.122780690    -0.4821396   -0.3059460     0.0010463    0.0013306     0.0006387    0.0012303     0.0043090   -0.1663108 
   0.122880715    -0.4854356   -0.2919902     0.0006720    0.0010385     0.0007004    0.0011746     0.0041826   -0.1661711 
   0.122980740    -0.4916197   -0.2768002     0.0006222    0.0009489     0.0005901    0.0014622     0.0049416   -0.1662357 
   0.123080765    -0.4901826   -0.2628786     0.0004011    0.0016542     0.0004652    0.0012660     0.0044977   -0.1660510 
   0.123180790    -0.4943941   -0.2450621     0.0009130    0.0014073     0.0008036    0.0011408     0.0043805   -0.1656545 
   0.123280815    -0.4956949   -0.2345850     0.0007627    0.0012446     0.0006793    0.0014423     0.0040058   -0.1657931 
   0.123380840    -0.4987669   -0.2219164     0.0006278    0.0013551     0.0004906    0.0011418     0.0041539   -0.1656956 
   0.123480865    -0.4954622   -0.2064230     0.0007961    0.0007981     0.0006758    0.0016842     0.0035628   -0.1656759 
   0.123580890    -0.5000398   -0.1917569     0.0006682    0.0009616     0.0008402    0.0014995     0.0034813   -0.1661486 
   0.123680915    -0.4993418   -0.1764291     0.0004894    0.0014438     0.0006551    0.0012216     0.0038305   -0.1656159 
   0.123780940    -0.5008487   -0.1609477     0.0004437    0.0020266     0.0010818    0.0009379     0.0037038   -0.1657403 
   0.123880965    -0.5009540   -0.1463409     0.0009483    0.0007146     0.0007918    0.0010977     0.0037964   -0.1661399 
   0.123980990    -0.4983282   -0.1323528     0.0003224    0.0011067     0.0007570    0.0011957     0.0037179   -0.1658002 
   0.124081016    -0.4967571   -0.1153912     0.0011320    0.0012540     0.0009423    0.0012342     0.0036872   -0.1655127 
   0.124181041    -0.4976836   -0.1032456     0.0009067    0.0016598     0.0006069    0.0012467     0.0036478   -0.1654421 
   0.124281066    -0.4943320   -0.0860199     0.0012218    0.0012079     0.0009312    0.0009822     0.0030790   -0.1656509 
   0.124381091    -0.4898194   -0.0714692     0.0006374    0.0010098     0.0008783    0.0011296     0.0033256   -0.1654168 
   0.124481116    -0.4865713   -0.0560280     0.0009044    0.0014190     0.0009102    0.0010725     0.0030984   -0.1650388 
   0.124581141    -0.4815151   -0.0383557     0.0007608    0.0011308     0.0007507    0.0011923     0.0033997   -0.1651922 
   0.124681166    -0.4787935   -0.0211102     0.0008900    0.0011259     0.0010772    0.0011034     0.0027719   -0.1655028 
   0.124781191    -0.4772388   -0.0076334     0.0006694    0.0012784     0.0008906    0.0010998     0.0029015   -0.1653716 
   0.124881216    -0.4700892    0.0068006     0.0004585    0.0013825     0.0010345    0.0010263     0.0030566   -0.1650059 
   0.124981241    -0.4678061    0.0220145     0.0009039    0.0009173     0.0009721    0.0011788     0.0025565   -0.1647102 
   0.125081266    -0.4570981    0.0389232     0.0007583    0.0011304     0.0011778    0.0013535     0.0029053   -0.1643471 
   0.125181291    -0.4512579    0.0530035     0.0011300    0.0009704     0.0009914    0.0010276     0.0029716   -0.1649360 
   0.125281316    -0.4450299    0.0699580     0.0010179    0.0009177     0.0011451    0.0011352     0.0033549   -0.1652551 
   0.125381341    -0.4366946    0.0839718     0.0011683    0.0012005     0.0009472    0.0011767     0.0027131   -0.1651726 
   0.125481366    -0.4259997    0.0986706     0.0014125    0.0013447     0.0011804    0.0010008     0.0026938   -0.1653182 
   0.125581391    -0.4192164    0.1130812     0.0007727    0.0011572     0.0011420    0.0011446     0.0022700   -0.1651881 
   0.125681416    -0.4085772    0.1294802     0.0011276    0.0007941     0.0009398    0.0011037     0.0026963   -0.1652607 
   0.125781441    -0.4000478    0.1447835     0.0008096    0.0011507     0.0009409    0.0011344     0.0021509   -0.1647664 
   0.125881466    -0.3881360    0.1612219     0.0011939    0.0009191     0.0013361    0.0006937     0.0023079   -0.1645802 
   0.125981491    -0.3748966    0.1723770     0.0013741    0.0013708     0.0009790    0.0010086     0.0015120   -0.1643795 
   0.126081516    -0.3625218    0.1850443     0.0009887    0.0008286     0.0010288    0.0009023     0.0018286   -0.1645052 
   0.126181541    -0.3510447    0.2018543     0.0013610    0.0011077     0.0011680    0.0010441     0.0015803   -0.1648206 
   0.126281566    -0.3371338    0.2150113     0.0016701    0.0011707     0.0010916    0.0007727     0.0023560   -0.1648242 
   0.126381591    -0.3225263    0.2276810     0.0011678    0.0008203     0.0009090    0.0006167     0.0013013   -0.1645500 
   0.126481616    -0.3096919    0.2391469     0.0011202    0.0010907     0.0010536    0.0007704     0.0017166   -0.1648704 
   0.126581641    -0.2926975    0.2511114     0.0010981    0.0008011     0.0013157    0.0008447     0.0019286   -0.1645034 
   0.126681666    -0.2783819    0.2624278     0.0011154    0.0005177     0.0012548    0.0008511     0.0014577   -0.1645505 
   0.126781691    -0.2615604    0.2744365     0.0013921    0.0005664     0.0009496    0.0008469     0.0020604   -0.1642457 
   0.126881716    -0.2446107    0.2857310     0.0012729    0.0003928     0.0012753    0.0009704     0.0014043   -0.1642843 
   0.126981741    -0.2255442    0.2964506     0.0012421    0.0006532     0.0011548    0.0007959     0.0011139   -0.1642950 
   0.127081766    -0.2076005    0.3054036     0.0008269    0.0005963     0.0013298    0.0007968     0.0007124   -0.1638923 
   0.127181791    -0.1905660    0.3128655     0.0007336    0.0003674     0.0009737    0.0009690     0.0010902   -0.1644183 
   0.127281816    -0.1719200    0.3199326     0.0009516    0.0010366     0.0012805    0.0008136     0.0015393   -0.1642226 
   0.127381841    -0.1508399    0.3292263     0.0012327    0.0010123     0.0010587    0.0007181     0.0006002   -0.1640490 
   0.127481866    -0.1323144    0.3317318     0.0015393    0.0007945     0.0010046    0.0009386     0.0012451   -0.1643964 
   0.127581891    -0.1100659    0.3438976     0.0011436    0.0004681     0.0009848    0.0006734     0.0008942   -0.1637603 
   0.127681916    -0.0917828    0.3458095     0.0012513    0.0008845     0.0010704    0.0006685     0.0006831   -0.1645346 
   0.127781941    -0.0694952    0.3496971     0.0012391    0.0005247     0.0013818    0.0005635     0.0005137   -0.1638594 
   0.127881966    -0.0483991    0.3523226     0.0012974    0.0006692     0.0012293    0.0006608     0.0006367   -0.1636673 
   0.127981991    -0.0257795    0.3539941     0.0010172    0.0007644     0.0012499    0.0004587     0.0002427   -0.1637081 
   0.128082016    -0.0038567    0.3567387     0.0011781    0.0000876     0.0012148    0.0005229     0.0005352   -0.1635195 
   0.128182041     0.0185882    0.3563968     0.0012497    0.0006343     0.0013285    0.0005384     0.0004162   -0.1640311 
   0.128282066     0.0383109    0.3564771     0.0012946    0.0007451     0.0009563    0.0005513     0.0004936   -0.1635569 
   0.128382091     0.0613144    0.3561246     0.0013820    0.0005178     0.0012351    0.0005255    -0.0001461   -0.1632085 
   0.128482116     0.0835291    0.3536341     0.0013372    0.0004628     0.0012017    0.0005582    -0.0001839   -0.1636897 
   0.128582141     0.1058043    0.3511172     0.0010909    0.0006038     0.0010176    0.0005831     0.0004548   -0.1632801 
   0.128682166     0.1278720    0.3455164     0.0009195    0.0007307     0.0011471    0.0003735     0.0002522   -0.1636858 
   0.128782191     0.1487677    0.3388552     0.0012513    0.0005147     0.0011276    0.0004174    -0.0000067   -0.1633829 
   0.128882216     0.1706171    0.3352515     0.0013798    0.0004930     0.0009443    0.0006401    -0.0004795   -0.1637894 
   0.128982241     0.1944885    0.3270127     0.0007691    0.0003658     0.0011775    0.0005025    -0.0007491   -0.1634241 
   0.129082266     0.2164162    0.3189439     0.0008592    0.0003760     0.0009460    0.0004880    -0.0003735   -0.1635689 
   0.129182291     0.2367115    0.3098967     0.0009962    0.0005832     0.0009937    0.0005076    -0.0001581   -0.1631341 
   0.129282316     0.2548420    0.2985907     0.0009713    0.0005988     0.0010349    0.0003758    -0.0003695   -0.1634452 
   0.129382341     0.2780305    0.2874617     0.0011799    0.0003827     0.0008505    0.0003324    -0.0011015   -0.1633337 
   0.129482366     0.2970333    0.2770559     0.0010696    0.0004135     0.0009957    0.0004711    -0.0004211   -0.1631219 
   0.129582391     0.3164456    0.2626916     0.0012661    0.0003624     0.0008704    0.0003351    -0.0001587   -0.1631979 
   0.129682416     0.3344014    0.2497187     0.0010725    0.0005616     0.0008157    0.0002832    -0.0008367   -0.1626741 
   0.129782441     0.3506737    0.2352817     0.0009589    0.0004574     0.0008312    0.0002653    -0.0003395   -0.1628880 
   0.129882466     0.3668919    0.2203822     0.0010754    0.0002034     0.0009088    0.0003928    -0.0010934   -0.1630636 
   0.129982491     0.3856978    0.2034758     0.0008171    0.0001708     0.0008892    0.0003137    -0.0004915   -0.1624286 
   0.130082516     0.4010321    0.1871012     0.0008687    0.0003262     0.0009815    0.0004569    -0.0009100   -0.1628380 
   0.130182541     0.4159108    0.1692591     0.0010405    0.0000422     0.0006636    0.0002455    -0.0012093   -0.1628336 
   0.130282566     0.4307863    0.1509500     0.0008366    0.0002730     0.0008912    0.0001935    -0.0013866   -0.1634865 
   0.130382591     0.4431072    0.1330281     0.0007906    0.0003960     0.0008546    0.0003256    -0.0017794   -0.1623334 
   0.130482616     0.4565420    0.1133269     0.0008119    0.0002288     0.0006996    0.0002677    -0.0019900   -0.1628443 
   0.130582641     0.4677963    0.0947966     0.0007487    0.0001890     0.0007939    0.0003507    -0.0015664   -0.1624803 
   0.130682666     0.4783746    0.0763909     0.0007209    0.0003293     0.0007854    0.0002313    -0.0015456   -0.1623562 
   0.130782691     0.4880988    0.0546649     0.0007338    0.0003389     0.0007423    0.0001648    -0.0016655   -0.1623880 
   0.130882716     0.4962991    0.0332544     0.0007287    0.0000921     0.0007101    0.0001967    -0.0020687   -0.1622251 
   0.130982741     0.5054962    0.0140653     0.0007195    0.0003198     0.0006717    0.0003310    -0.0020311   -0.1625542 
   0.131082766     0.5094052   -0.0071489     0.0007973    0.0003282     0.0006359    0.0002806    -0.0014839   -0.1623371 
   0.131182791     0.5161546   -0.0294850     0.0007380    0.0003751     0.0006644    0.0001899    -0.0017806   -0.1621109 
   0.131282816     0.5220897   -0.0518583     0.0007045    0.0003611     0.0006043    0.0002666    -0.0019604   -0.1619721 
   0.131382841     0.5260518   -0.0720697     0.0005620    0.0002853     0.0006357    0.0003034    -0.0016442   -0.1624857 
   0.131482866     0.5285345   -0.0942294     0.0004360    0.0003682     0.0004988    0.0002102    -0.0020391   -0.1623369 
   0.131582891     0.5319106   -0.1151654     0.0006650    0.0003948     0.0005090    0.0002826    -0.0027081   -0.1621044 
   0.131682916     0.5330674   -0.1355239     0.0004578    0.0003387     0.0005662    0.0002914    -0.0024745   -0.1621605 
   0.131782941     0.5334015   -0.1571274     0.0005353    0.0003312     0.0005359    0.0003325    -0.0028490   -0.1621615 
   0.131882966     0.5328681   -0.1783720     0.0005119    0.0002981     0.0005899    0.0003230    -0.0024559   -0.1618389 
   0.131982991     0.5290208   -0.1979897     0.0006380    0.0002622     0.0005509    0.0002881    -0.0028008   -0.1618760 
   0.132083017     0.5256792   -0.2190721     0.0006372    0.0000275     0.0004198    0.0004052    -0.0028009   -0.1617979 
   0.132183042     0.5265405   -0.2409296     0.0006748    0.0002729     0.0004388    0.0001850    -0.0034618   -0.1616196 
   0.132283067     0.5207128   -0.2604508     0.0004246    0.0001492     0.0002388    0.0002555    -0.0031710   -0.1616857 
   0.132383092     0.5166730   -0.2818475     0.0005269    0.0001793     0.0006005    0.0004777    -0.0031228   -0.1620390 
   0.132483117     0.5115452   -0.2983903     0.0003382    0.0003215     0.0004519    0.0002981    -0.0030818   -0.1614220 
   0.132583142     0.5046454   -0.3204786     0.0005618    0.0008472     0.0003752    0.0004032    -0.0033248   -0.1613126 
   0.132683167     0.4983636   -0.3366259     0.0002964    0.0005802     0.0003976    0.0003411    -0.0032158   -0.1618135 
   0.132783192     0.4915425   -0.3534097     0.0005655    0.0006086     0.0004925    0.0003507    -0.0036075   -0.1615676 
   0.132883217     0.4840184   -0.3729355     0.0005531    0.0007813     0.0001818    0.0004919    -0.0029599   -0.1615420 
   0.132983242     0.4741911   -0.3887202     0.0004810    0.0005279     0.0003973    0.0004363    -0.0030941   -0.1616157 
   0.133083267     0.4668593   -0.4064055     0.0004507    0.0003342     0.0005194    0.0004594    -0.0036586   -0.1616096 
   0.133183292     0.4560999   -0.4221137     0.0004712    0.0002875     0.0002090    0.0004250    -0.0034858   -0.1611217 
   0.133283317     0.4459020   -0.4347765     0.0005221    0.0003995     0.0003738    0.0003483    -0.0039472   -0.1610890 
   0.133383342     0.4374248   -0.4526758     0.0003673    0.0005427     0.0004949    0.0003500    -0.0039845   -0.1616923 
   0.133483367     0.4237641   -0.4675492     0.0004034    0.0003170     0.0003727    0.0005744    -0.0039558   -0.1615224 
   0.133583392     0.4176177   -0.4814107     0.0003531    0.0006435     0.0003772    0.0004501    -0.0038941   -0.1615138 
   0.133683417     0.4040080   -0.4963218     0.0003364    0.0006087     0.0001135    0.0004408    -0.0042663   -0.1614711 
   0.133783442     0.3908359   -0.5065503     0.0004953    0.0005916     0.0003762    0.0007104    -0.0042849   -0.1612491 
   0.133883467     0.3764607   -0.5214297     0.0002844    0.0004835     0.0004100    0.0003542    -0.0037826   -0.1612317 
   0.133983492     0.3672706   -0.5322661     0.0003916    0.0007579     0.0001715    0.0004216    -0.0043181   -0.1609953 
   0.134083517     0.3548151   -0.5441897     0.0001209    0.0010366     0.0003183    0.0006665    -0.0043968   -0.1605631 
   0.134183542     0.3381695   -0.5530476     0.0005914    0.0007925     0.0003457    0.0006068    -0.0042253   -0.1606910 
   0.134283567     0.3252112   -0.5674249     0.0002612    0.0007166     0.0003102    0.0006889    -0.0039112   -0.1611984 
   0.134383592     0.3136493   -0.5770343     0.0001837    0.0006392     0.0002039    0.0004965    -0.0041763   -0.1607179 
   0.134483617     0.2974724   -0.5828830    -0.0001146    0.0005859     0.0002256    0.0003566    -0.0045738   -0.1612043 
   0.134583642     0.2856696   -0.5958005     0.0000046    0.0004553     0.0004127    0.0005999    -0.0046273   -0.1608954 
   0.134683667     0.2697842   -0.6015024     0.0003752    0.0004564     0.0003240    0.0006801    -0.0041572   -0.1608257 
   0.134783692     0.2581733   -0.6098683     0.0003402    0.0006727     0.0002491    0.0006955    -0.0046541   -0.1605168 
   0.134883717     0.2426623   -0.6212400     0.0006930    0.0002631    -0.0000057    0.0008443    -0.0048921   -0.1606488 
   0.134983742     0.2251701   -0.6218105     0.0002505    0.0009521     0.0001766    0.0008122    -0.0057429   -0.1604613 
   0.135083767     0.2126280   -0.6295225     0.0000869    0.0008945     0.0002952    0.0007605    -0.0048830   -0.1608280 
   0.135183792     0.1961086   -0.6367551     0.0002018    0.0005886     0.0002777    0.0005702    -0.0052805   -0.1603322 
   0.135283817     0.1854272   -0.6376665     0.0008236    0.0006440     0.0000915    0.0007445    -0.0052849   -0.1605272 
   0.135383842     0.1673653   -0.6432355    -0.0002838    0.0008069     0.0000170    0.0007959    -0.0053785   -0.1602896 
   0.135483867     0.1543765   -0.6480502     0.0002267    0.0009111     0.0003067    0.0007729    -0.0051487   -0.1611765 
   0.135583892     0.1392470   -0.6510444     0.0000907    0.0010430     0.0002450    0.0005975    -0.0048184   -0.1606250 
   0.135683917     0.1250180   -0.6573015    -0.0001314    0.0007638     0.0002337    0.0007383    -0.0054193   -0.1607463 
   0.135783942     0.1120670   -0.6601759     0.0006137    0.0007079     0.0003654    0.0010080    -0.0056233   -0.1604014 
   0.135883967     0.0956994   -0.6637634     0.0003877    0.0008275     0.0002401    0.0007131    -0.0058615   -0.1599113 
   0.135983992     0.0795787   -0.6644572     0.0000049    0.0009065     0.0002691    0.0007978    -0.0054617   -0.1604106 
   0.136084017     0.0664059   -0.6697969     0.0002640    0.0005349     0.0002566    0.0008521    -0.0055552   -0.1601758 
   0.136184042     0.0529085   -0.6670145     0.0000096    0.0007096     0.0002217    0.0008412    -0.0058707   -0.1604969 
   0.136284067     0.0389998   -0.6664912    -0.0000528    0.0012939     0.0003144    0.0007761    -0.0059119   -0.1597505 
   0.136384092     0.0266624   -0.6691342     0.0003960    0.0008770     0.0001622    0.0010649    -0.0063718   -0.1598262 
   0.136484117     0.0092415   -0.6694440     0.0006249    0.0007094     0.0004204    0.0012992    -0.0061856   -0.1601867 
   0.136584142    -0.0065381   -0.6675930     0.0004003    0.0009534     0.0005386    0.0008219    -0.0059881   -0.1601713 
   0.136684167    -0.0180236   -0.6676741     0.0004118    0.0008838     0.0004024    0.0009822    -0.0063587   -0.1597862 
   0.136784192    -0.0333937   -0.6644403     0.0002673    0.0012451     0.0003231    0.0009220    -0.0062953   -0.1597628 
   0.136884217    -0.0470504   -0.6654758     0.0007052    0.0013150     0.0001766    0.0010657    -0.0069128   -0.1598633 
   0.136984242    -0.0586154   -0.6610898     0.0000889    0.0008330     0.0005656    0.0011163    -0.0069580   -0.1597051 
   0.137084267    -0.0696049   -0.6635867     0.0000857    0.0009989     0.0002554    0.0011229    -0.0071641   -0.1600403 
   0.137184292    -0.0862104   -0.6591885     0.0005600    0.0008403     0.0001586    0.0012061    -0.0071432   -0.1599628 
   0.137284317    -0.0974915   -0.6526495     0.0004160    0.0008552     0.0005801    0.0010796    -0.0068078   -0.1594335 
   0.137384342    -0.1105858   -0.6509577     0.0002210    0.0007176     0.0002317    0.0011565    -0.0063759   -0.1596895 
   0.137484367    -0.1266183   -0.6510157     0.0007911    0.0009722     0.0003404    0.0010885    -0.0068139   -0.1598294 
   0.137584392    -0.1375983   -0.6458669     0.0001885    0.0010210     0.0004207    0.0012139    -0.0070414   -0.1598169 
   0.137684417    -0.1509374   -0.6431297     0.0002847    0.0007297     0.0006125    0.0009607    -0.0064742   -0.1595422 
   0.137784442    -0.1655172   -0.6359196     0.0001817    0.0011817     0.0004885    0.0011124    -0.0071694   -0.1592502 
   0.137884467    -0.1788055   -0.6342325     0.0003512    0.0007510     0.0004446    0.0012303    -0.0070444   -0.1601034 
   0.137984492    -0.1910905   -0.6276885     0.0006091    0.0013794     0.0005418    0.0012209    -0.0073854   -0.1592302 
   0.138084517    -0.2002965   -0.6199933     0.0004843    0.0014912     0.0002844    0.0011531    -0.0072312   -0.1593581 
   0.138184542    -0.2120699   -0.6129344     0.0004174    0.0013370     0.0004761    0.0010147    -0.0073609   -0.1594606 
   0.138284567    -0.2239133   -0.6044268     0.0003758    0.0012907     0.0001183    0.0010566    -0.0074661   -0.1590287 
   0.138384592    -0.2340320   -0.6078423     0.0002181    0.0009404     0.0005034    0.0011136    -0.0078400   -0.1591986 
   0.138484617    -0.2484349   -0.5997135     0.0005856    0.0009081     0.0005281    0.0012022    -0.0072281   -0.1590843 
   0.138584642    -0.2590174   -0.5891123     0.0009248    0.0011198     0.0008161    0.0014247    -0.0076242   -0.1593027 
   0.138684667    -0.2717418   -0.5878264     0.0003134    0.0010082     0.0005262    0.0012940    -0.0078800   -0.1590369 
   0.138784692    -0.2780361   -0.5826543     0.0004261    0.0012936     0.0004808    0.0013441    -0.0082173   -0.1596631 
   0.138884717    -0.2879759   -0.5716591     0.0003416    0.0016433     0.0005365    0.0013381    -0.0078533   -0.1591309 
   0.138984742    -0.3043014   -0.5640962     0.0003129    0.0010660     0.0006129    0.0011529    -0.0081362   -0.1589592 
   0.139084767    -0.3107610   -0.5565839     0.0008781    0.0013007     0.0006221    0.0013110    -0.0082527   -0.1589766 
   0.139184792    -0.3190632   -0.5446386     0.0001366    0.0012615     0.0004469    0.0010557    -0.0084531   -0.1589481 
   0.139284817    -0.3302268   -0.5419297     0.0002433    0.0009293     0.0005810    0.0012595    -0.0081617   -0.1587687 
   0.139384842    -0.3382819   -0.5317862     0.0007800    0.0010501     0.0005316    0.0012462    -0.0084271   -0.1588256 
   0.139484867    -0.3485119   -0.5212975     0.0006658    0.0013882     0.0008687    0.0012512    -0.0086703   -0.1586126 
   0.139584892    -0.3580452   -0.5119208     0.0006771    0.0014865     0.0006480    0.0014959    -0.0081168   -0.1583940 
   0.139684917    -0.3664722   -0.5047633     0.0010479    0.0009391     0.0007766    0.0015492    -0.0088590   -0.1591602 
   0.139784942    -0.3719357   -0.4926699     0.0004352    0.0012090     0.0005693    0.0016971    -0.0087338   -0.1593643 
   0.139884967    -0.3846157   -0.4836467     0.0008278    0.0010451     0.0008720    0.0011642    -0.0088576   -0.1587274 
   0.139984992    -0.3946319   -0.4705025     0.0009835    0.0012040     0.0008430    0.0011125    -0.0088952   -0.1586544 
   0.140085018    -0.4007258   -0.4653042     0.0009740    0.0015464     0.0006832    0.0011888    -0.0083676   -0.1584063 
   0.140185043    -0.4073315   -0.4531410     0.0010834    0.0008938     0.0007356    0.0013632    -0.0093555   -0.1581092 
   0.140285068    -0.4116573   -0.4394312     0.0008310    0.0016266     0.0006297    0.0013632    -0.0086524   -0.1585991 
   0.140385093    -0.4200510   -0.4346476     0.0007390    0.0012610     0.0005208    0.0014749    -0.0087520   -0.1583333 
   0.140485118    -0.4278143   -0.4213121     0.0005729    0.0011685     0.0005668    0.0012015    -0.0095659   -0.1577710 
   0.140585143    -0.4363369   -0.4098502     0.0007594    0.0010217     0.0006136    0.0011641    -0.0091478   -0.1582578 
   0.140685168    -0.4456143   -0.3976183     0.0011357    0.0012018     0.0006965    0.0013035    -0.0094920   -0.1583513 
   0.140785193    -0.4498035   -0.3894820     0.0008082    0.0015210     0.0010686    0.0015951    -0.0095425   -0.1579652 
   0.140885218    -0.4575897   -0.3765354     0.0005330    0.0012299     0.0007725    0.0012456    -0.0094455   -0.1582357 
   0.140985243    -0.4617163   -0.3630660     0.0008790    0.0011315     0.0009869    0.0013611    -0.0093714   -0.1583986 
   0.141085268    -0.4659663   -0.3556735     0.0011447    0.0012306     0.0010305    0.0014395    -0.0096735   -0.1583653 
   0.141185293    -0.4718453   -0.3392479     0.0009714    0.0012697     0.0007744    0.0013522    -0.0098666   -0.1577094 
   0.141285318    -0.4764187   -0.3286961     0.0009339    0.0011665     0.0007913    0.0012875    -0.0100081   -0.1579442 
   0.141385343    -0.4827623   -0.3176508     0.0007261    0.0011519     0.0008630    0.0014240    -0.0102405   -0.1581768 
   0.141485368    -0.4847266   -0.3035815     0.0008869    0.0013489     0.0009546    0.0012518    -0.0100590   -0.1582193 
   0.141585393    -0.4872418   -0.2919093     0.0008889    0.0017036     0.0008960    0.0014244    -0.0102744   -0.1579647 
   0.141685418    -0.4932061   -0.2817886     0.0009611    0.0014885     0.0005346    0.0011451    -0.0104130   -0.1576020 
   0.141785443    -0.4958441   -0.2638365     0.0012139    0.0017104     0.0007551    0.0011146    -0.0103602   -0.1574683 
   0.141885468    -0.4972921   -0.2540160     0.0012089    0.0014682     0.0011470    0.0013010    -0.0100224   -0.1575842 
   0.141985493    -0.5019615   -0.2416289     0.0008294    0.0017075     0.0012351    0.0010419    -0.0107911   -0.1578301 
   0.142085518    -0.5029905   -0.2263277     0.0012786    0.0012688     0.0007597    0.0012171    -0.0110456   -0.1578297 
   0.142185543    -0.5040619   -0.2135349     0.0011622    0.0009512     0.0011952    0.0013391    -0.0106811   -0.1577751 
   0.142285568    -0.5079028   -0.1982752     0.0010094    0.0008652     0.0009058    0.0013831    -0.0109616   -0.1577671 
   0.142385593    -0.5079549   -0.1892934     0.0011096    0.0015767     0.0008281    0.0013384    -0.0110107   -0.1572064 
   0.142485618    -0.5087937   -0.1721970     0.0012385    0.0013534     0.0011237    0.0009898    -0.0112347   -0.1574356 
   0.142585643    -0.5096020   -0.1587286     0.0010944    0.0014106     0.0011933    0.0010241    -0.0108912   -0.1575855 
   0.142685668    -0.5096678   -0.1464465     0.0009807    0.0010501     0.0011302    0.0012124    -0.0111680   -0.1577432 
   0.142785693    -0.5103130   -0.1315233     0.0010238    0.0011952     0.0010996    0.0012557    -0.0111077   -0.1573970 
   0.142885718    -0.5053928   -0.1160991     0.0011141    0.0015520     0.0011043    0.0010608    -0.0114680   -0.1574749 
   0.142985743    -0.5091250   -0.1040957     0.0013927    0.0011773     0.0010434    0.0010849    -0.0111578   -0.1574935 
   0.143085768    -0.5083277   -0.0902674     0.0010504    0.0013761     0.0009002    0.0012909    -0.0117828   -0.1573803 
   0.143185793    -0.5030615   -0.0754185     0.0013272    0.0010974     0.0010603    0.0013225    -0.0116928   -0.1571866 
   0.143285818    -0.5051354   -0.0598834     0.0012473    0.0011752     0.0011177    0.0009749    -0.0118529   -0.1572693 
   0.143385843    -0.5030605   -0.0501860     0.0008764    0.0009446     0.0014442    0.0012823    -0.0115668   -0.1573263 
   0.143485868    -0.5006924   -0.0336966     0.0010880    0.0010831     0.0013405    0.0011532    -0.0116221   -0.1568388 
   0.143585893    -0.4950717   -0.0173896     0.0012846    0.0014901     0.0009281    0.0012820    -0.0122865   -0.1570881 
   0.143685918    -0.4896239   -0.0041313     0.0012640    0.0010841     0.0012822    0.0012708    -0.0119790   -0.1570255 
   0.143785943    -0.4873801    0.0109705     0.0013745    0.0010908     0.0012493    0.0013997    -0.0124338   -0.1575046 
   0.143885968    -0.4848241    0.0220532     0.0015262    0.0010119     0.0012745    0.0010615    -0.0119276   -0.1573757 
   0.143985993    -0.4765172    0.0389810     0.0012892    0.0012720     0.0013283    0.0014028    -0.0118897   -0.1570566 
   0.144086018    -0.4752525    0.0520769     0.0011120    0.0015238     0.0013783    0.0011072    -0.0116913   -0.1568261 
   0.144186043    -0.4674555    0.0655901     0.0012092    0.0008137     0.0012244    0.0010362    -0.0130386   -0.1567251 
   0.144286068    -0.4599695    0.0782580     0.0010064    0.0009813     0.0012715    0.0010705    -0.0121920   -0.1567896 
   0.144386093    -0.4537593    0.0936531     0.0016209    0.0010647     0.0012015    0.0013213    -0.0120413   -0.1572327 
   0.144486118    -0.4459801    0.1076128     0.0013181    0.0010290     0.0014075    0.0010994    -0.0123113   -0.1566789 
   0.144586143    -0.4392172    0.1203967     0.0016080    0.0010418     0.0014270    0.0011320    -0.0127548   -0.1566298 
   0.144686168    -0.4291069    0.1332734     0.0011126    0.0010966     0.0013730    0.0011014    -0.0121571   -0.1561840 
   0.144786193    -0.4224275    0.1469611     0.0011595    0.0010952     0.0014461    0.0008870    -0.0132145   -0.1562714 
   0.144886218    -0.4121700    0.1612098     0.0013711    0.0012114     0.0015187    0.0008375    -0.0125082   -0.1567642 
   0.144986243    -0.4038885    0.1743963     0.0018928    0.0009514     0.0014543    0.0010086    -0.0124762   -0.1564288 
   0.145086268    -0.3931870    0.1856150     0.0014557    0.0011721     0.0012608    0.0007964    -0.0128283   -0.1566536 
   0.145186293    -0.3822458    0.1979337     0.0015064    0.0006132     0.0013944    0.0008187    -0.0134063   -0.1567713 
   0.145286318    -0.3733458    0.2111607     0.0012910    0.0009753     0.0015431    0.0009554    -0.0128779   -0.1562077 
   0.145386343    -0.3574315    0.2231047     0.0014175    0.0009470     0.0014654    0.0008520    -0.0130390   -0.1561355 
   0.145486368    -0.3478729    0.2363271     0.0018706    0.0011609     0.0013308    0.0010493    -0.0131710   -0.1557942 
   0.145586393    -0.3358293    0.2462346     0.0012173    0.0008673     0.0013934    0.0010498    -0.0134998   -0.1567044 
   0.145686418    -0.3225314    0.2570958     0.0015165    0.0004153     0.0013766    0.0009122    -0.0132757   -0.1563062 
   0.145786443    -0.3073358    0.2674136     0.0013354    0.0010224     0.0013242    0.0009359    -0.0133096   -0.1558881 
   0.145886468    -0.2941281    0.2779429     0.0016255    0.0006515     0.0015367    0.0007851    -0.0137710   -0.1565927 
   0.145986493    -0.2801833    0.2886279     0.0013713    0.0006178     0.0013810    0.0008262    -0.0134528   -0.1555028 
   0.146086518    -0.2659935    0.2978577     0.0014113    0.0007491     0.0013318    0.0008806    -0.0138449   -0.1559570 
   0.146186543    -0.2513234    0.3072363     0.0009258    0.0011387     0.0013815    0.0008236    -0.0135679   -0.1561098 
   0.146286568    -0.2353472    0.3186781     0.0014028    0.0009659     0.0017500    0.0004682    -0.0136396   -0.1559612 
   0.146386593    -0.2192664    0.3233630     0.0013703    0.0004036     0.0015013    0.0007211    -0.0140565   -0.1564448 
   0.146486618    -0.2003203    0.3330449     0.0014747    0.0004982     0.0014247    0.0007378    -0.0140816   -0.1563947 
   0.146586643    -0.1855640    0.3390123     0.0012625    0.0007765     0.0015458    0.0005971    -0.0143192   -0.1559301 
   0.146686668    -0.1693290    0.3457314     0.0015057    0.0002024     0.0015308    0.0007948    -0.0143106   -0.1560599 
   0.146786693    -0.1497341    0.3513807     0.0013968    0.0006719     0.0015459    0.0005760    -0.0141233   -0.1556993 
   0.146886718    -0.1347567    0.3582675     0.0016536    0.0005498     0.0016212    0.0006852    -0.0142900   -0.1552332 
   0.146986743    -0.1146840    0.3609523     0.0014119    0.0006623     0.0015146    0.0004759    -0.0146182   -0.1556091 
   0.147086768    -0.0948072    0.3657536     0.0014749    0.0004879     0.0015101    0.0005086    -0.0147728   -0.1554993 
   0.147186793    -0.0778946    0.3674836     0.0014775    0.0007460     0.0013729    0.0005510    -0.0152633   -0.1559059 
   0.147286818    -0.0590426    0.3712477     0.0014612    0.0006167     0.0014592    0.0006243    -0.0142897   -0.1552128 
   0.147386843    -0.0389805    0.3741656     0.0012663    0.0005408     0.0015225    0.0003983    -0.0145691   -0.1560949 
   0.147486868    -0.0214424    0.3751671     0.0012131    0.0006035     0.0014273    0.0005022    -0.0145715   -0.1556164 
   0.147586893     0.0012533    0.3753519     0.0011565    0.0002910     0.0013781    0.0006789    -0.0153126   -0.1552034 
   0.147686918     0.0217490    0.3734781     0.0015835    0.0003308     0.0014821    0.0004785    -0.0151251   -0.1562399 
   0.147786943     0.0411548    0.3732730     0.0014811    0.0004638     0.0013402    0.0005043    -0.0148383   -0.1552938 
   0.147886968     0.0611488    0.3707786     0.0012885    0.0005108     0.0015610    0.0005959    -0.0152550   -0.1554996 
   0.147986993     0.0805984    0.3690853     0.0013729    0.0003838     0.0013990    0.0003487    -0.0156995   -0.1550515 
   0.148087019     0.0994820    0.3671190     0.0016426    0.0005506     0.0013227    0.0003893    -0.0147688   -0.1549504 
   0.148187044     0.1202044    0.3614982     0.0015729    0.0003786     0.0014590    0.0002469    -0.0154562   -0.1548827 
   0.148287069     0.1415074    0.3560385     0.0013248    0.0004539     0.0013046    0.0003704    -0.0159104   -0.1547284 
   0.148387094     0.1600155    0.3505229     0.0014248    0.0007121     0.0011860    0.0003465    -0.0156216   -0.1545920 
   0.148487119     0.1792538    0.3421250     0.0013066    0.0006842     0.0012428    0.0002884    -0.0157162   -0.1550502 
   0.148587144     0.2003086    0.3365119     0.0012078    0.0000878     0.0011900    0.0002457    -0.0153399   -0.1556051 
   0.148687169     0.2168343    0.3287541     0.0011996    0.0002320     0.0013222    0.0001455    -0.0161960   -0.1547161 
   0.148787194     0.2369683    0.3170475     0.0012796    0.0003124     0.0012793    0.0005071    -0.0159902   -0.1549061 
   0.148887219     0.2559226    0.3072137     0.0013320    0.0003049     0.0011036    0.0001834    -0.0161739   -0.1548632 
   0.148987244     0.2749827    0.2965111     0.0011622    0.0002848     0.0010595    0.0004617    -0.0157444   -0.1555749 
   0.149087269     0.2913006    0.2855321     0.0015169    0.0004793     0.0011479    0.0002274    -0.0157041   -0.1546384 
   0.149187294     0.3077137    0.2717590     0.0013323    0.0000667     0.0011342    0.0002575    -0.0160558   -0.1553812 
   0.149287319     0.3237415    0.2570472     0.0012223    0.0002594     0.0013594    0.0002333    -0.0164473   -0.1549861 
   0.149387344     0.3416148    0.2435962     0.0014423    0.0003740     0.0011437    0.0001385    -0.0163521   -0.1545420 
   0.149487369     0.3564639    0.2303297     0.0012313    0.0001061     0.0011618    0.0001934    -0.0162648   -0.1554085 
   0.149587394     0.3707639    0.2146337     0.0013506    0.0003460     0.0012094    0.0000925    -0.0163466   -0.1548412 
   0.149687419     0.3852297    0.1985931     0.0010154    0.0004160     0.0011016    0.0001359    -0.0166843   -0.1550144 
   0.149787444     0.3987336    0.1840423     0.0009031    0.0003454     0.0010512    0.0003259    -0.0164596   -0.1542115 
   0.149887469     0.4122566    0.1654740     0.0010004   -0.0000117     0.0009145    0.0000388    -0.0166292   -0.1549911 
   0.149987494     0.4252886    0.1465338     0.0012195    0.0001256     0.0010293    0.0000453    -0.0164407   -0.1543296 
   0.150087519     0.4351074    0.1289540     0.0008551    0.0000982     0.0009908    0.0001390    -0.0168284   -0.1546913 
   0.150187544     0.4488477    0.1117721     0.0009964    0.0000019     0.0008270    0.0002202    -0.0167692   -0.1545018 
   0.150287569     0.4570517    0.0922786     0.0008650   -0.0000337     0.0009548    0.0002843    -0.0169210   -0.1544891 
   0.150387594     0.4654910    0.0721405     0.0006592    0.0001592     0.0009858    0.0000436    -0.0169831   -0.1544830 
   0.150487619     0.4721572    0.0525695     0.0010104    0.0001535     0.0009071    0.0004609    -0.0173610   -0.1546070 
   0.150587644     0.4805914    0.0315830     0.0007640    0.0001429     0.0007529   -0.0000304    -0.0169599   -0.1541059 
   0.150687669     0.4870353    0.0127015     0.0010417   -0.0001255     0.0007013    0.0002090    -0.0171512   -0.1549356 
   0.150787694     0.4917549   -0.0082329     0.0010603    0.0000362     0.0006972    0.0001526    -0.0176258   -0.1546339 
   0.150887719     0.4978111   -0.0296791     0.0006085    0.0001068     0.0008941    0.0000913    -0.0177630   -0.1543862 
   0.150987744     0.5017024   -0.0486499     0.0008689    0.0003400     0.0007437    0.0003650    -0.0176166   -0.1543038 
   0.151087769     0.5024018   -0.0724758     0.0009989    0.0001797     0.0008455    0.0001532    -0.0179020   -0.1539273 
   0.151187794     0.5078929   -0.0945295     0.0006865    0.0000546     0.0008539    0.0001064    -0.0176867   -0.1540860 
   0.151287819     0.5055643   -0.1137086     0.0006678    0.0003009     0.0006266    0.0000816    -0.0172037   -0.1541341 
   0.151387844     0.5074795   -0.1335295     0.0005642    0.0002106     0.0008039    0.0001412    -0.0174995   -0.1544142 
   0.151487869     0.5070511   -0.1521951     0.0005116    0.0001718     0.0006789    0.0004645    -0.0173684   -0.1538040 
   0.151587894     0.5051481   -0.1756079     0.0006395    0.0005553     0.0004532    0.0004212    -0.0180634   -0.1538303 
   0.151687919     0.5026605   -0.1964695     0.0006685    0.0002600     0.0005188    0.0003451    -0.0176992   -0.1532239 
   0.151787944     0.4997982   -0.2160864     0.0007999   -0.0003103     0.0007529    0.0001030    -0.0184866   -0.1535502 
   0.151887969     0.4959581   -0.2333802     0.0004243    0.0002156     0.0008148    0.0003436    -0.0178635   -0.1542506 
   0.151987994     0.4895823   -0.2572187     0.0005912    0.0005713     0.0005632    0.0003024    -0.0184874   -0.1532532 
   0.152088019     0.4873764   -0.2748374     0.0003334    0.0002647     0.0004062    0.0005956    -0.0181488   -0.1537298 
   0.152188044     0.4789611   -0.2892551     0.0006567    0.0007006     0.0005300    0.0002950    -0.0184964   -0.1534889 
   0.152288069     0.4729150   -0.3138246     0.0005791    0.0004617     0.0004421    0.0003669    -0.0181859   -0.1531530 
   0.152388094     0.4673841   -0.3300991     0.0007545    0.0003394     0.0004635    0.0003319    -0.0185689   -0.1533221 
   0.152488119     0.4588884   -0.3472988     0.0005128    0.0004007     0.0006666    0.0003282    -0.0192816   -0.1534901 
   0.152588144     0.4496678   -0.3647227     0.0006238    0.0001900     0.0006946    0.0005668    -0.0185643   -0.1533871 
   0.152688169     0.4384873   -0.3815790     0.0003741    0.0001821     0.0004350    0.0003208    -0.0188115   -0.1540127 
   0.152788194     0.4289183   -0.3981258     0.0003343    0.0006205     0.0002681    0.0004045    -0.0185785   -0.1533968 
   0.152888219     0.4190923   -0.4161430     0.0007533    0.0006321     0.0005705    0.0005167    -0.0191760   -0.1531773 
   0.152988244     0.4061890   -0.4280847     0.0007705    0.0007497     0.0005095    0.0006115    -0.0190371   -0.1540973 
   0.153088269     0.3954827   -0.4437078     0.0006649    0.0007501     0.0005243    0.0003995    -0.0185293   -0.1534220 
   0.153188294     0.3827356   -0.4596344     0.0008109    0.0006767     0.0004913    0.0003446    -0.0189247   -0.1532809 
   0.153288319     0.3720411   -0.4733387     0.0008754    0.0003262     0.0002492    0.0005673    -0.0187955   -0.1533675 
   0.153388344     0.3590823   -0.4855094     0.0006743    0.0003240     0.0003944    0.0007850    -0.0192353   -0.1530723 
   0.153488369     0.3471801   -0.4997402     0.0007385    0.0006158     0.0006928    0.0005956    -0.0190131   -0.1530382 
   0.153588394     0.3320980   -0.5114586     0.0005289    0.0006609     0.0008227    0.0007277    -0.0194317   -0.1526686 
   0.153688419     0.3186002   -0.5235726     0.0006511    0.0005128     0.0004347    0.0007417    -0.0198893   -0.1526871 
   0.153788444     0.3046893   -0.5324382     0.0001633    0.0009848     0.0000542    0.0006846    -0.0201442   -0.1529789 
   0.153888469     0.2941273   -0.5460814     0.0008915    0.0001187     0.0004058    0.0007038    -0.0199134   -0.1529569 
   0.153988494     0.2782678   -0.5506580     0.0002556    0.0004347     0.0003823    0.0006331    -0.0190953   -0.1527389 
   0.154088519     0.2596501   -0.5619122     0.0003079    0.0007453     0.0004427    0.0007039    -0.0197154   -0.1529131 
   0.154188544     0.2458088   -0.5707273     0.0005915    0.0006596     0.0003288    0.0008352    -0.0197562   -0.1533174 
   0.154288569     0.2291181   -0.5790815     0.0004269    0.0003045     0.0005689    0.0007767    -0.0200311   -0.1535294 
   0.154388594     0.2160857   -0.5842086     0.0005364    0.0008509     0.0002752    0.0004634    -0.0204308   -0.1521976 
   0.154488619     0.2000930   -0.5958385    -0.0000038    0.0005795     0.0003741    0.0006057    -0.0201018   -0.1527643 
   0.154588644     0.1861366   -0.5989136     0.0004030    0.0006066     0.0003548    0.0004623    -0.0198481   -0.1525522 
   0.154688669     0.1703082   -0.6055663     0.0003989    0.0008640     0.0001831    0.0005564    -0.0199897   -0.1527901 
   0.154788694     0.1575060   -0.6105317     0.0006078    0.0007172     0.0005176    0.0007929    -0.0199424   -0.1524529 
   0.154888719     0.1389743   -0.6134165     0.0003729    0.0009257     0.0006622    0.0005886    -0.0204360   -0.1525882 
   0.154988744     0.1240066   -0.6163020     0.0007804    0.0014271     0.0005186    0.0007040    -0.0204738   -0.1525264 
   0.155088769     0.1075878   -0.6212940     0.0002090    0.0012229     0.0001630    0.0009987    -0.0209433   -0.1529740 
   0.155188794     0.0906150   -0.6228222     0.0005190    0.0009194     0.0005388    0.0009974    -0.0203584   -0.1524821 
   0.155288819     0.0755842   -0.6267667     0.0005526    0.0008244     0.0004624    0.0006648    -0.0206722   -0.1521842 
   0.155388844     0.0613885   -0.6280152     0.0007710    0.0010338     0.0004430    0.0008412    -0.0208593   -0.1522491 
   0.155488869     0.0467579   -0.6314739     0.0004036    0.0008394     0.0003799    0.0008378    -0.0205209   -0.1524309 
   0.155588894     0.0285750   -0.6306950     0.0002744    0.0008710     0.0007210    0.0010058    -0.0207740   -0.1527122 
   0.155688919     0.0124910   -0.6334151     0.0008830    0.0011684     0.0009189    0.0008156    -0.0210441   -0.1517979 
   0.155788944    -0.0017104   -0.6345069     0.0008822    0.0013941     0.0005361    0.0011165    -0.0210711   -0.1520128 
   0.155888969    -0.0148940   -0.6343537     0.0001633    0.0011831     0.0004104    0.0012740    -0.0210739   -0.1522097 
   0.155988994    -0.0320680   -0.6359299     0.0004702    0.0011053     0.0006105    0.0011086    -0.0208896   -0.1522043 
   0.156089020    -0.0462973   -0.6314375     0.0004132    0.0013595     0.0003240    0.0009602    -0.0213414   -0.1515510 
   0.156189045    -0.0611467   -0.6288854     0.0006462    0.0009956     0.0005445    0.0010928    -0.0208283   -0.1520816 
   0.156289070    -0.0787261   -0.6255395     0.0007377    0.0008398     0.0005466    0.0011743    -0.0211806   -0.1516788 
   0.156389095    -0.0902653   -0.6244453     0.0002501    0.0010550     0.0006554    0.0012458    -0.0210602   -0.1523278 
   0.156489120    -0.1040575   -0.6218334     0.0009941    0.0012782     0.0007639    0.0010339    -0.0209904   -0.1518994 
   0.156589145    -0.1173698   -0.6205295     0.0003128    0.0012794     0.0004836    0.0011055    -0.0215448   -0.1520916 
   0.156689170    -0.1323990   -0.6164114     0.0007302    0.0012868     0.0007487    0.0010503    -0.0221067   -0.1514138 
   0.156789195    -0.1433182   -0.6140305     0.0009108    0.0011739     0.0008892    0.0012278    -0.0213590   -0.1514017 
   0.156889220    -0.1596710   -0.6063671     0.0002297    0.0012576     0.0005090    0.0013526    -0.0216052   -0.1522370 
   0.156989245    -0.1703730   -0.6015502     0.0007574    0.0009855     0.0007445    0.0013500    -0.0221703   -0.1517083 
   0.157089270    -0.1880772   -0.5936670     0.0003781    0.0013358     0.0004477    0.0011907    -0.0220507   -0.1518578 
   0.157189295    -0.1997373   -0.5925435     0.0003814    0.0009894     0.0006296    0.0012779    -0.0223481   -0.1519383 
   0.157289320    -0.2136591   -0.5834290     0.0004629    0.0011234     0.0007445    0.0010101    -0.0217921   -0.1516150 
   0.157389345    -0.2265235   -0.5803864     0.0006372    0.0011917     0.0006968    0.0011200    -0.0226019   -0.1511391 
   0.157489370    -0.2377456   -0.5754529     0.0005490    0.0014203     0.0005926    0.0012292    -0.0220027   -0.1509913 
   0.157589395    -0.2499375   -0.5667922     0.0012879    0.0013663     0.0007451    0.0013593    -0.0220905   -0.1517533 
   0.157689420    -0.2619371   -0.5635090     0.0008633    0.0012728     0.0008420    0.0013903    -0.0221539   -0.1513171 
   0.157789445    -0.2705092   -0.5563652     0.0008170    0.0014835     0.0008453    0.0010922    -0.0219523   -0.1513447 
   0.157889470    -0.2855455   -0.5493326     0.0006115    0.0012991     0.0009380    0.0011809    -0.0228583   -0.1513537 
   0.157989495    -0.2955369   -0.5370385     0.0008719    0.0015907     0.0008910    0.0013206    -0.0227435   -0.1512059 
   0.158089520    -0.3061008   -0.5306203     0.0008571    0.0013319     0.0009693    0.0013496    -0.0225626   -0.1513099 
   0.158189545    -0.3148585   -0.5208142     0.0011690    0.0013400     0.0009394    0.0014869    -0.0230752   -0.1511060 
   0.158289570    -0.3288295   -0.5126828     0.0010579    0.0010492     0.0010076    0.0012659    -0.0226369   -0.1518382 
   0.158389595    -0.3359119   -0.5070566     0.0006556    0.0011461     0.0011123    0.0010292    -0.0230897   -0.1508204 
   0.158489620    -0.3447372   -0.4944203     0.0010053    0.0013174     0.0008124    0.0011765    -0.0234701   -0.1512096 
   0.158589645    -0.3591510   -0.4860003     0.0008133    0.0013352     0.0011009    0.0010901    -0.0239374   -0.1506626 
   0.158689670    -0.3686470   -0.4758101     0.0008655    0.0013453     0.0009291    0.0013037    -0.0225891   -0.1510972 
   0.158789695    -0.3747807   -0.4677315     0.0009361    0.0010128     0.0008343    0.0014291    -0.0231490   -0.1509821 
   0.158889720    -0.3831632   -0.4585601     0.0011831    0.0012982     0.0007749    0.0016778    -0.0231120   -0.1511039 
   0.158989745    -0.3920229   -0.4486358     0.0008763    0.0014255     0.0007746    0.0012609    -0.0229933   -0.1507329 
   0.159089770    -0.3990262   -0.4391050     0.0012151    0.0013988     0.0007991    0.0011377    -0.0229918   -0.1505495 
   0.159189795    -0.4087933   -0.4267454     0.0010206    0.0014096     0.0010522    0.0014628    -0.0233873   -0.1505570 
   0.159289820    -0.4177296   -0.4163934     0.0009811    0.0009000     0.0010287    0.0012978    -0.0238745   -0.1505236 
   0.159389845    -0.4252442   -0.4023789     0.0009628    0.0014510     0.0011129    0.0011992    -0.0235171   -0.1509562 
   0.159489870    -0.4315587   -0.3944546     0.0011429    0.0014107     0.0011069    0.0013668    -0.0239809   -0.1504782 
   0.159589895    -0.4378146   -0.3842177     0.0009656    0.0011779     0.0009567    0.0010910    -0.0241848   -0.1505833 
   0.159689920    -0.4457505   -0.3733493     0.0009890    0.0012735     0.0010664    0.0013481    -0.0235956   -0.1503348 
   0.159789945    -0.4496532   -0.3643138     0.0010964    0.0014710     0.0011540    0.0013324    -0.0240318   -0.1507328 
   0.159889970    -0.4592778   -0.3510443     0.0012596    0.0013638     0.0011720    0.0013211    -0.0235712   -0.1498229 
   0.159989995    -0.4651094   -0.3388561     0.0009045    0.0011926     0.0012821    0.0014999    -0.0243576   -0.1503581 
   0.160090020    -0.4679373   -0.3266356     0.0010858    0.0011916     0.0010599    0.0013275    -0.0240475   -0.1507586 
   0.160190045    -0.4746202   -0.3158523     0.0011825    0.0011149     0.0011212    0.0012463    -0.0241567   -0.1504287 
   0.160290070    -0.4785831   -0.3024860     0.0008727    0.0013096     0.0011616    0.0012980    -0.0246428   -0.1498018 
   0.160390095    -0.4834228   -0.2912128     0.0012613    0.0014367     0.0012620    0.0012923    -0.0237126   -0.1506602 
   0.160490120    -0.4879723   -0.2774414     0.0013072    0.0014403     0.0011618    0.0013045    -0.0247255   -0.1501264 
   0.160590145    -0.4915100   -0.2693155     0.0012767    0.0011676     0.0013704    0.0012489    -0.0249496   -0.1499369 
   0.160690170    -0.4931901   -0.2539726     0.0008131    0.0009505     0.0012010    0.0012150    -0.0243992   -0.1504439 
   0.160790195    -0.4985522   -0.2407653     0.0012978    0.0010075     0.0013475    0.0013096    -0.0244236   -0.1502148 
   0.160890220    -0.5005276   -0.2283099     0.0015215    0.0012669     0.0012800    0.0011603    -0.0248139   -0.1497793 
   0.160990245    -0.5040429   -0.2155235     0.0010631    0.0010406     0.0014428    0.0012295    -0.0243113   -0.1495326 
   0.161090270    -0.5080253   -0.2034618     0.0015566    0.0012688     0.0014079    0.0012622    -0.0245207   -0.1494367 
   0.161190295    -0.5089256   -0.1901992     0.0014863    0.0010656     0.0013671    0.0011788    -0.0257080   -0.1493567 
   0.161290320    -0.5101292   -0.1751579     0.0016047    0.0010177     0.0013211    0.0013442    -0.0258149   -0.1502205 
   0.161390345    -0.5148187   -0.1622953     0.0011457    0.0012437     0.0013406    0.0012979    -0.0250095   -0.1497658 
   0.161490370    -0.5138077   -0.1529963     0.0012529    0.0010598     0.0012828    0.0013384    -0.0252351   -0.1499513 
   0.161590395    -0.5148757   -0.1365143     0.0014205    0.0012554     0.0013963    0.0012882    -0.0248154   -0.1503578 
   0.161690420    -0.5132380   -0.1252316     0.0012193    0.0011426     0.0014027    0.0009958    -0.0254758   -0.1490895 
   0.161790445    -0.5143771   -0.1110871     0.0013007    0.0011963     0.0015995    0.0011559    -0.0251189   -0.1493953 
   0.161890470    -0.5142185   -0.0971824     0.0013705    0.0011244     0.0015202    0.0013122    -0.0254224   -0.1495026 
   0.161990495    -0.5156471   -0.0821090     0.0015214    0.0010683     0.0015474    0.0011397    -0.0254520   -0.1490754 
   0.162090520    -0.5132664   -0.0727818     0.0016608    0.0012854     0.0016379    0.0011558    -0.0260477   -0.1491694 
   0.162190545    -0.5121337   -0.0588193     0.0014663    0.0012503     0.0015944    0.0011245    -0.0261107   -0.1495032 
   0.162290570    -0.5080259   -0.0447513     0.0014609    0.0012139     0.0015037    0.0011901    -0.0256321   -0.1491713 
   0.162390595    -0.5070879   -0.0304419     0.0014604    0.0011171     0.0013806    0.0011305    -0.0261155   -0.1494431 
   0.162490620    -0.5043558   -0.0179978     0.0015500    0.0010566     0.0015585    0.0010150    -0.0260614   -0.1496083 
   0.162590645    -0.5009966   -0.0042614     0.0016076    0.0009810     0.0015659    0.0011794    -0.0263538   -0.1496905 
   0.162690670    -0.5012255    0.0089278     0.0016434    0.0010503     0.0015557    0.0011209    -0.0263848   -0.1492140 
   0.162790695    -0.4966597    0.0221369     0.0015811    0.0011803     0.0016657    0.0010716    -0.0262111   -0.1501473 
   0.162890720    -0.4922171    0.0333517     0.0015214    0.0014191     0.0014836    0.0011892    -0.0266420   -0.1489148 
   0.162990745    -0.4881151    0.0479703     0.0016682    0.0012036     0.0016500    0.0010382    -0.0262450   -0.1490111 
   0.163090770    -0.4829963    0.0614528     0.0016010    0.0010009     0.0017932    0.0009060    -0.0263092   -0.1496777 
   0.163190795    -0.4798113    0.0731608     0.0015328    0.0008794     0.0016481    0.0010646    -0.0259488   -0.1488902 
   0.163290820    -0.4727598    0.0885787     0.0016034    0.0011103     0.0015913    0.0010330    -0.0268398   -0.1494460 
   0.163390845    -0.4674709    0.1005593     0.0015563    0.0011693     0.0016385    0.0008747    -0.0265970   -0.1495390 
   0.163490870    -0.4637633    0.1131162     0.0018494    0.0008766     0.0016631    0.0009593    -0.0263867   -0.1490526 
   0.163590895    -0.4560172    0.1273062     0.0015347    0.0008877     0.0016699    0.0010646    -0.0268672   -0.1488370 
   0.163690920    -0.4477468    0.1393469     0.0018687    0.0009803     0.0014565    0.0009002    -0.0270104   -0.1490237 
   0.163790945    -0.4403660    0.1519688     0.0015226    0.0010353     0.0016995    0.0010552    -0.0267601   -0.1486692 
   0.163890970    -0.4320367    0.1628623     0.0016923    0.0009345     0.0015807    0.0008734    -0.0276163   -0.1488108 
   0.163990995    -0.4261999    0.1745837     0.0016363    0.0009932     0.0016695    0.0008619    -0.0267710   -0.1484945 
   0.164091021    -0.4175524    0.1855092     0.0016539    0.0009734     0.0015958    0.0007603    -0.0271545   -0.1489492 
   0.164191046    -0.4084610    0.1986867     0.0014355    0.0007422     0.0018128    0.0008645    -0.0271427   -0.1486684 
   0.164291071    -0.4015722    0.2098085     0.0018296    0.0008721     0.0016945    0.0010557    -0.0271486   -0.1481187 
   0.164391096    -0.3893511    0.2231273     0.0016392    0.0009624     0.0017036    0.0008635    -0.0280969   -0.1480913 
   0.164491121    -0.3790155    0.2336979     0.0014558    0.0007912     0.0016443    0.0007605    -0.0276174   -0.1482942 
   0.164591146    -0.3688580    0.2426589     0.0016679    0.0008885     0.0016268    0.0008323    -0.0279119   -0.1484679 
   0.164691171    -0.3582994    0.2547711     0.0019095    0.0008836     0.0015922    0.0006919    -0.0281953   -0.1483439 
   0.164791196    -0.3461730    0.2646246     0.0017873    0.0007149     0.0016273    0.0007639    -0.0277292   -0.1477786 
   0.164891221    -0.3358386    0.2744880     0.0014911    0.0008278     0.0018274    0.0007845    -0.0279270   -0.1486821 
   0.164991246    -0.3240545    0.2844909     0.0021243    0.0006478     0.0017276    0.0008299    -0.0285445   -0.1475658 
   0.165091271    -0.3124475    0.2930910     0.0018801    0.0011696     0.0015771    0.0006592    -0.0275517   -0.1483379 
   0.165191296    -0.2998790    0.3041223     0.0018795    0.0006517     0.0016041    0.0007573    -0.0280046   -0.1483290 
   0.165291321    -0.2858790    0.3133560     0.0019474    0.0004107     0.0016993    0.0006455    -0.0277333   -0.1479026 
   0.165391346    -0.2736532    0.3195776     0.0017517    0.0005090     0.0018970    0.0007073    -0.0283261   -0.1481047 
   0.165491371    -0.2577736    0.3282968     0.0016907    0.0006281     0.0016909    0.0007341    -0.0282763   -0.1478109 
   0.165591396    -0.2459210    0.3371089     0.0018009    0.0008159     0.0018013    0.0007665    -0.0287544   -0.1476207 
   0.165691421    -0.2313951    0.3443133     0.0017154    0.0008567     0.0016999    0.0006152    -0.0289113   -0.1471704 
   0.165791446    -0.2147319    0.3495300     0.0017988    0.0006242     0.0017016    0.0007077    -0.0293397   -0.1474696 
   0.165891471    -0.2016892    0.3582769     0.0016688    0.0004006     0.0017556    0.0005243    -0.0282356   -0.1479239 
   0.165991496    -0.1867436    0.3625693     0.0017441    0.0005540     0.0019057    0.0005468    -0.0290043   -0.1482138 
   0.166091521    -0.1686218    0.3687626     0.0019165    0.0006591     0.0017203    0.0005150    -0.0290032   -0.1473784 
   0.166191546    -0.1549356    0.3746589     0.0018597    0.0002304     0.0017911    0.0004219    -0.0290661   -0.1472109 
   0.166291571    -0.1386872    0.3791790     0.0017944    0.0004862     0.0015383    0.0004522    -0.0295365   -0.1476508 
   0.166391596    -0.1213137    0.3838822     0.0018128    0.0002621     0.0017285    0.0004769    -0.0285721   -0.1479422 
   0.166491621    -0.1047751    0.3866108     0.0017426    0.0003970     0.0016539    0.0005178    -0.0288203   -0.1477089 
   0.166591646    -0.0877902    0.3896461     0.0020336    0.0005276     0.0015310    0.0003690    -0.0290628   -0.1470445 
   0.166691671    -0.0714151    0.3937057     0.0019603    0.0003882     0.0018340    0.0003102    -0.0295133   -0.1475984 
   0.166791696    -0.0534791    0.3946659     0.0015835    0.0004908     0.0019363    0.0004540    -0.0293158   -0.1473875 
   0.166891721    -0.0373741    0.3956820     0.0021198    0.0003788     0.0016969    0.0005017    -0.0292057   -0.1472045 
   0.166991746    -0.0176528    0.3965547     0.0016669    0.0005743     0.0017273    0.0002387    -0.0294663   -0.1473321 
   0.167091771    -0.0018581    0.3964461     0.0017131    0.0000661     0.0017947    0.0004479    -0.0300533   -0.1472691 
   0.167191796     0.0143521    0.3957128     0.0022146    0.0001533     0.0017448    0.0005499    -0.0300536   -0.1467653 
   0.167291821     0.0329778    0.3942682     0.0019472    0.0003962     0.0016637    0.0002368    -0.0296143   -0.1476790 
   0.167391846     0.0532453    0.3919793     0.0019617    0.0002031     0.0014518    0.0003067    -0.0297052   -0.1473666 
   0.167491871     0.0709077    0.3897631     0.0016964    0.0000081     0.0017742    0.0001742    -0.0295291   -0.1476507 
   0.167591896     0.0876943    0.3879398     0.0015253    0.0001500     0.0016320    0.0002315    -0.0300909   -0.1461110 
   0.167691921     0.1055646    0.3816974     0.0015416    0.0002442     0.0017669    0.0005744    -0.0306830   -0.1474250 
   0.167791946     0.1244930    0.3792564     0.0018193    0.0002600     0.0017361    0.0001431    -0.0302549   -0.1467861 
   0.167891971     0.1418619    0.3728034     0.0016810    0.0002461     0.0018883    0.0002872    -0.0296050   -0.1469655 
   0.167991996     0.1604648    0.3680783     0.0016403    0.0003139     0.0017519    0.0000607    -0.0298558   -0.1468485 
   0.168092021     0.1784119    0.3598768     0.0014900   -0.0000709     0.0015814    0.0002647    -0.0305304   -0.1464239 
   0.168192046     0.1948378    0.3533955     0.0018401   -0.0000002     0.0015556    0.0003449    -0.0301321   -0.1463471 
   0.168292071     0.2119000    0.3442554     0.0020882    0.0002582     0.0014638    0.0000748    -0.0304025   -0.1467272 
   0.168392096     0.2287016    0.3373211     0.0013040    0.0002682     0.0015370    0.0001865    -0.0299471   -0.1470214 
   0.168492121     0.2447959    0.3274389     0.0013322    0.0002455     0.0015002    0.0002550    -0.0302096   -0.1465382 
   0.168592146     0.2643464    0.3171732     0.0011814   -0.0001176     0.0016173    0.0001885    -0.0303853   -0.1469119 
   0.168692171     0.2790071    0.3055308     0.0016263    0.0001504     0.0015359    0.0000651    -0.0309774   -0.1463951 
   0.168792196     0.2946577    0.2942950     0.0017706    0.0001917     0.0014738    0.0001073    -0.0305493   -0.1466455 
   0.168892221     0.3085565    0.2813005     0.0015664    0.0001094     0.0012015    0.0003568    -0.0306236   -0.1464807 
   0.168992246     0.3253768    0.2688389     0.0020119   -0.0001721     0.0013988    0.0001858    -0.0306386   -0.1460312 
   0.169092271     0.3392333    0.2562577     0.0011364    0.0001493     0.0012115    0.0002189    -0.0310522   -0.1463209 
   0.169192296     0.3513169    0.2426682     0.0010552    0.0000143     0.0009772    0.0000475    -0.0317432   -0.1459788 
   0.169292321     0.3669193    0.2254341     0.0010905   -0.0000668     0.0011117    0.0000728    -0.0307104   -0.1457280 
   0.169392346     0.3791976    0.2112012     0.0013317    0.0004219     0.0014005    0.0001601    -0.0308466   -0.1464006 
   0.169492371     0.3913023    0.1962318     0.0015544   -0.0000091     0.0012473    0.0003643    -0.0308588   -0.1454885 
   0.169592396     0.4028088    0.1799419     0.0013523   -0.0003222     0.0013543    0.0002655    -0.0309683   -0.1462352 
   0.169692421     0.4135549    0.1622160     0.0011636    0.0003009     0.0013684   -0.0001800    -0.0316161   -0.1464747 
   0.169792446     0.4262509    0.1439869     0.0012949    0.0003225     0.0013645    0.0000988    -0.0314273   -0.1459855 
   0.169892471     0.4342218    0.1275856     0.0013911   -0.0001325     0.0012439   -0.0000754    -0.0312901   -0.1453360 
   0.169992496     0.4442225    0.1110050     0.0011266    0.0000407     0.0011483   -0.0000563    -0.0314765   -0.1455935 
   0.170092521     0.4518024    0.0924065     0.0012398   -0.0000371     0.0014241    0.0001135    -0.0322825   -0.1454764 
   0.170192546     0.4592929    0.0738255     0.0009870   -0.0000589     0.0008870   -0.0000488    -0.0319941   -0.1452951 
   0.170292571     0.4656746    0.0536590     0.0012518    0.0001902     0.0009904   -0.0001408    -0.0327927   -0.1458780 
   0.170392596     0.4722282    0.0336791     0.0007721    0.0000012     0.0008544    0.0000636    -0.0314903   -0.1462987 
   0.170492621     0.4767360    0.0163795     0.0011092    0.0001940     0.0010666    0.0001662    -0.0329932   -0.1452813 
   0.170592646     0.4822674   -0.0056087     0.0012015    0.0003290     0.0010455   -0.0000228    -0.0326735   -0.1459046 
   0.170692671     0.4841006   -0.0241812     0.0014165    0.0002465     0.0010963    0.0000210    -0.0321813   -0.1454467 
   0.170792696     0.4860695   -0.0436182     0.0008290    0.0001469     0.0009695    0.0002389    -0.0326184   -0.1458467 
   0.170892721     0.4879476   -0.0662025     0.0007651    0.0004138     0.0010642   -0.0000428    -0.0321855   -0.1451909 
   0.170992746     0.4918014   -0.0861606     0.0013407   -0.0000547     0.0009342    0.0000578    -0.0330106   -0.1452065 
   0.171092771     0.4889617   -0.1030686     0.0009711    0.0000129     0.0009149    0.0001318    -0.0326350   -0.1452651 
   0.171192796     0.4908255   -0.1265556     0.0011137    0.0004414     0.0010185   -0.0000253    -0.0324538   -0.1450147 
   0.171292821     0.4874575   -0.1430594     0.0009315    0.0005893     0.0009766    0.0000908    -0.0327052   -0.1451013 
   0.171392846     0.4865188   -0.1658321     0.0005397    0.0000514     0.0007562    0.0001809    -0.0323582   -0.1452165 
   0.171492871     0.4824814   -0.1858836     0.0005895    0.0001803     0.0008972    0.0001565    -0.0328712   -0.1453675 
   0.171592896     0.4795842   -0.2029787     0.0006539    0.0003645     0.0008157    0.0001550    -0.0331771   -0.1449214 
   0.171692921     0.4748748   -0.2231885     0.0005656    0.0000612     0.0008525    0.0002620    -0.0324670   -0.1456963 
   0.171792946     0.4675373   -0.2431947     0.0011164    0.0002837     0.0007337    0.0001571    -0.0338230   -0.1449720 
   0.171892971     0.4639384   -0.2625299     0.0010204   -0.0000978     0.0008235    0.0001066    -0.0335465   -0.1453786 
   0.171992996     0.4529465   -0.2789853     0.0011172    0.0003090     0.0005212    0.0005323    -0.0338837   -0.1453519 
   0.172093022     0.4476537   -0.2955889     0.0007222    0.0002721     0.0006129    0.0004286    -0.0337276   -0.1451802 
   0.172193047     0.4414067   -0.3171895     0.0011156    0.0001672     0.0006072    0.0003098    -0.0337199   -0.1447245 
   0.172293072     0.4306270   -0.3331293     0.0004913    0.0003155     0.0007873    0.0004665    -0.0335179   -0.1445298 
   0.172393097     0.4213488   -0.3504697     0.0003025    0.0007580     0.0008584    0.0004267    -0.0339354   -0.1451815 
   0.172493122     0.4090208   -0.3690556     0.0006432    0.0001014     0.0006620    0.0003494    -0.0336988   -0.1447811 
   0.172593147     0.4006134   -0.3859250     0.0008933    0.0001290     0.0004701    0.0005600    -0.0337523   -0.1450585 
   0.172693172     0.3910907   -0.3993023     0.0009598    0.0005361     0.0007859    0.0005518    -0.0332646   -0.1444266 
   0.172793197     0.3781170   -0.4150288     0.0004243    0.0002368     0.0009396    0.0006341    -0.0342285   -0.1444765 
   0.172893222     0.3623407   -0.4294400     0.0007287    0.0003463     0.0008371    0.0002825    -0.0336762   -0.1443295 
   0.172993247     0.3517157   -0.4437002     0.0008073    0.0005517     0.0006114    0.0002635    -0.0338862   -0.1450013 
   0.173093272     0.3383678   -0.4553046     0.0003593    0.0005058     0.0006319    0.0001772    -0.0342368   -0.1441663 
   0.173193297     0.3246445   -0.4668437     0.0006155    0.0004620     0.0004962    0.0007212    -0.0342186   -0.1442115 
   0.173293322     0.3101894   -0.4780922     0.0009217    0.0002086     0.0007016    0.0007999    -0.0339487   -0.1444974 
   0.173393347     0.2989665   -0.4919725     0.0007432    0.0008704     0.0007099    0.0005130    -0.0335529   -0.1442417 
   0.173493372     0.2825119   -0.5017857     0.0003303    0.0005891     0.0006891    0.0008318    -0.0342809   -0.1451007 
   0.173593397     0.2698974   -0.5134719     0.0004381    0.0006997     0.0007074    0.0007571    -0.0348771   -0.1440831 
   0.173693422     0.2538922   -0.5240380     0.0005213    0.0009104     0.0007300    0.0005662    -0.0346846   -0.1444695 
   0.173793447     0.2400001   -0.5281392     0.0007783    0.0004524     0.0005426    0.0009642    -0.0343365   -0.1442503 
   0.173893472     0.2222046   -0.5385193     0.0005004    0.0006445     0.0008100    0.0005641    -0.0350607   -0.1445021 
   0.173993497     0.2080525   -0.5455482     0.0006508    0.0008125     0.0006423    0.0009349    -0.0344468   -0.1444823 
   0.174093522     0.1898347   -0.5555495     0.0006802    0.0006469     0.0005330    0.0007908    -0.0349318   -0.1443080 
   0.174193547     0.1728179   -0.5613928     0.0011278    0.0008554     0.0007486    0.0007057    -0.0352893   -0.1434615 
   0.174293572     0.1553026   -0.5680094     0.0006577    0.0005711     0.0008869    0.0008010    -0.0345736   -0.1433097 
   0.174393597     0.1411896   -0.5718124     0.0006450    0.0009750     0.0006415    0.0008772    -0.0351850   -0.1431831 
   0.174493622     0.1254835   -0.5755922     0.0006419    0.0006950     0.0008310    0.0006973    -0.0349261   -0.1435098 
   0.174593647     0.1064986   -0.5817793     0.0008386    0.0006839     0.0006495    0.0005599    -0.0348537   -0.1438488 
   0.174693672     0.0920162   -0.5842450     0.0005637    0.0010685     0.0005694    0.0009510    -0.0353563   -0.1441613 
   0.174793697     0.0745400   -0.5903805     0.0010915    0.0006068     0.0006990    0.0008274    -0.0351171   -0.1437048 
   0.174893722     0.0599452   -0.5915264     0.0006961    0.0008640     0.0007401    0.0010247    -0.0360552   -0.1431753 
   0.174993747     0.0399177   -0.5898501     0.0006857    0.0006440     0.0007065    0.0009221    -0.0356839   -0.1436405 
   0.175093772     0.0258036   -0.5927315     0.0007177    0.0007663     0.0006395    0.0007246    -0.0353793   -0.1440350 
   0.175193797     0.0094823   -0.5940649     0.0008193    0.0008093     0.0007527    0.0008553    -0.0357026   -0.1434720 
   0.175293822    -0.0073812   -0.5953788     0.0006278    0.0008928     0.0007527    0.0010228    -0.0361349   -0.1428717 
   0.175393847    -0.0215357   -0.5933811     0.0008350    0.0008884     0.0006639    0.0008059    -0.0348443   -0.1436742 
   0.175493872    -0.0388802   -0.5940346     0.0007235    0.0009209     0.0009015    0.0011174    -0.0366179   -0.1425091 
   0.175593897    -0.0556522   -0.5939717     0.0005946    0.0008985     0.0008226    0.0010351    -0.0359153   -0.1426389 
   0.175693922    -0.0707639   -0.5906457     0.0004533    0.0010837     0.0008397    0.0009737    -0.0357342   -0.1436834 
   0.175793947    -0.0854913   -0.5892179     0.0007452    0.0009708     0.0007941    0.0011202    -0.0365994   -0.1437729 
   0.175893972    -0.1023765   -0.5866326     0.0006618    0.0011395     0.0009071    0.0010311    -0.0363558   -0.1426662 
   0.175993997    -0.1195658   -0.5834101     0.0007126    0.0009007     0.0008994    0.0010074    -0.0366348   -0.1432516 
   0.176094022    -0.1342898   -0.5800019     0.0007496    0.0011666     0.0008805    0.0010051    -0.0362543   -0.1426462 
   0.176194047    -0.1466048   -0.5761211     0.0006739    0.0009937     0.0010214    0.0011525    -0.0363763   -0.1432144 
   0.176294072    -0.1602352   -0.5697722     0.0008838    0.0010164     0.0009321    0.0011302    -0.0367884   -0.1426087 
   0.176394097    -0.1776391   -0.5657767     0.0008833    0.0011445     0.0009373    0.0011967    -0.0364754   -0.1431980 
   0.176494122    -0.1920129   -0.5608897     0.0010380    0.0011198     0.0007972    0.0010735    -0.0366057   -0.1424552 
   0.176594147    -0.2058727   -0.5547524     0.0011217    0.0011595     0.0008763    0.0012100    -0.0360767   -0.1425471 
   0.176694172    -0.2157208   -0.5500903     0.0008649    0.0010494     0.0008453    0.0011734    -0.0362506   -0.1421376 
   0.176794197    -0.2322803   -0.5402261     0.0011101    0.0011044     0.0009570    0.0010883    -0.0380324   -0.1422684 
   0.176894222    -0.2460196   -0.5349025     0.0011444    0.0011697     0.0010430    0.0011823    -0.0374671   -0.1430683 
   0.176994247    -0.2575667   -0.5287631     0.0010769    0.0009371     0.0009729    0.0011288    -0.0366630   -0.1424779 
   0.177094272    -0.2716467   -0.5194557     0.0009813    0.0012329     0.0011703    0.0012065    -0.0370125   -0.1428842 
   0.177194297    -0.2832910   -0.5138580     0.0010272    0.0013177     0.0010626    0.0011132    -0.0375722   -0.1429402 
   0.177294322    -0.2939877   -0.5066596     0.0009800    0.0012486     0.0010885    0.0012425    -0.0374381   -0.1424851 
   0.177394347    -0.3058827   -0.4964189     0.0010381    0.0012876     0.0010146    0.0011871    -0.0367630   -0.1421592 
   0.177494372    -0.3169180   -0.4883168     0.0012495    0.0011661     0.0010187    0.0013755    -0.0370161   -0.1426474 
   0.177594397    -0.3279454   -0.4781790     0.0012166    0.0012255     0.0010272    0.0011371    -0.0376505   -0.1425137 
   0.177694422    -0.3404307   -0.4694602     0.0013862    0.0013070     0.0010675    0.0010657    -0.0373869   -0.1420550 
   0.177794447    -0.3479076   -0.4593873     0.0011632    0.0011820     0.0011632    0.0013263    -0.0375432   -0.1426370 
   0.177894472    -0.3619499   -0.4508639     0.0011808    0.0012222     0.0013089    0.0012728    -0.0382248   -0.1419164 
   0.177994497    -0.3708211   -0.4410999     0.0011280    0.0011075     0.0011899    0.0012459    -0.0383278   -0.1420790 
   0.178094522    -0.3778710   -0.4296153     0.0012791    0.0011935     0.0012939    0.0012349    -0.0377014   -0.1413704 
   0.178194547    -0.3874673   -0.4206240     0.0012979    0.0013204     0.0012249    0.0011315    -0.0382989   -0.1425365 
   0.178294572    -0.3966577   -0.4104812     0.0012871    0.0013242     0.0013545    0.0011837    -0.0381780   -0.1417232 
   0.178394597    -0.4054676   -0.3985276     0.0011765    0.0011591     0.0012815    0.0010890    -0.0386580   -0.1419631 
   0.178494622    -0.4141369   -0.3861172     0.0013781    0.0012782     0.0014020    0.0011894    -0.0378890   -0.1416574 
   0.178594647    -0.4228286   -0.3770405     0.0013641    0.0012484     0.0014506    0.0011220    -0.0376750   -0.1420723 
   0.178694672    -0.4315757   -0.3654253     0.0013162    0.0013942     0.0014638    0.0011936    -0.0383252   -0.1416948 
   0.178794697    -0.4386224   -0.3547769     0.0013519    0.0012126     0.0013720    0.0012191    -0.0383559   -0.1421307 
   0.178894722    -0.4441407   -0.3432205     0.0015173    0.0012186     0.0014233    0.0011467    -0.0386288   -0.1419296 
   0.178994747    -0.4501878   -0.3307755     0.0012937    0.0011312     0.0012856    0.0013378    -0.0391360   -0.1422506 
   0.179094772    -0.4554672   -0.3193357     0.0013209    0.0013154     0.0014337    0.0013027    -0.0382057   -0.1415000 
   0.179194797    -0.4628831   -0.3064790     0.0015279    0.0012520     0.0014064    0.0011814    -0.0388776   -0.1413925 
   0.179294822    -0.4682289   -0.2953702     0.0015926    0.0014296     0.0015543    0.0013073    -0.0384307   -0.1420643 
   0.179394847    -0.4730409   -0.2813469     0.0015597    0.0014056     0.0013613    0.0010880    -0.0389358   -0.1413325 
   0.179494872    -0.4796299   -0.2698796     0.0013439    0.0013207     0.0015242    0.0011896    -0.0393901   -0.1413815 
   0.179594897    -0.4831004   -0.2572593     0.0013910    0.0010121     0.0016815    0.0011265    -0.0386605   -0.1418203 
   0.179694922    -0.4859745   -0.2449510     0.0017456    0.0014895     0.0014094    0.0009971    -0.0390574   -0.1404115 
   0.179794947    -0.4894385   -0.2313733     0.0014366    0.0012271     0.0016082    0.0010892    -0.0394667   -0.1415725 
   0.179894972    -0.4939229   -0.2192739     0.0015198    0.0008452     0.0015671    0.0011345    -0.0395960   -0.1417979 
   0.179994997    -0.4979483   -0.2039700     0.0016265    0.0012656     0.0016064    0.0010932    -0.0387811   -0.1413772 
   0.180095023    -0.5012795   -0.1948659     0.0015375    0.0010425     0.0017095    0.0011234    -0.0391555   -0.1416981 
   0.180195048    -0.5042093   -0.1797137     0.0016482    0.0012567     0.0016462    0.0010625    -0.0394324   -0.1409445 
   0.180295073    -0.5050602   -0.1680385     0.0014104    0.0011137     0.0015607    0.0012173    -0.0393491   -0.1407448 
   0.180395098    -0.5068049   -0.1559715     0.0016055    0.0011832     0.0016833    0.0010297    -0.0395867   -0.1409934 
   0.180495123    -0.5083384   -0.1404563     0.0015919    0.0011804     0.0016266    0.0011238    -0.0404763   -0.1412981 
   0.180595148    -0.5098760   -0.1277773     0.0016772    0.0010171     0.0016850    0.0009820    -0.0398827   -0.1406378 
   0.180695173    -0.5097565   -0.1162615     0.0018387    0.0012384     0.0016530    0.0010148    -0.0405601   -0.1411024 
   0.180795198    -0.5122523   -0.1022436     0.0015275    0.0013325     0.0015755    0.0011715    -0.0402199   -0.1410024 
   0.180895223    -0.5117535   -0.0884605     0.0015608    0.0011716     0.0016347    0.0010986    -0.0405711   -0.1407456 
   0.180995248    -0.5128486   -0.0742361     0.0016460    0.0014387     0.0017231    0.0010997    -0.0402783   -0.1401721 
   0.181095273    -0.5103612   -0.0634234     0.0017632    0.0011307     0.0018766    0.0009437    -0.0395176   -0.1407849 
   0.181195298    -0.5093426   -0.0489050     0.0016779    0.0010807     0.0016703    0.0010985    -0.0405754   -0.1400633 
   0.181295323    -0.5082386   -0.0356950     0.0017221    0.0012979     0.0016805    0.0010034    -0.0400945   -0.1401850 
   0.181395348    -0.5074224   -0.0225571     0.0019119    0.0009772     0.0017248    0.0010512    -0.0401042   -0.1412050 
   0.181495373    -0.5050535   -0.0091492     0.0017704    0.0012730     0.0017449    0.0010749    -0.0403969   -0.1405372 
   0.181595398    -0.5035342    0.0035209     0.0016943    0.0010227     0.0018846    0.0010182    -0.0407412   -0.1402980 
   0.181695423    -0.5017602    0.0159774     0.0019403    0.0010626     0.0018462    0.0010906    -0.0404051   -0.1404311 
   0.181795448    -0.4969005    0.0269149     0.0018580    0.0012431     0.0018599    0.0010771    -0.0410666   -0.1400672 
   0.181895473    -0.4948855    0.0405974     0.0017159    0.0009473     0.0020133    0.0012155    -0.0406511   -0.1404830 
   0.181995498    -0.4892617    0.0535906     0.0017955    0.0008865     0.0019324    0.0009058    -0.0404895   -0.1400566 
   0.182095523    -0.4870350    0.0675984     0.0018747    0.0008211     0.0020125    0.0010113    -0.0407548   -0.1396292 
   0.182195548    -0.4830251    0.0804199     0.0019712    0.0011991     0.0018926    0.0008878    -0.0410196   -0.1402674 
   0.182295573    -0.4782978    0.0942315     0.0020783    0.0009267     0.0018246    0.0009382    -0.0407348   -0.1394030 
   0.182395598    -0.4740399    0.1037804     0.0020921    0.0008268     0.0019200    0.0009401    -0.0409542   -0.1405368 
   0.182495623    -0.4682745    0.1163988     0.0022978    0.0008445     0.0018354    0.0007839    -0.0416492   -0.1399305 
   0.182595648    -0.4621633    0.1284365     0.0018921    0.0008728     0.0020125    0.0008537    -0.0414838   -0.1402879 
   0.182695673    -0.4589906    0.1419998     0.0018885    0.0008342     0.0020308    0.0007202    -0.0418445   -0.1396431 
   0.182795698    -0.4524176    0.1535471     0.0019121    0.0006986     0.0019782    0.0006831    -0.0419886   -0.1405632 
   0.182895723    -0.4452819    0.1642039     0.0020238    0.0006890     0.0020234    0.0009300    -0.0418171   -0.1400877 
   0.182995748    -0.4367737    0.1757059     0.0019872    0.0006645     0.0021451    0.0007074    -0.0417050   -0.1394478 
   0.183095773    -0.4304840    0.1860038     0.0020540    0.0009094     0.0018249    0.0007539    -0.0414088   -0.1395819 
   0.183195798    -0.4215508    0.1996288     0.0021361    0.0006474     0.0020853    0.0008322    -0.0414763   -0.1392330 
   0.183295823    -0.4129971    0.2098419     0.0020135    0.0008151     0.0019801    0.0008505    -0.0422136   -0.1401089 
   0.183395848    -0.4068897    0.2208627     0.0022852    0.0005664     0.0021242    0.0006084    -0.0415960   -0.1391610 
   0.183495873    -0.3987955    0.2320274     0.0018724    0.0006471     0.0021385    0.0005554    -0.0424238   -0.1390011 
   0.183595898    -0.3895895    0.2433640     0.0020364    0.0006892     0.0021067    0.0008411    -0.0420062   -0.1397742 
   0.183695923    -0.3821240    0.2531962     0.0020053    0.0006587     0.0019215    0.0008328    -0.0425335   -0.1392805 
   0.183795948    -0.3688267    0.2628891     0.0025609    0.0007175     0.0022285    0.0004784    -0.0426376   -0.1388092 
   0.183895973    -0.3597721    0.2735600     0.0021011    0.0002924     0.0020285    0.0006936    -0.0429396   -0.1395460 
   0.183995998    -0.3516050    0.2807980     0.0019596    0.0006822     0.0020443    0.0006627    -0.0423501   -0.1393912 
   0.184096023    -0.3408366    0.2925436     0.0023007    0.0006419     0.0022850    0.0004570    -0.0422631   -0.1388288 
   0.184196048    -0.3292653    0.3001536     0.0023610    0.0007271     0.0021486    0.0005184    -0.0420672   -0.1386157 
   0.184296073    -0.3199666    0.3117253     0.0020753    0.0004371     0.0021149    0.0005639    -0.0422677   -0.1384670 
   0.184396098    -0.3071189    0.3199017     0.0020405    0.0003777     0.0021340    0.0006280    -0.0426230   -0.1393212 
   0.184496123    -0.2940979    0.3279780     0.0019269    0.0005316     0.0020034    0.0005686    -0.0424492   -0.1387464 
   0.184596148    -0.2838603    0.3338288     0.0020413    0.0004956     0.0020864    0.0006105    -0.0435696   -0.1385497 
   0.184696173    -0.2718865    0.3428154     0.0018920    0.0002101     0.0021015    0.0005696    -0.0435878   -0.1387434 
   0.184796198    -0.2590452    0.3509060     0.0019188    0.0005837     0.0023078    0.0007632    -0.0426996   -0.1382724 
   0.184896223    -0.2450150    0.3571886     0.0021448    0.0004814     0.0020330    0.0004448    -0.0433464   -0.1386755 
   0.184996248    -0.2364308    0.3647457     0.0022600    0.0003730     0.0020453    0.0006296    -0.0433602   -0.1390245 
   0.185096273    -0.2203729    0.3710895     0.0018730    0.0006305     0.0020700    0.0005290    -0.0439653   -0.1384419 
   0.185196298    -0.2062967    0.3777910     0.0021415    0.0003848     0.0023209    0.0003349    -0.0434185   -0.1385911 
   0.185296323    -0.1930601    0.3832392     0.0023816    0.0000660     0.0020692    0.0004988    -0.0436350   -0.1381586 
   0.185396348    -0.1805382    0.3888924     0.0019329    0.0003905     0.0017597    0.0001636    -0.0441732   -0.1380232 
   0.185496373    -0.1654374    0.3935305     0.0021924    0.0004626     0.0021214    0.0003649    -0.0437704   -0.1381310 
   0.185596398    -0.1503745    0.3987059     0.0022094    0.0000675     0.0022984    0.0004572    -0.0438006   -0.1385349 
   0.185696423    -0.1355775    0.4019655     0.0021690    0.0002042     0.0019998    0.0003086    -0.0443685   -0.1382088 
   0.185796448    -0.1189952    0.4048338     0.0019569    0.0003165     0.0019001    0.0002435    -0.0439197   -0.1378529 
   0.185896473    -0.1046355    0.4102374     0.0022886    0.0002842     0.0019784    0.0001747    -0.0440606   -0.1382915 
   0.185996498    -0.0907679    0.4129562     0.0020704    0.0004715     0.0022311    0.0002768    -0.0445896   -0.1388537 
   0.186096523    -0.0765289    0.4150121     0.0021269    0.0005223     0.0017900    0.0002376    -0.0440840   -0.1377327 
   0.186196548    -0.0593909    0.4176688     0.0020099    0.0002034     0.0021800    0.0003430    -0.0443276   -0.1375385 
   0.186296573    -0.0454705    0.4179000     0.0020772    0.0003517     0.0020896    0.0003027    -0.0445281   -0.1380654 
   0.186396598    -0.0277424    0.4196601     0.0020151    0.0002721     0.0018512    0.0003487    -0.0436267   -0.1373208 
   0.186496623    -0.0136442    0.4183823     0.0020262    0.0002528     0.0020669   -0.0001599    -0.0446682   -0.1377778 
   0.186596648     0.0041234    0.4196038     0.0020475    0.0001444     0.0020740    0.0002467    -0.0448416   -0.1379762 
   0.186696673     0.0198713    0.4188432     0.0018419   -0.0003030     0.0020095    0.0001737    -0.0440142   -0.1374522 
   0.186796698     0.0377162    0.4184051     0.0018784    0.0005607     0.0020575   -0.0000097    -0.0444789   -0.1377010 
   0.186896723     0.0510008    0.4154280     0.0017016   -0.0003075     0.0018753   -0.0002835    -0.0443242   -0.1380189 
   0.186996748     0.0681606    0.4124908     0.0021803    0.0003582     0.0020581   -0.0000440    -0.0446509   -0.1377606 
   0.187096773     0.0844820    0.4096334     0.0021160   -0.0000485     0.0021526    0.0000265    -0.0451337   -0.1374048 
   0.187196798     0.0988448    0.4073712     0.0019573    0.0000735     0.0017662    0.0001099    -0.0452455   -0.1380474 
   0.187296823     0.1174583    0.4034824     0.0020482   -0.0000498     0.0018566   -0.0002418    -0.0457089   -0.1375117 
   0.187396848     0.1342713    0.3983874     0.0016631    0.0001048     0.0020353    0.0001010    -0.0449280   -0.1373440 
   0.187496873     0.1511547    0.3945930     0.0015063   -0.0002114     0.0017958    0.0001565    -0.0454739   -0.1374315 
   0.187596898     0.1655282    0.3875252     0.0017781   -0.0001503     0.0018475    0.0000974    -0.0455777   -0.1372361 
   0.187696923     0.1820238    0.3809149     0.0017706    0.0001004     0.0017798   -0.0002914    -0.0458050   -0.1373770 
   0.187796948     0.1982760    0.3739985     0.0019200    0.0000637     0.0019802   -0.0001525    -0.0454317   -0.1371878 
   0.187896973     0.2127650    0.3676418     0.0017431    0.0002180     0.0020037   -0.0000408    -0.0457855   -0.1375991 
   0.187996998     0.2290453    0.3575788     0.0017210   -0.0002616     0.0017518    0.0001238    -0.0451097   -0.1368449 
   0.188097024     0.2441162    0.3501359     0.0018523   -0.0003473     0.0013596   -0.0002683    -0.0453823   -0.1373558 
   0.188197049     0.2581618    0.3409646     0.0019264   -0.0003163     0.0017787   -0.0000575    -0.0456169   -0.1371578 
   0.188297074     0.2735389    0.3296112     0.0015651    0.0001925     0.0016238    0.0000146    -0.0465114   -0.1371313 
   0.188397099     0.2889022    0.3232382     0.0015077    0.0000602     0.0017990   -0.0000256    -0.0459960   -0.1366420 
   0.188497124     0.3016689    0.3091436     0.0020717    0.0001474     0.0015491    0.0000434    -0.0455922   -0.1370768 
   0.188597149     0.3155500    0.2991059     0.0016370   -0.0003285     0.0017795    0.0000462    -0.0458661   -0.1369703 
   0.188697174     0.3294874    0.2857037     0.0019619   -0.0004716     0.0015067   -0.0003389    -0.0460460   -0.1365623 
   0.188797199     0.3428442    0.2734669     0.0016365   -0.0002899     0.0017552   -0.0001931    -0.0470449   -0.1370218 
   0.188897224     0.3543180    0.2599479     0.0015694   -0.0001193     0.0016415   -0.0000743    -0.0464279   -0.1359423 
   0.188997249     0.3663804    0.2468342     0.0015697   -0.0002552     0.0014239   -0.0000705    -0.0466654   -0.1368339 
   0.189097274     0.3799334    0.2313942     0.0016224   -0.0002435     0.0015265   -0.0002431    -0.0468961   -0.1368561 
   0.189197299     0.3894857    0.2186623     0.0012579   -0.0002109     0.0014771   -0.0001772    -0.0465216   -0.1363983 
   0.189297324     0.4002888    0.2034730     0.0014843   -0.0004934     0.0012630   -0.0002108    -0.0471070   -0.1368832 
   0.189397349     0.4102620    0.1879673     0.0012324   -0.0003601     0.0014734   -0.0002142    -0.0473416   -0.1364149 
   0.189497374     0.4200381    0.1709616     0.0016299   -0.0001307     0.0012828   -0.0002294    -0.0475520   -0.1364511 
   0.189597399     0.4282123    0.1539523     0.0012135   -0.0003539     0.0014099   -0.0001955    -0.0470783   -0.1361900 
   0.189697424     0.4382310    0.1376448     0.0013601   -0.0000668     0.0013271   -0.0000701    -0.0474363   -0.1363222 
   0.189797449     0.4442004    0.1224995     0.0016454   -0.0001863     0.0011290   -0.0000413    -0.0473797   -0.1368397 
   0.189897474     0.4515982    0.1019946     0.0012655   -0.0002236     0.0013153   -0.0003277    -0.0470215   -0.1364290 
   0.189997499     0.4586557    0.0860661     0.0011230   -0.0000994     0.0011504   -0.0002012    -0.0472338   -0.1364154 
   0.190097524     0.4657498    0.0667047     0.0012539   -0.0001779     0.0010915    0.0000475    -0.0474538   -0.1365577 
   0.190197549     0.4686846    0.0488523     0.0014133   -0.0004356     0.0015027   -0.0001599    -0.0471301   -0.1359760 
   0.190297574     0.4745951    0.0305048     0.0014033    0.0000337     0.0012593   -0.0001077    -0.0475100   -0.1354533 
   0.190397599     0.4781393    0.0110055     0.0010948    0.0000103     0.0012458   -0.0002597    -0.0477117   -0.1363624 
   0.190497624     0.4797870   -0.0104576     0.0015316    0.0000531     0.0012166   -0.0000878    -0.0479154   -0.1358025 
   0.190597649     0.4812157   -0.0272581     0.0010787   -0.0001747     0.0012042    0.0000764    -0.0478797   -0.1357722 
   0.190697674     0.4838072   -0.0446804     0.0011406   -0.0000017     0.0010906    0.0001586    -0.0482619   -0.1361039 
   0.190797699     0.4829762   -0.0644351     0.0012595   -0.0000107     0.0012869    0.0001547    -0.0484290   -0.1350877 
   0.190897724     0.4798968   -0.0843348     0.0011032   -0.0000521     0.0010675   -0.0000358    -0.0481797   -0.1351235 
   0.190997749     0.4818328   -0.1057591     0.0010190    0.0000524     0.0012728   -0.0001543    -0.0479535   -0.1353459 
   0.191097774     0.4813675   -0.1230798     0.0010109    0.0000269     0.0010487   -0.0001906    -0.0485558   -0.1354184 
   0.191197799     0.4782299   -0.1415943     0.0010524    0.0000220     0.0009467   -0.0001047    -0.0477770   -0.1355722 
   0.191297824     0.4745386   -0.1619615     0.0009276   -0.0002545     0.0009282    0.0002503    -0.0487436   -0.1347423 
   0.191397849     0.4708013   -0.1806593     0.0010778    0.0000578     0.0011242    0.0001343    -0.0485005   -0.1351907 
   0.191497874     0.4669464   -0.2004411     0.0008717    0.0001253     0.0008896    0.0000627    -0.0486269   -0.1351916 
   0.191597899     0.4610095   -0.2185612     0.0009317    0.0001565     0.0011474   -0.0000127    -0.0487605   -0.1353388 
   0.191697924     0.4562044   -0.2351102     0.0008471    0.0001618     0.0009678    0.0001989    -0.0488417   -0.1351821 
   0.191797949     0.4475878   -0.2540780     0.0008888   -0.0001905     0.0008611    0.0002525    -0.0488068   -0.1348216 
   0.191897974     0.4424120   -0.2743687     0.0009187    0.0000429     0.0010512    0.0002878    -0.0495543   -0.1350350 
   0.191997999     0.4311151   -0.2912930     0.0009349   -0.0000062     0.0008016    0.0002088    -0.0490328   -0.1348844 
   0.192098024     0.4223681   -0.3082940     0.0009443    0.0001383     0.0007182    0.0001573    -0.0491665   -0.1344105 
   0.192198049     0.4135079   -0.3228044     0.0008880    0.0001831     0.0008956    0.0002699    -0.0492256   -0.1353957 
   0.192298074     0.4018963   -0.3384390     0.0008862   -0.0000192     0.0008498    0.0001338    -0.0493378   -0.1348592 
   0.192398099     0.3919196   -0.3541151     0.0008124    0.0003448     0.0008314    0.0002591    -0.0489712   -0.1346003 
   0.192498124     0.3804002   -0.3699754     0.0009046    0.0000717     0.0008167    0.0002903    -0.0489690   -0.1343814 
   0.192598149     0.3680082   -0.3860749     0.0007863    0.0002769     0.0008372    0.0001927    -0.0496878   -0.1350985 
   0.192698174     0.3546796   -0.3991240     0.0009745    0.0001689     0.0007901    0.0002433    -0.0491573   -0.1337034 
   0.192798199     0.3433190   -0.4124478     0.0008762    0.0002092     0.0009704    0.0004063    -0.0496984   -0.1345207 
   0.192898224     0.3303687   -0.4272196     0.0008009    0.0002729     0.0009391    0.0003905    -0.0498717   -0.1342030 
   0.192998249     0.3178117   -0.4414345     0.0009394    0.0005260     0.0007783    0.0004032    -0.0501338   -0.1342631 
   0.193098274     0.3010688   -0.4516360     0.0008936    0.0003748     0.0009556    0.0004024    -0.0500686   -0.1345104 
   0.193198299     0.2872401   -0.4631011     0.0008644    0.0005218     0.0007476    0.0003009    -0.0500310   -0.1346526 
   0.193298324     0.2717510   -0.4721333     0.0008800    0.0005816     0.0007560    0.0004291    -0.0496777   -0.1341625 
   0.193398349     0.2552342   -0.4853329     0.0008179    0.0006268     0.0009101    0.0004060    -0.0503141   -0.1345701 
   0.193498374     0.2422701   -0.4930626     0.0007692    0.0005130     0.0008429    0.0005417    -0.0505469   -0.1335618 
   0.193598399     0.2235965   -0.5027328     0.0006904    0.0005524     0.0009791    0.0005554    -0.0502485   -0.1342402 
   0.193698424     0.2104038   -0.5108271     0.0007615    0.0005913     0.0008787    0.0005158    -0.0502875   -0.1339513 
   0.193798449     0.1907297   -0.5202163     0.0007776    0.0005852     0.0008243    0.0004659    -0.0501481   -0.1348443 
   0.193898474     0.1745156   -0.5254352     0.0009387    0.0004967     0.0010469    0.0006346    -0.0502766   -0.1338854 
   0.193998499     0.1579324   -0.5321815     0.0010075    0.0006823     0.0009094    0.0005978    -0.0518251   -0.1333383 
   0.194098524     0.1412317   -0.5383673     0.0007814    0.0006686     0.0009321    0.0007483    -0.0501308   -0.1331755 
   0.194198549     0.1238585   -0.5434396     0.0010212    0.0006477     0.0009690    0.0006316    -0.0508733   -0.1336002 
   0.194298574     0.1062354   -0.5456448     0.0009012    0.0007949     0.0010483    0.0006873    -0.0508867   -0.1340088 
   0.194398599     0.0890703   -0.5495514     0.0010542    0.0007398     0.0009677    0.0007495    -0.0504850   -0.1339608 
   0.194498624     0.0705800   -0.5510732     0.0008928    0.0007679     0.0008522    0.0006848    -0.0507592   -0.1337690 
   0.194598649     0.0528706   -0.5536472     0.0008244    0.0008833     0.0009778    0.0006875    -0.0517066   -0.1336310 
   0.194698674     0.0377076   -0.5579346     0.0009829    0.0007880     0.0009268    0.0007521    -0.0512477   -0.1338532 
   0.194798699     0.0211723   -0.5592659     0.0009036    0.0007698     0.0009055    0.0007001    -0.0515668   -0.1332656 
   0.194898724     0.0019024   -0.5606834     0.0009344    0.0006887     0.0009546    0.0008133    -0.0512591   -0.1340407 
   0.194998749    -0.0150539   -0.5593258     0.0010305    0.0009660     0.0011149    0.0008680    -0.0515441   -0.1333142 
   0.195098774    -0.0328287   -0.5598566     0.0008376    0.0009725     0.0009303    0.0007655    -0.0511725   -0.1338543 
   0.195198799    -0.0480374   -0.5568933     0.0010650    0.0008330     0.0010387    0.0009317    -0.0513229   -0.1326409 
   0.195298824    -0.0677185   -0.5556386     0.0010154    0.0009813     0.0010054    0.0009421    -0.0511871   -0.1328383 
   0.195398849    -0.0827499   -0.5548996     0.0010240    0.0009480     0.0009590    0.0008796    -0.0517597   -0.1332307 
   0.195498874    -0.0983220   -0.5508032     0.0011044    0.0008037     0.0010943    0.0008628    -0.0515717   -0.1338305 
   0.195598899    -0.1129310   -0.5458745     0.0011068    0.0008203     0.0010203    0.0010875    -0.0518846   -0.1335306 
   0.195698924    -0.1307880   -0.5438641     0.0012866    0.0009816     0.0011876    0.0008598    -0.0521457   -0.1334953 
   0.195798949    -0.1445405   -0.5399292     0.0010899    0.0010167     0.0010968    0.0008606    -0.0522055   -0.1328304 
   0.195898974    -0.1605062   -0.5325635     0.0010206    0.0009176     0.0012821    0.0009247    -0.0530031   -0.1322405 
   0.195998999    -0.1761229   -0.5273731     0.0013870    0.0010483     0.0011011    0.0009375    -0.0511675   -0.1329454 
   0.196099025    -0.1910540   -0.5211613     0.0012188    0.0009304     0.0011809    0.0010535    -0.0519409   -0.1331580 
   0.196199050    -0.2063609   -0.5157631     0.0012676    0.0011353     0.0012718    0.0011523    -0.0524743   -0.1330479 
   0.196299075    -0.2192878   -0.5077558     0.0011885    0.0010030     0.0011763    0.0010816    -0.0526000   -0.1335810 
   0.196399100    -0.2355895   -0.5021673     0.0013057    0.0011503     0.0012874    0.0011420    -0.0521288   -0.1325078 
   0.196499125    -0.2474738   -0.4964276     0.0008820    0.0010393     0.0012829    0.0010835    -0.0526272   -0.1331361 
   0.196599150    -0.2613367   -0.4853308     0.0012762    0.0010430     0.0011576    0.0010800    -0.0530234   -0.1326297 
   0.196699175    -0.2743072   -0.4777990     0.0012755    0.0010366     0.0013206    0.0010105    -0.0528015   -0.1325006 
   0.196799200    -0.2856466   -0.4699284     0.0013742    0.0011030     0.0013005    0.0012172    -0.0531205   -0.1326180 
   0.196899225    -0.3001896   -0.4603069     0.0012721    0.0011288     0.0012687    0.0008980    -0.0533487   -0.1320579 
   0.196999250    -0.3120222   -0.4497397     0.0013667    0.0011012     0.0014014    0.0010297    -0.0530647   -0.1319215 
   0.197099275    -0.3218124   -0.4424439     0.0014954    0.0009489     0.0014943    0.0011275    -0.0533640   -0.1327041 
   0.197199300    -0.3342477   -0.4308791     0.0013832    0.0011748     0.0013938    0.0009813    -0.0530906   -0.1317903 
   0.197299325    -0.3444375   -0.4191940     0.0013054    0.0011723     0.0016069    0.0010792    -0.0531101   -0.1319591 
   0.197399350    -0.3578470   -0.4107795     0.0013572    0.0010006     0.0014975    0.0009327    -0.0539055   -0.1318677 
   0.197499375    -0.3669868   -0.4002541     0.0015254    0.0010572     0.0015062    0.0009420    -0.0532557   -0.1320661 
   0.197599400    -0.3766893   -0.3899614     0.0018447    0.0010495     0.0013218    0.0009888    -0.0534552   -0.1325559 
   0.197699425    -0.3843618   -0.3763984     0.0013054    0.0010352     0.0017101    0.0009672    -0.0541403   -0.1317421 
   0.197799450    -0.3939943   -0.3657425     0.0016066    0.0011880     0.0016267    0.0011558    -0.0540465   -0.1320835 
   0.197899475    -0.4036237   -0.3536736     0.0016128    0.0009470     0.0016663    0.0011313    -0.0535169   -0.1312945 
   0.197999500    -0.4123075   -0.3434455     0.0018790    0.0010975     0.0015190    0.0011490    -0.0538310   -0.1312900 
   0.198099525    -0.4178101   -0.3286151     0.0017562    0.0011961     0.0014455    0.0012062    -0.0534235   -0.1315773 
   0.198199550    -0.4264998   -0.3198383     0.0015112    0.0011805     0.0017947    0.0010912    -0.0535502   -0.1316549 
   0.198299575    -0.4349241   -0.3067229     0.0018662    0.0009599     0.0014395    0.0011788    -0.0538272   -0.1311670 
   0.198399600    -0.4407361   -0.2952709     0.0014145    0.0010058     0.0018285    0.0010409    -0.0543930   -0.1314825 
   0.198499625    -0.4477518   -0.2808514     0.0017898    0.0012872     0.0017169    0.0012063    -0.0541375   -0.1313823 
   0.198599650    -0.4535338   -0.2680626     0.0012919    0.0011020     0.0017511    0.0010902    -0.0541779   -0.1321656 
   0.198699675    -0.4587697   -0.2554398     0.0018358    0.0011095     0.0017550    0.0009760    -0.0549855   -0.1313038 
   0.198799700    -0.4645596   -0.2437726     0.0018281    0.0009568     0.0016696    0.0011505    -0.0542100   -0.1317589 
   0.198899725    -0.4704934   -0.2295918     0.0017795    0.0008735     0.0015297    0.0011171    -0.0548592   -0.1310046 
   0.198999750    -0.4738399   -0.2149265     0.0014472    0.0011942     0.0020508    0.0010574    -0.0546471   -0.1312825 
   0.199099775    -0.4788812   -0.2020033     0.0017998    0.0010144     0.0018396    0.0011145    -0.0545761   -0.1309725 
   0.199199800    -0.4819703   -0.1885746     0.0019588    0.0008750     0.0019610    0.0010296    -0.0552172   -0.1314015 
   0.199299825    -0.4851959   -0.1775279     0.0017981    0.0010034     0.0018226    0.0010212    -0.0557397   -0.1306626 
   0.199399850    -0.4887835   -0.1615190     0.0020575    0.0010936     0.0018105    0.0011773    -0.0549523   -0.1312670 
   0.199499875    -0.4899910   -0.1486423     0.0020212    0.0008991     0.0017754    0.0009795    -0.0551574   -0.1316333 
   0.199599900    -0.4935952   -0.1358580     0.0016470    0.0009753     0.0019818    0.0010736    -0.0549111   -0.1308628 
   0.199699925    -0.4959832   -0.1259674     0.0018627    0.0008052     0.0017311    0.0009423    -0.0548537   -0.1309646 
   0.199799950    -0.4970289   -0.1089822     0.0019128    0.0008276     0.0020663    0.0008676    -0.0551980   -0.1309807 
   0.199899975    -0.4981469   -0.0957663     0.0020058    0.0009788     0.0020142    0.0010474    -0.0550173   -0.1302707 
   0.200000000    -0.4961021   -0.0828444     0.0021547    0.0009949     0.0022032    0.0009239    -0.0550987   -0.1302241 
