! Generated by Python
# HZ S RI R 50
50000000.000000000   0.545644497   -0.441709905   0.545644497   -0.441709905   0.545644497   -0.441709905   0.545644497   -0.441709905
50100503.000000000   0.514595493   -0.520624101   0.514595493   -0.520624101   0.514595493   -0.520624101   0.514595493   -0.520624101
50201005.000000000   0.475963021   -0.585428933   0.475963021   -0.585428933   0.475963021   -0.585428933   0.475963021   -0.585428933
50301508.000000000   0.432344937   -0.637964251   0.432344937   -0.637964251   0.432344937   -0.637964251   0.432344937   -0.637964251
50402010.000000000   0.386704441   -0.679634476   0.386704441   -0.679634476   0.386704441   -0.679634476   0.386704441   -0.679634476
50502513.000000000   0.340248914   -0.712676769   0.340248914   -0.712676769   0.340248914   -0.712676769   0.340248914   -0.712676769
50603015.000000000   0.293696960   -0.738096947   0.293696960   -0.738096947   0.293696960   -0.738096947   0.293696960   -0.738096947
50703518.000000000   0.247499545   -0.757154575   0.247499545   -0.757154575   0.247499545   -0.757154575   0.247499545   -0.757154575
50804020.000000000   0.201997975   -0.770504986   0.201997975   -0.770504986   0.201997975   -0.770504986   0.201997975   -0.770504986
50904523.000000000   0.157034846   -0.779236312   0.157034846   -0.779236312   0.157034846   -0.779236312   0.157034846   -0.779236312
51005025.000000000   0.112715302   -0.783239577   0.112715302   -0.783239577   0.112715302   -0.783239577   0.112715302   -0.783239577
51105528.000000000   0.068961184   -0.783099797   0.068961184   -0.783099797   0.068961184   -0.783099797   0.068961184   -0.783099797
51206030.000000000   0.025799903   -0.778949486   0.025799903   -0.778949486   0.025799903   -0.778949486   0.025799903   -0.778949486
51306533.000000000   -0.016960853   -0.770608818   -0.016960853   -0.770608818   -0.016960853   -0.770608818   -0.016960853   -0.770608818
51407035.000000000   -0.059180414   -0.758097677   -0.059180414   -0.758097677   -0.059180414   -0.758097677   -0.059180414   -0.758097677
51507538.000000000   -0.100874294   -0.741147489   -0.100874294   -0.741147489   -0.100874294   -0.741147489   -0.100874294   -0.741147489
51608040.000000000   -0.141914421   -0.719390789   -0.141914421   -0.719390789   -0.141914421   -0.719390789   -0.141914421   -0.719390789
51708543.000000000   -0.181860480   -0.692347595   -0.181860480   -0.692347595   -0.181860480   -0.692347595   -0.181860480   -0.692347595
51809045.000000000   -0.220491908   -0.659357306   -0.220491908   -0.659357306   -0.220491908   -0.659357306   -0.220491908   -0.659357306
51909548.000000000   -0.256821670   -0.619708914   -0.256821670   -0.619708914   -0.256821670   -0.619708914   -0.256821670   -0.619708914
52010050.000000000   -0.290000136   -0.572668384   -0.290000136   -0.572668384   -0.290000136   -0.572668384   -0.290000136   -0.572668384
52110553.000000000   -0.318161627   -0.517659732   -0.318161627   -0.517659732   -0.318161627   -0.517659732   -0.318161627   -0.517659732
52211055.000000000   -0.339154002   -0.453913477   -0.339154002   -0.453913477   -0.339154002   -0.453913477   -0.339154002   -0.453913477
52311558.000000000   -0.349964890   -0.381719343   -0.349964890   -0.381719343   -0.349964890   -0.381719343   -0.349964890   -0.381719343
52412060.000000000   -0.346889225   -0.301723507   -0.346889225   -0.301723507   -0.346889225   -0.301723507   -0.346889225   -0.301723507
52512563.000000000   -0.326011420   -0.216811484   -0.326011420   -0.216811484   -0.326011420   -0.216811484   -0.326011420   -0.216811484
52613065.000000000   -0.282880858   -0.132335309   -0.282880858   -0.132335309   -0.282880858   -0.132335309   -0.282880858   -0.132335309
52713568.000000000   -0.215627645   -0.055289915   -0.215627645   -0.055289915   -0.215627645   -0.055289915   -0.215627645   -0.055289915
52814070.000000000   -0.125057813   0.004389042   -0.125057813   0.004389042   -0.125057813   0.004389042   -0.125057813   0.004389042
52914573.000000000   -0.016892092   0.037663752   -0.016892092   0.037663752   -0.016892092   0.037663752   -0.016892092   0.037663752
53015075.000000000   0.097424142   0.038462407   0.097424142   0.038462407   0.097424142   0.038462407   0.097424142   0.038462407
53115578.000000000   0.205778260   0.006512850   0.205778260   0.006512850   0.205778260   0.006512850   0.205778260   0.006512850
53216080.000000000   0.296764253   -0.052706994   0.296764253   -0.052706994   0.296764253   -0.052706994   0.296764253   -0.052706994
53316583.000000000   0.363953259   -0.129941456   0.363953259   -0.129941456   0.363953259   -0.129941456   0.363953259   -0.129941456
53417085.000000000   0.405490433   -0.214617692   0.405490433   -0.214617692   0.405490433   -0.214617692   0.405490433   -0.214617692
53517588.000000000   0.424158076   -0.299184218   0.424158076   -0.299184218   0.424158076   -0.299184218   0.424158076   -0.299184218
53618090.000000000   0.423934035   -0.377813020   0.423934035   -0.377813020   0.423934035   -0.377813020   0.423934035   -0.377813020
53718593.000000000   0.409480003   -0.447584625   0.409480003   -0.447584625   0.409480003   -0.447584625   0.409480003   -0.447584625
53819095.000000000   0.384603082   -0.507719986   0.384603082   -0.507719986   0.384603082   -0.507719986   0.384603082   -0.507719986
53919598.000000000   0.352920097   -0.558121355   0.352920097   -0.558121355   0.352920097   -0.558121355   0.352920097   -0.558121355
54020101.000000000   0.316881624   -0.599377817   0.316881624   -0.599377817   0.316881624   -0.599377817   0.316881624   -0.599377817
54120603.000000000   0.278246214   -0.632146931   0.278246214   -0.632146931   0.278246214   -0.632146931   0.278246214   -0.632146931
54221106.000000000   0.238231744   -0.657676954   0.238231744   -0.657676954   0.238231744   -0.657676954   0.238231744   -0.657676954
54321608.000000000   0.197584081   -0.676809155   0.197584081   -0.676809155   0.197584081   -0.676809155   0.197584081   -0.676809155
54422111.000000000   0.157073637   -0.689795907   0.157073637   -0.689795907   0.157073637   -0.689795907   0.157073637   -0.689795907
54522613.000000000   0.116753361   -0.697513975   0.116753361   -0.697513975   0.116753361   -0.697513975   0.116753361   -0.697513975
54623116.000000000   0.077189065   -0.700366426   0.077189065   -0.700366426   0.077189065   -0.700366426   0.077189065   -0.700366426
54723618.000000000   0.038642538   -0.698720537   0.038642538   -0.698720537   0.038642538   -0.698720537   0.038642538   -0.698720537
54824121.000000000   0.000995903   -0.692728545   0.000995903   -0.692728545   0.000995903   -0.692728545   0.000995903   -0.692728545
54924623.000000000   -0.035393281   -0.682483451   -0.035393281   -0.682483451   -0.035393281   -0.682483451   -0.035393281   -0.682483451
55025126.000000000   -0.070502459   -0.668342902   -0.070502459   -0.668342902   -0.070502459   -0.668342902   -0.070502459   -0.668342902
55125628.000000000   -0.103770341   -0.650045070   -0.103770341   -0.650045070   -0.103770341   -0.650045070   -0.103770341   -0.650045070
55226131.000000000   -0.135020452   -0.627404860   -0.135020452   -0.627404860   -0.135020452   -0.627404860   -0.135020452   -0.627404860
55326633.000000000   -0.163842187   -0.600572535   -0.163842187   -0.600572535   -0.163842187   -0.600572535   -0.163842187   -0.600572535
55427136.000000000   -0.189517547   -0.569464028   -0.189517547   -0.569464028   -0.189517547   -0.569464028   -0.189517547   -0.569464028
55527638.000000000   -0.211526660   -0.533997050   -0.211526660   -0.533997050   -0.211526660   -0.533997050   -0.211526660   -0.533997050
55628141.000000000   -0.228753956   -0.494392787   -0.228753956   -0.494392787   -0.228753956   -0.494392787   -0.228753956   -0.494392787
55728643.000000000   -0.240215494   -0.450835050   -0.240215494   -0.450835050   -0.240215494   -0.450835050   -0.240215494   -0.450835050
55829146.000000000   -0.244727801   -0.404261049   -0.244727801   -0.404261049   -0.244727801   -0.404261049   -0.244727801   -0.404261049
55929648.000000000   -0.241101039   -0.355350120   -0.241101039   -0.355350120   -0.241101039   -0.355350120   -0.241101039   -0.355350120
56030151.000000000   -0.228223569   -0.305780484   -0.228223569   -0.305780484   -0.228223569   -0.305780484   -0.228223569   -0.305780484
56130653.000000000   -0.204773114   -0.257979287   -0.204773114   -0.257979287   -0.204773114   -0.257979287   -0.204773114   -0.257979287
56231156.000000000   -0.170943410   -0.214341909   -0.170943410   -0.214341909   -0.170943410   -0.214341909   -0.170943410   -0.214341909
56331658.000000000   -0.127159478   -0.177537989   -0.127159478   -0.177537989   -0.127159478   -0.177537989   -0.127159478   -0.177537989
56432161.000000000   -0.075367714   -0.151076310   -0.075367714   -0.151076310   -0.075367714   -0.151076310   -0.075367714   -0.151076310
56532663.000000000   -0.018254029   -0.137446576   -0.018254029   -0.137446576   -0.018254029   -0.137446576   -0.018254029   -0.137446576
56633166.000000000   0.040753031   -0.137700553   0.040753031   -0.137700553   0.040753031   -0.137700553   0.040753031   -0.137700553
56733668.000000000   0.096838404   -0.151576899   0.096838404   -0.151576899   0.096838404   -0.151576899   0.096838404   -0.151576899
56834171.000000000   0.146734682   -0.177592749   0.146734682   -0.177592749   0.146734682   -0.177592749   0.146734682   -0.177592749
56934673.000000000   0.187755496   -0.213122449   0.187755496   -0.213122449   0.187755496   -0.213122449   0.187755496   -0.213122449
57035176.000000000   0.218239028   -0.255020535   0.218239028   -0.255020535   0.218239028   -0.255020535   0.218239028   -0.255020535
57135678.000000000   0.237709206   -0.299969413   0.237709206   -0.299969413   0.237709206   -0.299969413   0.237709206   -0.299969413
57236181.000000000   0.247045854   -0.345229137   0.247045854   -0.345229137   0.247045854   -0.345229137   0.247045854   -0.345229137
57336683.000000000   0.247133729   -0.388674425   0.247133729   -0.388674425   0.247133729   -0.388674425   0.247133729   -0.388674425
57437186.000000000   0.239432689   -0.428786208   0.239432689   -0.428786208   0.239432689   -0.428786208   0.239432689   -0.428786208
57537688.000000000   0.225684128   -0.464611614   0.225684128   -0.464611614   0.225684128   -0.464611614   0.225684128   -0.464611614
57638191.000000000   0.207144566   -0.495576045   0.207144566   -0.495576045   0.207144566   -0.495576045   0.207144566   -0.495576045
57738693.000000000   0.184808063   -0.521695541   0.184808063   -0.521695541   0.184808063   -0.521695541   0.184808063   -0.521695541
57839196.000000000   0.160135329   -0.542742777   0.160135329   -0.542742777   0.160135329   -0.542742777   0.160135329   -0.542742777
57939698.000000000   0.133885904   -0.558956008   0.133885904   -0.558956008   0.133885904   -0.558956008   0.133885904   -0.558956008
58040201.000000000   0.106614753   -0.570674649   0.106614753   -0.570674649   0.106614753   -0.570674649   0.106614753   -0.570674649
58140704.000000000   0.078889119   -0.577996600   0.078889119   -0.577996600   0.078889119   -0.577996600   0.078889119   -0.577996600
58241206.000000000   0.051498299   -0.581344467   0.051498299   -0.581344467   0.051498299   -0.581344467   0.051498299   -0.581344467
58341709.000000000   0.024593838   -0.580715856   0.024593838   -0.580715856   0.024593838   -0.580715856   0.024593838   -0.580715856
58442211.000000000   -0.001330346   -0.576485170   -0.001330346   -0.576485170   -0.001330346   -0.576485170   -0.001330346   -0.576485170
58542714.000000000   -0.026041976   -0.568953631   -0.026041976   -0.568953631   -0.026041976   -0.568953631   -0.026041976   -0.568953631
58643216.000000000   -0.049090649   -0.558258551   -0.049090649   -0.558258551   -0.049090649   -0.558258551   -0.049090649   -0.558258551
58743719.000000000   -0.070170451   -0.544485654   -0.070170451   -0.544485654   -0.070170451   -0.544485654   -0.070170451   -0.544485654
58844221.000000000   -0.089044751   -0.528090984   -0.089044751   -0.528090984   -0.089044751   -0.528090984   -0.089044751   -0.528090984
58944724.000000000   -0.105142706   -0.509330586   -0.105142706   -0.509330586   -0.105142706   -0.509330586   -0.105142706   -0.509330586
59045226.000000000   -0.118290641   -0.488452750   -0.118290641   -0.488452750   -0.118290641   -0.488452750   -0.118290641   -0.488452750
59145729.000000000   -0.128133714   -0.465915003   -0.128133714   -0.465915003   -0.128133714   -0.465915003   -0.128133714   -0.465915003
59246231.000000000   -0.134614668   -0.442073352   -0.134614668   -0.442073352   -0.134614668   -0.442073352   -0.134614668   -0.442073352
59346734.000000000   -0.136806866   -0.417674396   -0.136806866   -0.417674396   -0.136806866   -0.417674396   -0.136806866   -0.417674396
59447236.000000000   -0.135166508   -0.393119588   -0.135166508   -0.393119588   -0.135166508   -0.393119588   -0.135166508   -0.393119588
59547739.000000000   -0.129419268   -0.369335164   -0.129419268   -0.369335164   -0.129419268   -0.369335164   -0.129419268   -0.369335164
59648241.000000000   -0.119319120   -0.346966423   -0.119319120   -0.346966423   -0.119319120   -0.346966423   -0.119319120   -0.346966423
59748744.000000000   -0.105638222   -0.327138149   -0.105638222   -0.327138149   -0.105638222   -0.327138149   -0.105638222   -0.327138149
59849246.000000000   -0.088497833   -0.310165707   -0.088497833   -0.310165707   -0.088497833   -0.310165707   -0.088497833   -0.310165707
59949749.000000000   -0.068756448   -0.297208510   -0.068756448   -0.297208510   -0.068756448   -0.297208510   -0.068756448   -0.297208510
60050251.000000000   -0.047263513   -0.288490235   -0.047263513   -0.288490235   -0.047263513   -0.288490235   -0.047263513   -0.288490235
60150754.000000000   -0.025023825   -0.284539792   -0.025023825   -0.284539792   -0.025023825   -0.284539792   -0.025023825   -0.284539792
60251256.000000000   -0.003067759   -0.285033244   -0.003067759   -0.285033244   -0.003067759   -0.285033244   -0.003067759   -0.285033244
60351759.000000000   0.017460259   -0.289767594   0.017460259   -0.289767594   0.017460259   -0.289767594   0.017460259   -0.289767594
60452261.000000000   0.035969155   -0.298532792   0.035969155   -0.298532792   0.035969155   -0.298532792   0.035969155   -0.298532792
60552764.000000000   0.051535617   -0.310483239   0.051535617   -0.310483239   0.051535617   -0.310483239   0.051535617   -0.310483239
60653266.000000000   0.063685114   -0.324518223   0.063685114   -0.324518223   0.063685114   -0.324518223   0.063685114   -0.324518223
60753769.000000000   0.072518639   -0.340137732   0.072518639   -0.340137732   0.072518639   -0.340137732   0.072518639   -0.340137732
60854271.000000000   0.077644371   -0.356241984   0.077644371   -0.356241984   0.077644371   -0.356241984   0.077644371   -0.356241984
60954774.000000000   0.079489025   -0.372296852   0.079489025   -0.372296852   0.079489025   -0.372296852   0.079489025   -0.372296852
61055276.000000000   0.078298059   -0.387658613   0.078298059   -0.387658613   0.078298059   -0.387658613   0.078298059   -0.387658613
61155779.000000000   0.074521575   -0.401970725   0.074521575   -0.401970725   0.074521575   -0.401970725   0.074521575   -0.401970725
61256281.000000000   0.068130193   -0.414610397   0.068130193   -0.414610397   0.068130193   -0.414610397   0.068130193   -0.414610397
61356784.000000000   0.059928893   -0.425422994   0.059928893   -0.425422994   0.059928893   -0.425422994   0.059928893   -0.425422994
61457286.000000000   0.050521882   -0.434396161   0.050521882   -0.434396161   0.050521882   -0.434396161   0.050521882   -0.434396161
61557789.000000000   0.040022913   -0.441333525   0.040022913   -0.441333525   0.040022913   -0.441333525   0.040022913   -0.441333525
61658291.000000000   0.028947641   -0.445905167   0.028947641   -0.445905167   0.028947641   -0.445905167   0.028947641   -0.445905167
61758794.000000000   0.017439527   -0.448653233   0.017439527   -0.448653233   0.017439527   -0.448653233   0.017439527   -0.448653233
61859296.000000000   0.006313227   -0.449307959   0.006313227   -0.449307959   0.006313227   -0.449307959   0.006313227   -0.449307959
61959799.000000000   -0.004591670   -0.448196498   -0.004591670   -0.448196498   -0.004591670   -0.448196498   -0.004591670   -0.448196498
62060302.000000000   -0.014854882   -0.445360652   -0.014854882   -0.445360652   -0.014854882   -0.445360652   -0.014854882   -0.445360652
62160804.000000000   -0.024238254   -0.441141011   -0.024238254   -0.441141011   -0.024238254   -0.441141011   -0.024238254   -0.441141011
62261307.000000000   -0.032503309   -0.435613969   -0.032503309   -0.435613969   -0.032503309   -0.435613969   -0.032503309   -0.435613969
62361809.000000000   -0.039692775   -0.429098296   -0.039692775   -0.429098296   -0.039692775   -0.429098296   -0.039692775   -0.429098296
62462312.000000000   -0.045473401   -0.421598324   -0.045473401   -0.421598324   -0.045473401   -0.421598324   -0.045473401   -0.421598324
62562814.000000000   -0.049792740   -0.413716283   -0.049792740   -0.413716283   -0.049792740   -0.413716283   -0.049792740   -0.413716283
62663317.000000000   -0.052474144   -0.405496094   -0.052474144   -0.405496094   -0.052474144   -0.405496094   -0.052474144   -0.405496094
62763819.000000000   -0.053835125   -0.397098508   -0.053835125   -0.397098508   -0.053835125   -0.397098508   -0.053835125   -0.397098508
62864322.000000000   -0.053695506   -0.389243079   -0.053695506   -0.389243079   -0.053695506   -0.389243079   -0.053695506   -0.389243079
62964824.000000000   -0.052472248   -0.381912520   -0.052472248   -0.381912520   -0.052472248   -0.381912520   -0.052472248   -0.381912520
63065327.000000000   -0.049840461   -0.375288598   -0.049840461   -0.375288598   -0.049840461   -0.375288598   -0.049840461   -0.375288598
63165829.000000000   -0.046351419   -0.369640804   -0.046351419   -0.369640804   -0.046351419   -0.369640804   -0.046351419   -0.369640804
63266332.000000000   -0.042137840   -0.365031178   -0.042137840   -0.365031178   -0.042137840   -0.365031178   -0.042137840   -0.365031178
63366834.000000000   -0.037642959   -0.361737421   -0.037642959   -0.361737421   -0.037642959   -0.361737421   -0.037642959   -0.361737421
63467337.000000000   -0.032849919   -0.359445157   -0.032849919   -0.359445157   -0.032849919   -0.359445157   -0.032849919   -0.359445157
63567839.000000000   -0.028157266   -0.358369881   -0.028157266   -0.358369881   -0.028157266   -0.358369881   -0.028157266   -0.358369881
63668342.000000000   -0.023614231   -0.358512504   -0.023614231   -0.358512504   -0.023614231   -0.358512504   -0.023614231   -0.358512504
63768844.000000000   -0.019647675   -0.359359713   -0.019647675   -0.359359713   -0.019647675   -0.359359713   -0.019647675   -0.359359713
63869347.000000000   -0.016312093   -0.361224764   -0.016312093   -0.361224764   -0.016312093   -0.361224764   -0.016312093   -0.361224764
63969849.000000000   -0.013767141   -0.363778553   -0.013767141   -0.363778553   -0.013767141   -0.363778553   -0.013767141   -0.363778553
64070352.000000000   -0.012139318   -0.366698267   -0.012139318   -0.366698267   -0.012139318   -0.366698267   -0.012139318   -0.366698267
64170854.000000000   -0.011596982   -0.369790138   -0.011596982   -0.369790138   -0.011596982   -0.369790138   -0.011596982   -0.369790138
64271357.000000000   -0.011902788   -0.372774736   -0.011902788   -0.372774736   -0.011902788   -0.372774736   -0.011902788   -0.372774736
64371859.000000000   -0.013248105   -0.375950471   -0.013248105   -0.375950471   -0.013248105   -0.375950471   -0.013248105   -0.375950471
64472362.000000000   -0.015237368   -0.378858650   -0.015237368   -0.378858650   -0.015237368   -0.378858650   -0.015237368   -0.378858650
64572864.000000000   -0.018243138   -0.381037810   -0.018243138   -0.381037810   -0.018243138   -0.381037810   -0.018243138   -0.381037810
64673367.000000000   -0.021831992   -0.382611820   -0.021831992   -0.382611820   -0.021831992   -0.382611820   -0.021831992   -0.382611820
64773869.000000000   -0.025966600   -0.383236228   -0.025966600   -0.383236228   -0.025966600   -0.383236228   -0.025966600   -0.383236228
64874372.000000000   -0.030374225   -0.383091079   -0.030374225   -0.383091079   -0.030374225   -0.383091079   -0.030374225   -0.383091079
64974874.000000000   -0.034874320   -0.381960827   -0.034874320   -0.381960827   -0.034874320   -0.381960827   -0.034874320   -0.381960827
65075377.000000000   -0.039411495   -0.379887776   -0.039411495   -0.379887776   -0.039411495   -0.379887776   -0.039411495   -0.379887776
65175879.000000000   -0.043726483   -0.376744764   -0.043726483   -0.376744764   -0.043726483   -0.376744764   -0.043726483   -0.376744764
65276382.000000000   -0.047369971   -0.372603359   -0.047369971   -0.372603359   -0.047369971   -0.372603359   -0.047369971   -0.372603359
65376884.000000000   -0.050489211   -0.367655555   -0.050489211   -0.367655555   -0.050489211   -0.367655555   -0.050489211   -0.367655555
65477387.000000000   -0.052862684   -0.361936253   -0.052862684   -0.361936253   -0.052862684   -0.361936253   -0.052862684   -0.361936253
65577889.000000000   -0.054094438   -0.355542507   -0.054094438   -0.355542507   -0.054094438   -0.355542507   -0.054094438   -0.355542507
65678392.000000000   -0.054019969   -0.348864610   -0.054019969   -0.348864610   -0.054019969   -0.348864610   -0.054019969   -0.348864610
65778894.000000000   -0.052769023   -0.341907953   -0.052769023   -0.341907953   -0.052769023   -0.341907953   -0.052769023   -0.341907953
65879397.000000000   -0.050134361   -0.335014783   -0.050134361   -0.335014783   -0.050134361   -0.335014783   -0.050134361   -0.335014783
65979899.000000000   -0.046131484   -0.328541544   -0.046131484   -0.328541544   -0.046131484   -0.328541544   -0.046131484   -0.328541544
66080402.000000000   -0.040855094   -0.322668233   -0.040855094   -0.322668233   -0.040855094   -0.322668233   -0.040855094   -0.322668233
66180905.000000000   -0.034192411   -0.317877220   -0.034192411   -0.317877220   -0.034192411   -0.317877220   -0.034192411   -0.317877220
66281407.000000000   -0.026381674   -0.314361176   -0.026381674   -0.314361176   -0.026381674   -0.314361176   -0.026381674   -0.314361176
66381910.000000000   -0.017786891   -0.312100781   -0.017786891   -0.312100781   -0.017786891   -0.312100781   -0.017786891   -0.312100781
66482412.000000000   -0.008474863   -0.311665496   -0.008474863   -0.311665496   -0.008474863   -0.311665496   -0.008474863   -0.311665496
66582915.000000000   0.001150708   -0.313207352   0.001150708   -0.313207352   0.001150708   -0.313207352   0.001150708   -0.313207352
66683417.000000000   0.010643965   -0.316957525   0.010643965   -0.316957525   0.010643965   -0.316957525   0.010643965   -0.316957525
66783920.000000000   0.019608255   -0.322468924   0.019608255   -0.322468924   0.019608255   -0.322468924   0.019608255   -0.322468924
66884422.000000000   0.027478927   -0.330213623   0.027478927   -0.330213623   0.027478927   -0.330213623   0.027478927   -0.330213623
66984925.000000000   0.034133577   -0.339770877   0.034133577   -0.339770877   0.034133577   -0.339770877   0.034133577   -0.339770877
67085427.000000000   0.038697197   -0.350877415   0.038697197   -0.350877415   0.038697197   -0.350877415   0.038697197   -0.350877415
67185930.000000000   0.041227461   -0.363202449   0.041227461   -0.363202449   0.041227461   -0.363202449   0.041227461   -0.363202449
67286432.000000000   0.041447956   -0.376080086   0.041447956   -0.376080086   0.041447956   -0.376080086   0.041447956   -0.376080086
67386935.000000000   0.039038022   -0.389270408   0.039038022   -0.389270408   0.039038022   -0.389270408   0.039038022   -0.389270408
67487437.000000000   0.034085380   -0.402282350   0.034085380   -0.402282350   0.034085380   -0.402282350   0.034085380   -0.402282350
67587940.000000000   0.026654358   -0.414428417   0.026654358   -0.414428417   0.026654358   -0.414428417   0.026654358   -0.414428417
67688442.000000000   0.016752265   -0.425510563   0.016752265   -0.425510563   0.016752265   -0.425510563   0.016752265   -0.425510563
67788945.000000000   0.005080290   -0.435153842   0.005080290   -0.435153842   0.005080290   -0.435153842   0.005080290   -0.435153842
67889447.000000000   -0.008665307   -0.442553139   -0.008665307   -0.442553139   -0.008665307   -0.442553139   -0.008665307   -0.442553139
67989950.000000000   -0.023934470   -0.447985530   -0.023934470   -0.447985530   -0.023934470   -0.447985530   -0.023934470   -0.447985530
68090452.000000000   -0.040177462   -0.450947270   -0.040177462   -0.450947270   -0.040177462   -0.450947270   -0.040177462   -0.450947270
68190955.000000000   -0.057249151   -0.451327575   -0.057249151   -0.451327575   -0.057249151   -0.451327575   -0.057249151   -0.451327575
68291457.000000000   -0.074749540   -0.449148052   -0.074749540   -0.449148052   -0.074749540   -0.449148052   -0.074749540   -0.449148052
68391960.000000000   -0.092328222   -0.444093223   -0.092328222   -0.444093223   -0.092328222   -0.444093223   -0.092328222   -0.444093223
68492462.000000000   -0.109518530   -0.436350397   -0.109518530   -0.436350397   -0.109518530   -0.436350397   -0.109518530   -0.436350397
68592965.000000000   -0.125824612   -0.425479179   -0.125824612   -0.425479179   -0.125824612   -0.425479179   -0.125824612   -0.425479179
68693467.000000000   -0.140888899   -0.411669090   -0.140888899   -0.411669090   -0.140888899   -0.411669090   -0.140888899   -0.411669090
68793970.000000000   -0.154044554   -0.395231189   -0.154044554   -0.395231189   -0.154044554   -0.395231189   -0.154044554   -0.395231189
68894472.000000000   -0.165135823   -0.376232980   -0.165135823   -0.376232980   -0.165135823   -0.376232980   -0.165135823   -0.376232980
68994975.000000000   -0.173419212   -0.354650704   -0.173419212   -0.354650704   -0.173419212   -0.354650704   -0.173419212   -0.354650704
69095477.000000000   -0.178390247   -0.331117599   -0.178390247   -0.331117599   -0.178390247   -0.331117599   -0.178390247   -0.331117599
69195980.000000000   -0.179427153   -0.305932983   -0.179427153   -0.305932983   -0.179427153   -0.305932983   -0.179427153   -0.305932983
69296482.000000000   -0.176290893   -0.279771254   -0.176290893   -0.279771254   -0.176290893   -0.279771254   -0.176290893   -0.279771254
69396985.000000000   -0.168122441   -0.253266745   -0.168122441   -0.253266745   -0.168122441   -0.253266745   -0.168122441   -0.253266745
69497487.000000000   -0.154935579   -0.227227210   -0.154935579   -0.227227210   -0.154935579   -0.227227210   -0.154935579   -0.227227210
69597990.000000000   -0.136238844   -0.203093080   -0.136238844   -0.203093080   -0.136238844   -0.203093080   -0.136238844   -0.203093080
69698492.000000000   -0.112294308   -0.181557665   -0.112294308   -0.181557665   -0.112294308   -0.181557665   -0.112294308   -0.181557665
69798995.000000000   -0.083307950   -0.164765323   -0.083307950   -0.164765323   -0.083307950   -0.164765323   -0.083307950   -0.164765323
69899497.000000000   -0.050362956   -0.153423576   -0.050362956   -0.153423576   -0.050362956   -0.153423576   -0.050362956   -0.153423576
70000000.000000000   -0.014142903   -0.148869996   -0.014142903   -0.148869996   -0.014142903   -0.148869996   -0.014142903   -0.148869996
70100503.000000000   0.023572950   -0.152308936   0.023572950   -0.152308936   0.023572950   -0.152308936   0.023572950   -0.152308936
70201005.000000000   0.060526867   -0.164042262   0.060526867   -0.164042262   0.060526867   -0.164042262   0.060526867   -0.164042262
70301508.000000000   0.095294232   -0.183919462   0.095294232   -0.183919462   0.095294232   -0.183919462   0.095294232   -0.183919462
70402010.000000000   0.124881091   -0.211349294   0.124881091   -0.211349294   0.124881091   -0.211349294   0.124881091   -0.211349294
70502513.000000000   0.147991716   -0.245013381   0.147991716   -0.245013381   0.147991716   -0.245013381   0.147991716   -0.245013381
70603015.000000000   0.163595071   -0.283049230   0.163595071   -0.283049230   0.163595071   -0.283049230   0.163595071   -0.283049230
70703518.000000000   0.170628090   -0.323218258   0.170628090   -0.323218258   0.170628090   -0.323218258   0.170628090   -0.323218258
70804020.000000000   0.168938081   -0.363404871   0.168938081   -0.363404871   0.168938081   -0.363404871   0.168938081   -0.363404871
70904523.000000000   0.159468859   -0.401983576   0.159468859   -0.401983576   0.159468859   -0.401983576   0.159468859   -0.401983576
71005025.000000000   0.143044481   -0.437157047   0.143044481   -0.437157047   0.143044481   -0.437157047   0.143044481   -0.437157047
71105528.000000000   0.120595305   -0.468075882   0.120595305   -0.468075882   0.120595305   -0.468075882   0.120595305   -0.468075882
71206030.000000000   0.093676269   -0.494008905   0.093676269   -0.494008905   0.093676269   -0.494008905   0.093676269   -0.494008905
71306533.000000000   0.063405298   -0.514150529   0.063405298   -0.514150529   0.063405298   -0.514150529   0.063405298   -0.514150529
71407035.000000000   0.030800490   -0.528712817   0.030800490   -0.528712817   0.030800490   -0.528712817   0.030800490   -0.528712817
71507538.000000000   -0.003001742   -0.537551570   -0.003001742   -0.537551570   -0.003001742   -0.537551570   -0.003001742   -0.537551570
71608040.000000000   -0.037351751   -0.541069006   -0.037351751   -0.541069006   -0.037351751   -0.541069006   -0.037351751   -0.541069006
71708543.000000000   -0.071278025   -0.539482824   -0.071278025   -0.539482824   -0.071278025   -0.539482824   -0.071278025   -0.539482824
71809045.000000000   -0.104374226   -0.533001130   -0.104374226   -0.533001130   -0.104374226   -0.533001130   -0.104374226   -0.533001130
71909548.000000000   -0.135837219   -0.521861675   -0.135837219   -0.521861675   -0.135837219   -0.521861675   -0.135837219   -0.521861675
72010050.000000000   -0.165670946   -0.506363469   -0.165670946   -0.506363469   -0.165670946   -0.506363469   -0.165670946   -0.506363469
72110553.000000000   -0.193200663   -0.486774403   -0.193200663   -0.486774403   -0.193200663   -0.486774403   -0.193200663   -0.486774403
72211055.000000000   -0.217859616   -0.463550030   -0.217859616   -0.463550030   -0.217859616   -0.463550030   -0.217859616   -0.463550030
72311558.000000000   -0.239562202   -0.436945780   -0.239562202   -0.436945780   -0.239562202   -0.436945780   -0.239562202   -0.436945780
72412060.000000000   -0.257934336   -0.406778038   -0.257934336   -0.406778038   -0.257934336   -0.406778038   -0.257934336   -0.406778038
72512563.000000000   -0.272041213   -0.373618679   -0.272041213   -0.373618679   -0.272041213   -0.373618679   -0.272041213   -0.373618679
72613065.000000000   -0.281418782   -0.337728171   -0.281418782   -0.337728171   -0.281418782   -0.337728171   -0.281418782   -0.337728171
72713568.000000000   -0.285770305   -0.299637708   -0.285770305   -0.299637708   -0.285770305   -0.299637708   -0.285770305   -0.299637708
72814070.000000000   -0.284250918   -0.259911061   -0.284250918   -0.259911061   -0.284250918   -0.259911061   -0.284250918   -0.259911061
72914573.000000000   -0.276186111   -0.219213790   -0.276186111   -0.219213790   -0.276186111   -0.219213790   -0.276186111   -0.219213790
73015075.000000000   -0.260892385   -0.178697113   -0.260892385   -0.178697113   -0.260892385   -0.178697113   -0.260892385   -0.178697113
73115578.000000000   -0.238238878   -0.139969155   -0.238238878   -0.139969155   -0.238238878   -0.139969155   -0.238238878   -0.139969155
73216080.000000000   -0.207643036   -0.104411226   -0.207643036   -0.104411226   -0.207643036   -0.104411226   -0.207643036   -0.104411226
73316583.000000000   -0.169703398   -0.073346366   -0.169703398   -0.073346366   -0.169703398   -0.073346366   -0.169703398   -0.073346366
73417085.000000000   -0.124795442   -0.049389877   -0.124795442   -0.049389877   -0.124795442   -0.049389877   -0.124795442   -0.049389877
73517588.000000000   -0.074167197   -0.034331235   -0.074167197   -0.034331235   -0.074167197   -0.034331235   -0.074167197   -0.034331235
73618090.000000000   -0.019712887   -0.029580822   -0.019712887   -0.029580822   -0.019712887   -0.029580822   -0.019712887   -0.029580822
73718593.000000000   0.035791975   -0.036413239   0.035791975   -0.036413239   0.035791975   -0.036413239   0.035791975   -0.036413239
73819095.000000000   0.089525671   -0.055378091   0.089525671   -0.055378091   0.089525671   -0.055378091   0.089525671   -0.055378091
73919598.000000000   0.138243440   -0.085617812   0.138243440   -0.085617812   0.138243440   -0.085617812   0.138243440   -0.085617812
74020101.000000000   0.179789320   -0.125531536   0.179789320   -0.125531536   0.179789320   -0.125531536   0.179789320   -0.125531536
74120603.000000000   0.211651474   -0.173176450   0.211651474   -0.173176450   0.211651474   -0.173176450   0.211651474   -0.173176450
74221106.000000000   0.232432655   -0.225923277   0.232432655   -0.225923277   0.232432655   -0.225923277   0.232432655   -0.225923277
74321608.000000000   0.241628065   -0.280696854   0.241628065   -0.280696854   0.241628065   -0.280696854   0.241628065   -0.280696854
74422111.000000000   0.239865589   -0.334758181   0.239865589   -0.334758181   0.239865589   -0.334758181   0.239865589   -0.334758181
74522613.000000000   0.228063902   -0.386276526   0.228063902   -0.386276526   0.228063902   -0.386276526   0.228063902   -0.386276526
74623116.000000000   0.207765281   -0.432949457   0.207765281   -0.432949457   0.207765281   -0.432949457   0.207765281   -0.432949457
74723618.000000000   0.180049733   -0.474000589   0.180049733   -0.474000589   0.180049733   -0.474000589   0.180049733   -0.474000589
74824121.000000000   0.147109715   -0.508570034   0.147109715   -0.508570034   0.147109715   -0.508570034   0.147109715   -0.508570034
74924623.000000000   0.109953267   -0.536283001   0.109953267   -0.536283001   0.109953267   -0.536283001   0.109953267   -0.536283001
75025126.000000000   0.070016333   -0.557447144   0.070016333   -0.557447144   0.070016333   -0.557447144   0.070016333   -0.557447144
75125628.000000000   0.028559346   -0.571898869   0.028559346   -0.571898869   0.028559346   -0.571898869   0.028559346   -0.571898869
75226131.000000000   -0.013482583   -0.579786920   -0.013482583   -0.579786920   -0.013482583   -0.579786920   -0.013482583   -0.579786920
75326633.000000000   -0.055789558   -0.581835475   -0.055789558   -0.581835475   -0.055789558   -0.581835475   -0.055789558   -0.581835475
75427136.000000000   -0.097149384   -0.577922600   -0.097149384   -0.577922600   -0.097149384   -0.577922600   -0.097149384   -0.577922600
75527638.000000000   -0.137100273   -0.568633816   -0.137100273   -0.568633816   -0.137100273   -0.568633816   -0.137100273   -0.568633816
75628141.000000000   -0.175592020   -0.554178357   -0.175592020   -0.554178357   -0.175592020   -0.554178357   -0.175592020   -0.554178357
75728643.000000000   -0.211673651   -0.534707883   -0.211673651   -0.534707883   -0.211673651   -0.534707883   -0.211673651   -0.534707883
75829146.000000000   -0.245263965   -0.510456600   -0.245263965   -0.510456600   -0.245263965   -0.510456600   -0.245263965   -0.510456600
75929648.000000000   -0.275795964   -0.481775283   -0.275795964   -0.481775283   -0.275795964   -0.481775283   -0.275795964   -0.481775283
76030151.000000000   -0.302830730   -0.448952824   -0.302830730   -0.448952824   -0.302830730   -0.448952824   -0.302830730   -0.448952824
76130653.000000000   -0.325693428   -0.412027356   -0.325693428   -0.412027356   -0.325693428   -0.412027356   -0.325693428   -0.412027356
76231156.000000000   -0.343887691   -0.371344283   -0.343887691   -0.371344283   -0.343887691   -0.371344283   -0.343887691   -0.371344283
76331658.000000000   -0.356851369   -0.327084061   -0.356851369   -0.327084061   -0.356851369   -0.327084061   -0.356851369   -0.327084061
76432161.000000000   -0.363722551   -0.279668067   -0.363722551   -0.279668067   -0.363722551   -0.279668067   -0.363722551   -0.279668067
76532663.000000000   -0.363437617   -0.229836779   -0.363437617   -0.229836779   -0.363437617   -0.229836779   -0.363437617   -0.229836779
76633166.000000000   -0.355188535   -0.178182921   -0.355188535   -0.178182921   -0.355188535   -0.178182921   -0.355188535   -0.178182921
76733668.000000000   -0.337897336   -0.126354445   -0.337897336   -0.126354445   -0.337897336   -0.126354445   -0.337897336   -0.126354445
76834171.000000000   -0.311239587   -0.075612801   -0.311239587   -0.075612801   -0.311239587   -0.075612801   -0.311239587   -0.075612801
76934673.000000000   -0.274158856   -0.027899835   -0.274158856   -0.027899835   -0.274158856   -0.027899835   -0.274158856   -0.027899835
77035176.000000000   -0.226526189   0.013988414   -0.226526189   0.013988414   -0.226526189   0.013988414   -0.226526189   0.013988414
77135678.000000000   -0.169438372   0.047611202   -0.169438372   0.047611202   -0.169438372   0.047611202   -0.169438372   0.047611202
77236181.000000000   -0.103990134   0.070114116   -0.103990134   0.070114116   -0.103990134   0.070114116   -0.103990134   0.070114116
77336683.000000000   -0.032567675   0.078483674   -0.032567675   0.078483674   -0.032567675   0.078483674   -0.032567675   0.078483674
77437186.000000000   0.041043987   0.071468377   0.041043987   0.071468377   0.041043987   0.071468377   0.041043987   0.071468377
77537688.000000000   0.112481564   0.047879439   0.112481564   0.047879439   0.112481564   0.047879439   0.112481564   0.047879439
77638191.000000000   0.177685149   0.008613267   0.177685149   0.008613267   0.177685149   0.008613267   0.177685149   0.008613267
77738693.000000000   0.232309073   -0.044067864   0.232309073   -0.044067864   0.232309073   -0.044067864   0.232309073   -0.044067864
77839196.000000000   0.273556560   -0.107470611   0.273556560   -0.107470611   0.273556560   -0.107470611   0.273556560   -0.107470611
77939698.000000000   0.299735214   -0.176377766   0.299735214   -0.176377766   0.299735214   -0.176377766   0.299735214   -0.176377766
78040201.000000000   0.310219377   -0.247580048   0.310219377   -0.247580048   0.310219377   -0.247580048   0.310219377   -0.247580048
78140704.000000000   0.306124443   -0.317147480   0.306124443   -0.317147480   0.306124443   -0.317147480   0.306124443   -0.317147480
78241206.000000000   0.288970558   -0.381831195   0.288970558   -0.381831195   0.288970558   -0.381831195   0.288970558   -0.381831195
78341709.000000000   0.261149848   -0.439703489   0.261149848   -0.439703489   0.261149848   -0.439703489   0.261149848   -0.439703489
78442211.000000000   0.224848752   -0.489363737   0.224848752   -0.489363737   0.224848752   -0.489363737   0.224848752   -0.489363737
78542714.000000000   0.182539588   -0.530342982   0.182539588   -0.530342982   0.182539588   -0.530342982   0.182539588   -0.530342982
78643216.000000000   0.135842233   -0.562397271   0.135842233   -0.562397271   0.135842233   -0.562397271   0.135842233   -0.562397271
78743719.000000000   0.086943722   -0.585881544   0.086943722   -0.585881544   0.086943722   -0.585881544   0.086943722   -0.585881544
78844221.000000000   0.036677549   -0.601093353   0.036677549   -0.601093353   0.036677549   -0.601093353   0.036677549   -0.601093353
78944724.000000000   -0.013616480   -0.608895585   -0.013616480   -0.608895585   -0.013616480   -0.608895585   -0.013616480   -0.608895585
79045226.000000000   -0.063143225   -0.609394414   -0.063143225   -0.609394414   -0.063143225   -0.609394414   -0.063143225   -0.609394414
79145729.000000000   -0.111030600   -0.603311840   -0.111030600   -0.603311840   -0.111030600   -0.603311840   -0.111030600   -0.603311840
79246231.000000000   -0.157265833   -0.591283114   -0.157265833   -0.591283114   -0.157265833   -0.591283114   -0.157265833   -0.591283114
79346734.000000000   -0.200752453   -0.573395596   -0.200752453   -0.573395596   -0.200752453   -0.573395596   -0.200752453   -0.573395596
79447236.000000000   -0.241445415   -0.550496841   -0.241445415   -0.550496841   -0.241445415   -0.550496841   -0.241445415   -0.550496841
79547739.000000000   -0.279060553   -0.522439205   -0.279060553   -0.522439205   -0.279060553   -0.522439205   -0.279060553   -0.522439205
79648241.000000000   -0.312768588   -0.489620017   -0.312768588   -0.489620017   -0.312768588   -0.489620017   -0.312768588   -0.489620017
79748744.000000000   -0.342891470   -0.452326868   -0.342891470   -0.452326868   -0.342891470   -0.452326868   -0.342891470   -0.452326868
79849246.000000000   -0.368171948   -0.410790140   -0.368171948   -0.410790140   -0.368171948   -0.410790140   -0.368171948   -0.410790140
79949749.000000000   -0.388257367   -0.365294690   -0.388257367   -0.365294690   -0.388257367   -0.365294690   -0.388257367   -0.365294690
80050251.000000000   -0.402608451   -0.316478243   -0.402608451   -0.316478243   -0.402608451   -0.316478243   -0.402608451   -0.316478243
80150754.000000000   -0.410397246   -0.264377339   -0.410397246   -0.264377339   -0.410397246   -0.264377339   -0.410397246   -0.264377339
80251256.000000000   -0.410896882   -0.209507987   -0.410896882   -0.209507987   -0.410896882   -0.209507987   -0.410896882   -0.209507987
80351759.000000000   -0.402804618   -0.152855012   -0.402804618   -0.152855012   -0.402804618   -0.152855012   -0.402804618   -0.152855012
80452261.000000000   -0.385439964   -0.095617746   -0.385439964   -0.095617746   -0.385439964   -0.095617746   -0.385439964   -0.095617746
80552764.000000000   -0.357816524   -0.039189382   -0.357816524   -0.039189382   -0.357816524   -0.039189382   -0.357816524   -0.039189382
80653266.000000000   -0.318931462   0.014486794   -0.318931462   0.014486794   -0.318931462   0.014486794   -0.318931462   0.014486794
80753769.000000000   -0.269103216   0.062530931   -0.269103216   0.062530931   -0.269103216   0.062530931   -0.269103216   0.062530931
80854271.000000000   -0.208254755   0.102729149   -0.208254755   0.102729149   -0.208254755   0.102729149   -0.208254755   0.102729149
80954774.000000000   -0.137600528   0.131357962   -0.137600528   0.131357962   -0.137600528   0.131357962   -0.137600528   0.131357962
81055276.000000000   -0.059636639   0.145387208   -0.059636639   0.145387208   -0.059636639   0.145387208   -0.059636639   0.145387208
81155779.000000000   0.022327403   0.142938622   0.022327403   0.142938622   0.022327403   0.142938622   0.022327403   0.142938622
81256281.000000000   0.103471300   0.122228397   0.103471300   0.122228397   0.103471300   0.122228397   0.103471300   0.122228397
81356784.000000000   0.179460306   0.083447630   0.179460306   0.083447630   0.179460306   0.083447630   0.179460306   0.083447630
81457286.000000000   0.245376404   0.028507624   0.245376404   0.028507624   0.245376404   0.028507624   0.245376404   0.028507624
81557789.000000000   0.296463058   -0.039110295   0.296463058   -0.039110295   0.296463058   -0.039110295   0.296463058   -0.039110295
81658291.000000000   0.331552653   -0.115345993   0.331552653   -0.115345993   0.331552653   -0.115345993   0.331552653   -0.115345993
81758794.000000000   0.348607277   -0.195207596   0.348607277   -0.195207596   0.348607277   -0.195207596   0.348607277   -0.195207596
81859296.000000000   0.348736311   -0.274335315   0.348736311   -0.274335315   0.348736311   -0.274335315   0.348736311   -0.274335315
81959799.000000000   0.333686344   -0.348784238   0.333686344   -0.348784238   0.333686344   -0.348784238   0.333686344   -0.348784238
82060302.000000000   0.305917864   -0.416063868   0.305917864   -0.416063868   0.305917864   -0.416063868   0.305917864   -0.416063868
82160804.000000000   0.267674320   -0.474372589   0.267674320   -0.474372589   0.267674320   -0.474372589   0.267674320   -0.474372589
82261307.000000000   0.222182191   -0.522851643   0.222182191   -0.522851643   0.222182191   -0.522851643   0.222182191   -0.522851643
82361809.000000000   0.171581779   -0.561240766   0.171581779   -0.561240766   0.171581779   -0.561240766   0.171581779   -0.561240766
82462312.000000000   0.117731012   -0.589839581   0.117731012   -0.589839581   0.117731012   -0.589839581   0.117731012   -0.589839581
82562814.000000000   0.062447289   -0.609011833   0.062447289   -0.609011833   0.062447289   -0.609011833   0.062447289   -0.609011833
82663317.000000000   0.007172522   -0.619635757   0.007172522   -0.619635757   0.007172522   -0.619635757   0.007172522   -0.619635757
82763819.000000000   -0.047380302   -0.622256427   -0.047380302   -0.622256427   -0.047380302   -0.622256427   -0.047380302   -0.622256427
82864322.000000000   -0.100311487   -0.617651422   -0.100311487   -0.617651422   -0.100311487   -0.617651422   -0.100311487   -0.617651422
82964824.000000000   -0.150966604   -0.606111915   -0.150966604   -0.606111915   -0.150966604   -0.606111915   -0.150966604   -0.606111915
83065327.000000000   -0.198905565   -0.588681327   -0.198905565   -0.588681327   -0.198905565   -0.588681327   -0.198905565   -0.588681327
83165829.000000000   -0.243721647   -0.565378698   -0.243721647   -0.565378698   -0.243721647   -0.565378698   -0.243721647   -0.565378698
83266332.000000000   -0.284983175   -0.537013577   -0.284983175   -0.537013577   -0.284983175   -0.537013577   -0.284983175   -0.537013577
83366834.000000000   -0.322536344   -0.503470020   -0.322536344   -0.503470020   -0.322536344   -0.503470020   -0.322536344   -0.503470020
83467337.000000000   -0.355747368   -0.465524234   -0.355747368   -0.465524234   -0.355747368   -0.465524234   -0.355747368   -0.465524234
83567839.000000000   -0.384228935   -0.422939842   -0.384228935   -0.422939842   -0.384228935   -0.422939842   -0.384228935   -0.422939842
83668342.000000000   -0.407626451   -0.376351943   -0.407626451   -0.376351943   -0.407626451   -0.376351943   -0.407626451   -0.376351943
83768844.000000000   -0.425122104   -0.325919681   -0.425122104   -0.325919681   -0.425122104   -0.325919681   -0.425122104   -0.325919681
83869347.000000000   -0.436153879   -0.272282948   -0.436153879   -0.272282948   -0.436153879   -0.272282948   -0.436153879   -0.272282948
83969849.000000000   -0.439835510   -0.215777803   -0.439835510   -0.215777803   -0.439835510   -0.215777803   -0.439835510   -0.215777803
84070352.000000000   -0.435428440   -0.157160678   -0.435428440   -0.157160678   -0.435428440   -0.157160678   -0.435428440   -0.157160678
84170854.000000000   -0.421857826   -0.097272380   -0.421857826   -0.097272380   -0.421857826   -0.097272380   -0.421857826   -0.097272380
84271357.000000000   -0.398232619   -0.037362431   -0.398232619   -0.037362431   -0.398232619   -0.037362431   -0.398232619   -0.037362431
84371859.000000000   -0.363681519   0.020425507   -0.363681519   0.020425507   -0.363681519   0.020425507   -0.363681519   0.020425507
84472362.000000000   -0.317626535   0.074343025   -0.317626535   0.074343025   -0.317626535   0.074343025   -0.317626535   0.074343025
84572864.000000000   -0.259835040   0.121495716   -0.259835040   0.121495716   -0.259835040   0.121495716   -0.259835040   0.121495716
84673367.000000000   -0.191273731   0.158692712   -0.191273731   0.158692712   -0.191273731   0.158692712   -0.191273731   0.158692712
84773869.000000000   -0.113181503   0.183208357   -0.113181503   0.183208357   -0.113181503   0.183208357   -0.113181503   0.183208357
84874372.000000000   -0.028517910   0.191808051   -0.028517910   0.191808051   -0.028517910   0.191808051   -0.028517910   0.191808051
84974874.000000000   0.058684855   0.181511533   0.058684855   0.181511533   0.058684855   0.181511533   0.058684855   0.181511533
85075377.000000000   0.143691398   0.152474147   0.143691398   0.152474147   0.143691398   0.152474147   0.143691398   0.152474147
85175879.000000000   0.221422786   0.104374876   0.221422786   0.104374876   0.221422786   0.104374876   0.221422786   0.104374876
85276382.000000000   0.286949104   0.040042948   0.286949104   0.040042948   0.286949104   0.040042948   0.286949104   0.040042948
85376884.000000000   0.336044590   -0.036340134   0.336044590   -0.036340134   0.336044590   -0.036340134   0.336044590   -0.036340134
85477387.000000000   0.366780467   -0.120340324   0.366780467   -0.120340324   0.366780467   -0.120340324   0.366780467   -0.120340324
85577889.000000000   0.378283829   -0.206814493   0.378283829   -0.206814493   0.378283829   -0.206814493   0.378283829   -0.206814493
85678392.000000000   0.372033365   -0.291183132   0.372033365   -0.291183132   0.372033365   -0.291183132   0.372033365   -0.291183132
85778894.000000000   0.350156002   -0.369055929   0.350156002   -0.369055929   0.350156002   -0.369055929   0.350156002   -0.369055929
85879397.000000000   0.315216386   -0.438535470   0.315216386   -0.438535470   0.315216386   -0.438535470   0.315216386   -0.438535470
85979899.000000000   0.270079495   -0.497572983   0.270079495   -0.497572983   0.270079495   -0.497572983   0.270079495   -0.497572983
86080402.000000000   0.218185572   -0.545595443   0.218185572   -0.545595443   0.218185572   -0.545595443   0.218185572   -0.545595443
86180905.000000000   0.161413275   -0.582652333   0.161413275   -0.582652333   0.161413275   -0.582652333   0.161413275   -0.582652333
86281407.000000000   0.102234102   -0.609103668   0.102234102   -0.609103668   0.102234102   -0.609103668   0.102234102   -0.609103668
86381910.000000000   0.042249514   -0.625875307   0.042249514   -0.625875307   0.042249514   -0.625875307   0.042249514   -0.625875307
86482412.000000000   -0.017386159   -0.633344219   -0.017386159   -0.633344219   -0.017386159   -0.633344219   -0.017386159   -0.633344219
86582915.000000000   -0.075677791   -0.632411551   -0.075677791   -0.632411551   -0.075677791   -0.632411551   -0.075677791   -0.632411551
86683417.000000000   -0.131439328   -0.624072362   -0.131439328   -0.624072362   -0.131439328   -0.624072362   -0.131439328   -0.624072362
86783920.000000000   -0.184574794   -0.608423683   -0.184574794   -0.608423683   -0.184574794   -0.608423683   -0.184574794   -0.608423683
86884422.000000000   -0.234580704   -0.586877798   -0.234580704   -0.586877798   -0.234580704   -0.586877798   -0.234580704   -0.586877798
86984925.000000000   -0.280557154   -0.559309319   -0.280557154   -0.559309319   -0.280557154   -0.559309319   -0.280557154   -0.559309319
87085427.000000000   -0.322793400   -0.526613650   -0.322793400   -0.526613650   -0.322793400   -0.526613650   -0.322793400   -0.526613650
87185930.000000000   -0.360723422   -0.488800040   -0.360723422   -0.488800040   -0.360723422   -0.488800040   -0.360723422   -0.488800040
87286432.000000000   -0.393627986   -0.446488436   -0.393627986   -0.446488436   -0.393627986   -0.446488436   -0.393627986   -0.446488436
87386935.000000000   -0.421537821   -0.399801140   -0.421537821   -0.399801140   -0.421537821   -0.399801140   -0.421537821   -0.399801140
87487437.000000000   -0.443667375   -0.349020711   -0.443667375   -0.349020711   -0.443667375   -0.349020711   -0.443667375   -0.349020711
87587940.000000000   -0.459544603   -0.294349485   -0.459544603   -0.294349485   -0.459544603   -0.294349485   -0.459544603   -0.294349485
87688442.000000000   -0.468371251   -0.236556248   -0.468371251   -0.236556248   -0.468371251   -0.236556248   -0.468371251   -0.236556248
87788945.000000000   -0.469168568   -0.176401484   -0.469168568   -0.176401484   -0.469168568   -0.176401484   -0.469168568   -0.176401484
87889447.000000000   -0.461325594   -0.114182754   -0.461325594   -0.114182754   -0.461325594   -0.114182754   -0.461325594   -0.114182754
87989950.000000000   -0.443896186   -0.051204151   -0.443896186   -0.051204151   -0.443896186   -0.051204151   -0.443896186   -0.051204151
88090452.000000000   -0.415549324   0.011255483   -0.415549324   0.011255483   -0.415549324   0.011255483   -0.415549324   0.011255483
88190955.000000000   -0.376108048   0.071235288   -0.376108048   0.071235288   -0.376108048   0.071235288   -0.376108048   0.071235288
88291457.000000000   -0.324251919   0.126396343   -0.324251919   0.126396343   -0.324251919   0.126396343   -0.324251919   0.126396343
88391960.000000000   -0.260284314   0.174033939   -0.260284314   0.174033939   -0.260284314   0.174033939   -0.260284314   0.174033939
88492462.000000000   -0.185073691   0.210745060   -0.185073691   0.210745060   -0.185073691   0.210745060   -0.185073691   0.210745060
88592965.000000000   -0.099937882   0.232961282   -0.099937882   0.232961282   -0.099937882   0.232961282   -0.099937882   0.232961282
88693467.000000000   -0.009156291   0.237782797   -0.009156291   0.237782797   -0.009156291   0.237782797   -0.009156291   0.237782797
88793970.000000000   0.083966573   0.222601437   0.083966573   0.222601437   0.083966573   0.222601437   0.083966573   0.222601437
88894472.000000000   0.173756688   0.186781422   0.173756688   0.186781422   0.173756688   0.186781422   0.173756688   0.186781422
88994975.000000000   0.254622344   0.131301472   0.254622344   0.131301472   0.254622344   0.131301472   0.254622344   0.131301472
89095477.000000000   0.321143502   0.058798321   0.321143502   0.058798321   0.321143502   0.058798321   0.321143502   0.058798321
89195980.000000000   0.369820911   -0.026066969   0.369820911   -0.026066969   0.369820911   -0.026066969   0.369820911   -0.026066969
89296482.000000000   0.397418586   -0.117641920   0.397418586   -0.117641920   0.397418586   -0.117641920   0.397418586   -0.117641920
89396985.000000000   0.404641424   -0.211040718   0.404641424   -0.211040718   0.404641424   -0.211040718   0.404641424   -0.211040718
89497487.000000000   0.393101998   -0.300118960   0.393101998   -0.300118960   0.393101998   -0.300118960   0.393101998   -0.300118960
89597990.000000000   0.364798337   -0.381978376   0.364798337   -0.381978376   0.364798337   -0.381978376   0.364798337   -0.381978376
89698492.000000000   0.323348307   -0.453316466   0.323348307   -0.453316466   0.323348307   -0.453316466   0.323348307   -0.453316466
89798995.000000000   0.272197875   -0.513058654   0.272197875   -0.513058654   0.272197875   -0.513058654   0.272197875   -0.513058654
89899497.000000000   0.214108480   -0.560549073   0.214108480   -0.560549073   0.214108480   -0.560549073   0.214108480   -0.560549073
90000000.000000000   0.152258347   -0.596173860   0.152258347   -0.596173860   0.152258347   -0.596173860   0.152258347   -0.596173860
