! 12-May-26 12:26:26 PM
! E:\REC_VNA_20260512\T1T1E1_LOAD.S2P
! CHANNEL.1
! TR.MEASUREMENT
! CORRECTED.DATA
# GHZ S RI R 50.0
! FREQ.GHZ         S11RE         S11IM         S21RE         S21IM         S12RE         S12IM         S22RE         S22IM         
!; PortSelection: Port_12
   0.000050000     0.0072401    0.3351233    -0.1778812    0.4339678    -0.0038330   -0.0008410    -0.0412603    0.0211292 
   0.000150025    -0.1528883   -0.1189247     3.4149490    0.4960972    -0.0004872    0.0020368     0.0007367    0.0000702 
   0.000250050    -0.0341737   -0.1771626    -0.2515469   -0.3945854    -0.0006955   -0.0008792     0.0000885   -0.0038685 
   0.000350075     0.9758428    0.0139845    -0.0020104   -0.0047645     0.0006805   -0.0006481    -0.0002762    0.0005679 
   0.000450100     0.9981733   -0.0309134    -0.0024422   -0.0120291    -0.0001693    0.0007602    -0.0003931   -0.0010350 
   0.000550125     0.9878930   -0.0249992    -0.0042075   -0.0083996    -0.0004725   -0.0002893     0.0016743    0.0001003 
   0.000650150     1.0018680   -0.0136214    -0.0040641   -0.0112279    -0.0004340    0.0010957     0.0025723   -0.0018648 
   0.000750175     0.9557515   -0.0159980    -0.0070184   -0.0087684    -0.0001823    0.0010405     0.0009758    0.0005015 
   0.000850200     0.9249552   -0.0751169    -0.0046515   -0.0102618    -0.0005495    0.0008628     0.0006801    0.0003399 
   0.000950225     0.9983354   -0.0059336    -0.0119957   -0.0110922    -0.0001987   -0.0006240     0.0011114    0.0010669 
   0.001050250     1.0076470   -0.1060720    -0.0124301   -0.0015778     0.0005991   -0.0001009     0.0012143    0.0004142 
   0.001150275     0.9691800   -0.0603436    -0.0061676   -0.0044818    -0.0001361   -0.0003898     0.0011146    0.0002828 
   0.001250300     0.9777420   -0.0725454    -0.0068897   -0.0027274    -0.0008533   -0.0007312     0.0008778    0.0012579 
   0.001350325     0.9918751   -0.0751485    -0.0110335   -0.0057016     0.0004983   -0.0005832     0.0004471   -0.0003838 
   0.001450350     1.0009450   -0.0772184    -0.0134470   -0.0022345    -0.0006101    0.0008745     0.0004091    0.0006272 
   0.001550375     0.9957312   -0.0879869    -0.0077572   -0.0014407    -0.0007107   -0.0014315     0.0012874    0.0003735 
   0.001650400     0.9701915    0.0016990    -0.0084402    0.0011552    -0.0000633    0.0003259     0.0002490   -0.0003883 
   0.001750425     0.9668828   -0.0659776    -0.0064189   -0.0040941    -0.0002994    0.0007039     0.0013458   -0.0000616 
   0.001850450     0.9565223   -0.0658726    -0.0041577   -0.0007580     0.0002874    0.0003101     0.0006946    0.0009993 
   0.001950475     1.0418430   -0.0151629    -0.0078087    0.0028321    -0.0012648   -0.0002410     0.0017341   -0.0002198 
   0.002050500     1.0013240   -0.0331712    -0.0056060   -0.0000881     0.0003311   -0.0002120     0.0016866    0.0006406 
   0.002150525     0.9999058   -0.0482505    -0.0070478    0.0028117    -0.0002981    0.0002153     0.0008638    0.0007728 
   0.002250550     1.0001930   -0.0532506    -0.0059649    0.0013671     0.0013220    0.0000904    -0.0000359    0.0001152 
   0.002350575     0.9815095   -0.0622689    -0.0040292    0.0044838     0.0004549   -0.0005379     0.0013106   -0.0001260 
   0.002450600     0.9927946   -0.0880366    -0.0041422    0.0030854    -0.0003223   -0.0002892     0.0013503    0.0006365 
   0.002550625     0.9805031   -0.0346651    -0.0060641    0.0048232    -0.0002094    0.0005723     0.0008315    0.0006266 
   0.002650650     1.0305750   -0.0598144    -0.0028580    0.0031829     0.0000472    0.0007273     0.0006227    0.0010468 
   0.002750675     0.9657858   -0.0394515    -0.0022076    0.0008660    -0.0005685   -0.0004497    -0.0002471   -0.0001213 
   0.002850700     0.9912144   -0.1292986    -0.0062991    0.0049077    -0.0001659   -0.0007235     0.0012579   -0.0009550 
   0.002950725     0.9579885   -0.0692258    -0.0048028    0.0029796    -0.0001047    0.0001511     0.0018463   -0.0000327 
   0.003050750     0.9699309   -0.1152641     0.0010444    0.0046288     0.0008689   -0.0001001     0.0014982   -0.0011735 
   0.003150775     0.9580591   -0.1223723    -0.0024635    0.0018829     0.0003645   -0.0011441    -0.0002959   -0.0002136 
   0.003250800     0.9717275   -0.1019761     0.0006441    0.0046471    -0.0003019    0.0001176     0.0014380    0.0002510 
   0.003350825     1.0192560   -0.0933325    -0.0049838    0.0011950     0.0000449   -0.0000356     0.0005612    0.0001948 
   0.003450850     0.9750026   -0.1540936    -0.0022249   -0.0008418    -0.0008607   -0.0005025     0.0010465   -0.0006122 
   0.003550875     0.9568588   -0.1175382    -0.0021756    0.0019004     0.0003791    0.0000784     0.0004201    0.0001765 
   0.003650900     0.9702845   -0.0835367     0.0001573    0.0007731    -0.0003442    0.0000550     0.0008920   -0.0000952 
   0.003750925     0.9694563   -0.1212814    -0.0004825    0.0023231     0.0005914    0.0001014     0.0011375   -0.0003845 
   0.003850950     0.9830086   -0.1312237     0.0011599    0.0024702     0.0000945    0.0001384     0.0002119    0.0004274 
   0.003950975     0.9929885   -0.1355362    -0.0022491    0.0002682    -0.0003464    0.0002375     0.0009970   -0.0006318 
   0.004051001     0.9871028   -0.1481504    -0.0033705    0.0040489    -0.0002400   -0.0002594     0.0006687    0.0002095 
   0.004151026     0.9889855   -0.1621516     0.0003091    0.0041914    -0.0000294   -0.0006372     0.0002480   -0.0000809 
   0.004251051     0.9957885   -0.1573460    -0.0026329    0.0006042    -0.0001268    0.0005529     0.0006164    0.0000974 
   0.004351076     1.0055170   -0.1222389     0.0000744   -0.0009089     0.0002479    0.0001693     0.0011421    0.0009695 
   0.004451101     0.9640900   -0.1623675    -0.0006107    0.0035223     0.0000976    0.0002347     0.0017311   -0.0002312 
   0.004551126     0.9901038   -0.1647973    -0.0001480    0.0011670    -0.0004010   -0.0000060     0.0000891    0.0007948 
   0.004651151     0.9484311   -0.1477391    -0.0001984    0.0012552    -0.0004284   -0.0001299     0.0009853    0.0002451 
   0.004751176     0.9836318   -0.1853406     0.0004606    0.0020695     0.0000992    0.0006457     0.0009020    0.0002374 
   0.004851201     0.9351774   -0.1485291    -0.0025213    0.0017622    -0.0000495   -0.0004080     0.0009112    0.0007029 
   0.004951226     0.9637100   -0.1500221    -0.0008485    0.0013252     0.0004108    0.0000380     0.0008400    0.0002430 
   0.005051251     0.9919714   -0.1909574    -0.0004151    0.0006574    -0.0000540    0.0002428     0.0012891   -0.0004004 
   0.005151276     0.9672465   -0.1566858     0.0002436    0.0015802    -0.0006613    0.0003848     0.0010579   -0.0002893 
   0.005251301     0.9511038   -0.1642374    -0.0003808    0.0011115     0.0000614   -0.0001793     0.0020818    0.0006889 
   0.005351326     0.9302972   -0.1483465    -0.0018318    0.0011048    -0.0001854    0.0000510     0.0006497    0.0006413 
   0.005451351     0.9542873   -0.1748208    -0.0005101   -0.0010919     0.0001306    0.0000656     0.0009559    0.0000972 
   0.005551376     0.9722109   -0.2016335    -0.0010817    0.0027703     0.0004713   -0.0000435     0.0008830   -0.0001302 
   0.005651401     0.9512416   -0.1971624     0.0004199    0.0004592     0.0002772   -0.0004438     0.0006248   -0.0005370 
   0.005751426     0.9200442   -0.1763002     0.0001532    0.0005703     0.0007406   -0.0000498     0.0009665    0.0005058 
   0.005851451     0.9715536   -0.2004471    -0.0003528    0.0008656    -0.0000354    0.0001840     0.0004411   -0.0000738 
   0.005951476     0.9296601   -0.2019559    -0.0008317    0.0013219     0.0004888   -0.0001515     0.0006456    0.0001764 
   0.006051501     0.9398282   -0.1905351    -0.0011807   -0.0004801    -0.0004221   -0.0002055     0.0003010    0.0005127 
   0.006151526     0.9129914   -0.2056007    -0.0011633    0.0004351     0.0000053   -0.0003918     0.0015700   -0.0004546 
   0.006251551     0.9662354   -0.1744443    -0.0003063    0.0013266     0.0004271   -0.0002830     0.0013151    0.0004851 
   0.006351576     0.9492148   -0.2147592     0.0011739    0.0012662     0.0002662    0.0000282     0.0007526    0.0000418 
   0.006451601     0.9630923   -0.2180138    -0.0000120    0.0023674     0.0001560   -0.0008717     0.0005472    0.0005370 
   0.006551626     0.9173746   -0.2291493     0.0000301    0.0002485    -0.0001481    0.0000672     0.0000585    0.0000922 
   0.006651651     0.9319899   -0.2125684    -0.0008876    0.0006347     0.0001404    0.0003114     0.0010727   -0.0000285 
   0.006751676     0.9306952   -0.2413339     0.0004998   -0.0001582     0.0001407   -0.0002582     0.0011522    0.0005045 
   0.006851701     0.9588367   -0.2417539     0.0001957    0.0011441     0.0000446   -0.0003146     0.0005870    0.0002491 
   0.006951726     0.9318632   -0.2381928    -0.0010038   -0.0001887     0.0000963   -0.0000695     0.0010524    0.0011081 
   0.007051751     0.9361892   -0.2236746     0.0019124   -0.0005592    -0.0006068   -0.0006087     0.0014966   -0.0001258 
   0.007151776     0.9180498   -0.2355920    -0.0006136    0.0005920    -0.0000545   -0.0001448     0.0009848    0.0006376 
   0.007251801     0.9526650   -0.2236354     0.0006696   -0.0004064     0.0001344    0.0001778     0.0007002   -0.0000363 
   0.007351826     0.9352394   -0.2635741    -0.0004149   -0.0003749    -0.0001330   -0.0002603     0.0018171   -0.0000500 
   0.007451851     0.9191023   -0.2492411    -0.0002211    0.0009490    -0.0002941    0.0000838     0.0011129   -0.0002090 
   0.007551876     0.9280977   -0.2525288    -0.0010041   -0.0009774    -0.0000036    0.0002510     0.0009855    0.0002366 
   0.007651901     0.9388050   -0.2849335    -0.0013292    0.0009907    -0.0005124    0.0000208     0.0003481    0.0003587 
   0.007751926     0.9284045   -0.2385588     0.0000652    0.0000834    -0.0001599    0.0003826     0.0004180   -0.0004453 
   0.007851951     0.9273304   -0.2527120     0.0000941   -0.0005272    -0.0004129   -0.0002866     0.0005136   -0.0004718 
   0.007951976     0.9123409   -0.2640037     0.0002649    0.0006534    -0.0002157   -0.0001312     0.0010003    0.0003311 
   0.008052001     0.9299662   -0.2576047     0.0018583   -0.0000603    -0.0004060    0.0001179     0.0007981    0.0002131 
   0.008152026     0.9175831   -0.2687357     0.0000144   -0.0000139     0.0004776   -0.0002313     0.0009675    0.0003175 
   0.008252051     0.9140853   -0.2485702     0.0000202   -0.0008272     0.0001711   -0.0001505     0.0011928    0.0003222 
   0.008352076     0.9171376   -0.2580743     0.0000981    0.0007225     0.0000917    0.0000558     0.0014636   -0.0001712 
   0.008452101     0.9267399   -0.2625326    -0.0000647   -0.0001378    -0.0000897   -0.0002261     0.0007940   -0.0007144 
   0.008552126     0.9226206   -0.2615190     0.0010802   -0.0012181    -0.0003006   -0.0000594     0.0007493    0.0006743 
   0.008652151     0.9224129   -0.2609611    -0.0013402    0.0000629     0.0000776   -0.0002255     0.0008674    0.0005036 
   0.008752176     0.9249824   -0.2705369     0.0012025   -0.0008023     0.0000351   -0.0000982     0.0006232   -0.0000469 
   0.008852201     0.9186037   -0.2505502     0.0016789    0.0000895    -0.0005048    0.0002978     0.0009717    0.0006867 
   0.008952226     0.9167320   -0.2908504     0.0002952   -0.0003988    -0.0000870    0.0002518     0.0010367   -0.0002428 
   0.009052251     0.9157462   -0.2801155     0.0010518   -0.0003066    -0.0001272    0.0002507     0.0007609   -0.0002416 
   0.009152276     0.9026633   -0.2732618    -0.0000316    0.0000479     0.0001297   -0.0002543     0.0006691    0.0004451 
   0.009252301     0.8960876   -0.2795465    -0.0009709   -0.0002046    -0.0001588    0.0001570     0.0009811    0.0001611 
   0.009352326     0.9046812   -0.2877747     0.0006439    0.0001783    -0.0000333   -0.0002013     0.0006507   -0.0000363 
   0.009452351     0.9055601   -0.2900512    -0.0008281   -0.0003670    -0.0000467    0.0000034     0.0007512    0.0003929 
   0.009552376     0.9072508   -0.2964608    -0.0009564   -0.0009927     0.0000222   -0.0001217     0.0011509    0.0003564 
   0.009652401     0.8830141   -0.2777350    -0.0004028    0.0000580    -0.0001060   -0.0003298     0.0007293    0.0004275 
   0.009752426     0.8969609   -0.2925016     0.0006122    0.0001670    -0.0000964   -0.0000375     0.0011602    0.0006799 
   0.009852451     0.8964849   -0.3031924    -0.0002052   -0.0014209     0.0000607    0.0003521     0.0006067    0.0000739 
   0.009952476     0.8841863   -0.2970838    -0.0011585   -0.0000335     0.0000825   -0.0002920     0.0008828    0.0001300 
   0.010052501     0.8813334   -0.2961920     0.0004077    0.0004547     0.0001624   -0.0000348     0.0009027    0.0003319 
   0.010152526     0.8989007   -0.2900367     0.0015323   -0.0006812     0.0002468   -0.0000039     0.0010885    0.0003379 
   0.010252551     0.8954101   -0.3083411    -0.0003033   -0.0004107     0.0004799    0.0001391     0.0005836    0.0002585 
   0.010352576     0.8880329   -0.3056465    -0.0004697    0.0011836    -0.0007328   -0.0002835     0.0007010    0.0003859 
   0.010452601     0.8662898   -0.3049650     0.0003957   -0.0010668     0.0003279   -0.0002883     0.0012466   -0.0001712 
   0.010552626     0.8694245   -0.3289407     0.0004242   -0.0005088     0.0003008   -0.0000835     0.0007115    0.0005103 
   0.010652651     0.8807302   -0.3298691     0.0002119    0.0008351     0.0000080    0.0002894     0.0009289    0.0001097 
   0.010752676     0.8723611   -0.3282113    -0.0008553   -0.0002361    -0.0002668    0.0000035     0.0006972    0.0002765 
   0.010852701     0.8941750   -0.3065214    -0.0010887    0.0000423     0.0001530   -0.0003646     0.0007940    0.0005298 
   0.010952726     0.8844255   -0.3361864     0.0008115    0.0001559     0.0001889   -0.0000264     0.0005379   -0.0002708 
   0.011052751     0.8783411   -0.3538946    -0.0003463    0.0000079    -0.0001812   -0.0000500     0.0010564    0.0002498 
   0.011152776     0.8655840   -0.3248302     0.0003335   -0.0006034     0.0001266   -0.0000999     0.0003267    0.0003205 
   0.011252801     0.8633429   -0.3446323    -0.0000419    0.0015567     0.0001554   -0.0000181     0.0003747    0.0006588 
   0.011352826     0.8698435   -0.3520125     0.0010614    0.0004306    -0.0000063   -0.0001284     0.0005195    0.0002600 
   0.011452851     0.8487544   -0.3480857     0.0004547    0.0001018     0.0002676   -0.0000629     0.0009515    0.0001377 
   0.011552876     0.8568856   -0.3457341    -0.0003303    0.0003668     0.0002525   -0.0001549     0.0008753    0.0000493 
   0.011652901     0.8503345   -0.3594155    -0.0007238    0.0004887     0.0001068   -0.0003604     0.0006365    0.0008779 
   0.011752926     0.8379295   -0.3324523    -0.0007058    0.0001806     0.0001212   -0.0001145     0.0010918    0.0004705 
   0.011852951     0.8609141   -0.3568318     0.0007664    0.0006694     0.0001238    0.0000571     0.0005940    0.0003395 
   0.011952976     0.8500749   -0.3415754     0.0003960    0.0006581     0.0000789    0.0002786     0.0004700    0.0002563 
   0.012053002     0.8348697   -0.3616804     0.0006418   -0.0002726     0.0001937   -0.0000600     0.0005410    0.0004782 
   0.012153027     0.8486674   -0.3802446    -0.0008276    0.0006580    -0.0000251    0.0002314     0.0010664    0.0000895 
   0.012253052     0.8320917   -0.3558763     0.0001614    0.0000820    -0.0001697   -0.0000468     0.0011340    0.0004645 
   0.012353077     0.8358989   -0.3600903     0.0003671   -0.0004979     0.0001268    0.0001456     0.0007336    0.0004163 
   0.012453102     0.8449844   -0.3636656    -0.0004070    0.0001628    -0.0002101   -0.0000377     0.0010800    0.0004660 
   0.012553127     0.8289342   -0.3820924    -0.0003990   -0.0000301    -0.0000400    0.0000506     0.0009223   -0.0000309 
   0.012653152     0.8458096   -0.3596049    -0.0006470   -0.0003704     0.0003033   -0.0000040     0.0010846    0.0003060 
   0.012753177     0.8293428   -0.3633342     0.0007599   -0.0005956     0.0000308    0.0000595     0.0003074    0.0000674 
   0.012853202     0.8329897   -0.3483392    -0.0002916    0.0000551     0.0003451   -0.0003671     0.0009780    0.0007938 
   0.012953227     0.8275490   -0.3527482    -0.0004090   -0.0000950     0.0001959    0.0002628     0.0012031    0.0003460 
   0.013053252     0.8224758   -0.3922366    -0.0007728   -0.0002041     0.0001320    0.0000319     0.0010876    0.0003811 
   0.013153277     0.8263842   -0.3647572     0.0002383   -0.0010767     0.0004697   -0.0002581     0.0007537    0.0002256 
   0.013253302     0.8348665   -0.3785281    -0.0003411   -0.0000361     0.0001662    0.0000241     0.0005891    0.0000223 
   0.013353327     0.8201973   -0.3799763     0.0003150   -0.0006902     0.0001973   -0.0001067     0.0008431    0.0002181 
   0.013453352     0.8225965   -0.3647211     0.0000538    0.0001329     0.0001650    0.0002240     0.0010056    0.0004300 
   0.013553377     0.8066372   -0.3858306     0.0002473    0.0003968    -0.0001698   -0.0001264     0.0006697    0.0001421 
   0.013653402     0.8106229   -0.3857975     0.0002181    0.0003236    -0.0000829   -0.0000629     0.0011503    0.0004966 
   0.013753427     0.8174715   -0.3884018     0.0003955   -0.0005700    -0.0000294    0.0000085     0.0010359    0.0004335 
   0.013853452     0.8181837   -0.4017067    -0.0002560    0.0004991     0.0001098   -0.0001932     0.0009181    0.0001176 
   0.013953477     0.7968216   -0.3724408     0.0007094    0.0003213    -0.0000730    0.0002993     0.0008960    0.0001828 
   0.014053502     0.8085443   -0.3962125    -0.0001847   -0.0002698     0.0002199   -0.0002373     0.0007632    0.0004734 
   0.014153527     0.7996807   -0.3963642     0.0003779    0.0002107    -0.0000354    0.0000736     0.0007660    0.0005518 
   0.014253552     0.8101281   -0.3910776    -0.0004280    0.0001950    -0.0001717   -0.0000958     0.0006712   -0.0003763 
   0.014353577     0.7975885   -0.3922296     0.0000671   -0.0000329     0.0000743    0.0002900     0.0008798    0.0004347 
   0.014453602     0.7881652   -0.3953858    -0.0002275   -0.0007689     0.0000380   -0.0001621     0.0002602    0.0004475 
   0.014553627     0.7963287   -0.3967586     0.0004444   -0.0004051     0.0001140    0.0001748     0.0010360    0.0004541 
   0.014653652     0.7937893   -0.4019663    -0.0004799   -0.0009320     0.0001673   -0.0000877     0.0007784    0.0000365 
   0.014753677     0.7876595   -0.4042918     0.0002441    0.0000849     0.0000804    0.0000097     0.0007313    0.0000420 
   0.014853702     0.7987062   -0.4001737    -0.0004822   -0.0002337     0.0000819    0.0000450     0.0012066    0.0006881 
   0.014953727     0.7817432   -0.4196686     0.0013904   -0.0005247     0.0002677    0.0000939     0.0012196    0.0005607 
   0.015053752     0.7817639   -0.4087241    -0.0006068    0.0005981     0.0001658    0.0000427     0.0008097    0.0004090 
   0.015153777     0.7942681   -0.4065901     0.0001334    0.0002388     0.0000030    0.0002718     0.0006050    0.0003914 
   0.015253802     0.7723377   -0.4103708    -0.0005586   -0.0002277     0.0001694   -0.0002221     0.0007866    0.0002976 
   0.015353827     0.7713208   -0.4123530    -0.0001504   -0.0002014    -0.0001161    0.0001147     0.0011026    0.0003196 
   0.015453852     0.7796205   -0.4142059     0.0008243   -0.0003268     0.0000845   -0.0001934     0.0006984    0.0002708 
   0.015553877     0.7675551   -0.4231953     0.0003646   -0.0002853     0.0000063   -0.0000681     0.0010184    0.0001977 
   0.015653902     0.7716712   -0.4140083    -0.0010342    0.0006881     0.0001599    0.0001508     0.0003578    0.0000775 
   0.015753927     0.7588363   -0.4145623     0.0001546   -0.0012636    -0.0000246    0.0001104     0.0006054    0.0006243 
   0.015853952     0.7712995   -0.4330518    -0.0000507    0.0007688    -0.0000322   -0.0000435     0.0008860    0.0006255 
   0.015953977     0.7756884   -0.4040881    -0.0004658   -0.0000879     0.0000767   -0.0002417     0.0008233    0.0005383 
   0.016054002     0.7584239   -0.4161330    -0.0001379   -0.0007011     0.0001465    0.0001548     0.0011307    0.0004395 
   0.016154027     0.7659093   -0.4309475    -0.0001853   -0.0001532    -0.0000966   -0.0000733     0.0008189    0.0004024 
   0.016254052     0.7562744   -0.4233353    -0.0003557   -0.0007178     0.0001581   -0.0000160     0.0011635    0.0006087 
   0.016354077     0.7459879   -0.4223558    -0.0001139   -0.0003261     0.0000813   -0.0002485     0.0005032    0.0003848 
   0.016454102     0.7577311   -0.4321871    -0.0002724   -0.0000953    -0.0001675    0.0000045     0.0004193    0.0004914 
   0.016554127     0.7546400   -0.4204642    -0.0003961   -0.0000779     0.0001693    0.0000220     0.0006598    0.0007477 
   0.016654152     0.7552195   -0.4215484    -0.0004012   -0.0005811     0.0001973    0.0001543     0.0013099    0.0001248 
   0.016754177     0.7475508   -0.4298816     0.0008121   -0.0002329    -0.0001241    0.0000465     0.0007525    0.0005527 
   0.016854202     0.7415488   -0.4360370    -0.0008294   -0.0000943    -0.0000932   -0.0001127     0.0006624    0.0006347 
   0.016954227     0.7557804   -0.4467905     0.0006578   -0.0002219     0.0000513    0.0000352     0.0011008    0.0004676 
   0.017054252     0.7399341   -0.4396844    -0.0009718    0.0007519    -0.0000439    0.0000511     0.0005268    0.0000236 
   0.017154277     0.7372789   -0.4277459    -0.0009017    0.0003074     0.0000503    0.0000181     0.0005518    0.0002628 
   0.017254302     0.7460117   -0.4363942     0.0003614    0.0000143     0.0001610    0.0000505     0.0008081    0.0003779 
   0.017354327     0.7526695   -0.4432138    -0.0003988    0.0005713     0.0001744   -0.0001490     0.0008455    0.0001665 
   0.017454352     0.7335622   -0.4469439     0.0002557    0.0001193    -0.0000201    0.0001536     0.0005765    0.0004508 
   0.017554377     0.7231761   -0.4481621     0.0001404   -0.0001060     0.0002772    0.0001496     0.0004534    0.0001460 
   0.017654402     0.7361744   -0.4409075    -0.0001197    0.0000487     0.0001324    0.0001140     0.0005341    0.0007797 
   0.017754427     0.7193990   -0.4468084    -0.0000903    0.0001704    -0.0001144   -0.0001164     0.0004928    0.0000761 
   0.017854452     0.7258250   -0.4488105     0.0001559   -0.0002391    -0.0001445    0.0001006     0.0008038    0.0004394 
   0.017954477     0.7185985   -0.4381209     0.0002336    0.0000697     0.0000658   -0.0000169     0.0009190    0.0004274 
   0.018054502     0.7182943   -0.4457640     0.0002375    0.0001137     0.0000579    0.0000627     0.0008294    0.0002542 
   0.018154527     0.7166069   -0.4495692    -0.0007275   -0.0003282    -0.0002342   -0.0000073     0.0006622    0.0006046 
   0.018254552     0.7145892   -0.4540886     0.0005614   -0.0004572     0.0000399   -0.0000469     0.0002777    0.0003818 
   0.018354577     0.7078989   -0.4531751    -0.0003297   -0.0005144    -0.0000962    0.0000324     0.0005776    0.0006918 
   0.018454602     0.7048580   -0.4601295    -0.0000057   -0.0004458     0.0000545   -0.0002920     0.0011537    0.0007034 
   0.018554627     0.7050962   -0.4607551     0.0003946    0.0010430     0.0000179   -0.0002193     0.0005781   -0.0001479 
   0.018654652     0.7091275   -0.4646846    -0.0007789    0.0006153    -0.0002153   -0.0001253     0.0003813    0.0006831 
   0.018754677     0.6956081   -0.4562240    -0.0009551    0.0004908    -0.0000316   -0.0001082     0.0007007    0.0002248 
   0.018854702     0.7117760   -0.4541830     0.0008827   -0.0000584    -0.0000504    0.0002111     0.0012996    0.0002291 
   0.018954727     0.6928550   -0.4549572    -0.0005009   -0.0002420    -0.0000720   -0.0002124     0.0007471    0.0006656 
   0.019054752     0.7012180   -0.4547283     0.0004554   -0.0002006     0.0002639   -0.0001018     0.0003202    0.0001981 
   0.019154777     0.6904985   -0.4630484    -0.0000130   -0.0000475     0.0000355    0.0000242     0.0006909    0.0002643 
   0.019254802     0.6889993   -0.4661249     0.0007476    0.0000635     0.0000813    0.0000238     0.0006994    0.0004435 
   0.019354827     0.6747912   -0.4618545    -0.0001878    0.0001411     0.0000079   -0.0000880     0.0005913    0.0005517 
   0.019454852     0.6856971   -0.4645716     0.0007337   -0.0003819     0.0001627   -0.0002104     0.0005470    0.0005120 
   0.019554877     0.6759158   -0.4557716     0.0001600   -0.0002568     0.0000763   -0.0000550     0.0004804    0.0000663 
   0.019654902     0.6913214   -0.4672659     0.0001122   -0.0006571     0.0000635    0.0000984     0.0007446    0.0001943 
   0.019754927     0.6808128   -0.4653086    -0.0000195    0.0001916    -0.0003147    0.0000650     0.0006850    0.0002627 
   0.019854952     0.6714297   -0.4674246     0.0005573   -0.0000584    -0.0000756   -0.0000036     0.0005920    0.0005099 
   0.019954977     0.6725631   -0.4685030     0.0003954    0.0006612    -0.0003051   -0.0000535     0.0007316    0.0006531 
   0.020055003     0.6752093   -0.4726959    -0.0002806    0.0003585     0.0000706   -0.0000011     0.0004378    0.0002019 
   0.020155028     0.6757677   -0.4652137     0.0005096    0.0000747     0.0000871   -0.0001879     0.0002029    0.0006747 
   0.020255053     0.6696872   -0.4715848     0.0000475    0.0002935    -0.0000565    0.0000128     0.0007360    0.0004877 
   0.020355078     0.6694751   -0.4760024     0.0004328    0.0001284    -0.0001485    0.0000327     0.0000152    0.0003448 
   0.020455103     0.6722202   -0.4751524     0.0003705    0.0002976    -0.0001029   -0.0002008     0.0006184    0.0002899 
   0.020555128     0.6521250   -0.4749057     0.0001350   -0.0000619     0.0001107   -0.0000918     0.0007089    0.0004120 
   0.020655153     0.6658549   -0.4718967     0.0000147   -0.0002036    -0.0002153   -0.0000343     0.0002326   -0.0001350 
   0.020755178     0.6533974   -0.4772852     0.0000089   -0.0003450    -0.0000708   -0.0000158     0.0003293    0.0000346 
   0.020855203     0.6546993   -0.4737425     0.0009544   -0.0003643    -0.0000083   -0.0000975     0.0000335    0.0001508 
   0.020955228     0.6534392   -0.4694656     0.0003830   -0.0005724    -0.0000379   -0.0001394     0.0004811   -0.0000333 
   0.021055253     0.6479400   -0.4820164    -0.0003786    0.0003569     0.0001505   -0.0000485     0.0006017    0.0005744 
   0.021155278     0.6505700   -0.4825478    -0.0001558   -0.0004861     0.0000604   -0.0000125     0.0007617    0.0005208 
   0.021255303     0.6475042   -0.4770533    -0.0001591    0.0004891     0.0000600    0.0000687     0.0006225    0.0005627 
   0.021355328     0.6535970   -0.4787760    -0.0002298    0.0004923    -0.0001208   -0.0000278     0.0007708    0.0008827 
   0.021455353     0.6385423   -0.4783063     0.0005918    0.0004178     0.0001025    0.0001524     0.0010161    0.0005972 
   0.021555378     0.6449133   -0.4853358     0.0002071   -0.0001475     0.0000742   -0.0000338     0.0004673    0.0003549 
   0.021655403     0.6420389   -0.4784906     0.0004990   -0.0003967    -0.0001369   -0.0001286     0.0007773    0.0005209 
   0.021755428     0.6384692   -0.4793698     0.0002960    0.0004314    -0.0001609   -0.0001089     0.0009779   -0.0000103 
   0.021855453     0.6358332   -0.4828264    -0.0001649   -0.0001480     0.0001610    0.0000555     0.0008937    0.0008454 
   0.021955478     0.6276023   -0.4817768    -0.0002284    0.0000198    -0.0000156   -0.0000964     0.0007162    0.0007481 
   0.022055503     0.6353568   -0.4854862    -0.0001690   -0.0004228    -0.0000222   -0.0000344     0.0007757    0.0003796 
   0.022155528     0.6286726   -0.4856251    -0.0010106    0.0000946     0.0000031    0.0001379     0.0004283    0.0001948 
   0.022255553     0.6199119   -0.4890068     0.0002452    0.0000252    -0.0001203    0.0000022     0.0007250    0.0007332 
   0.022355578     0.6227840   -0.4820607     0.0000959   -0.0001289     0.0000468    0.0000805     0.0006039    0.0010087 
   0.022455603     0.6225054   -0.4930441    -0.0000876   -0.0005193     0.0001156    0.0001156     0.0003872    0.0000128 
   0.022555628     0.6232153   -0.4918666    -0.0004975    0.0004610     0.0000876   -0.0002179     0.0003881    0.0001802 
   0.022655653     0.6223499   -0.4860925    -0.0002931    0.0004368     0.0000706    0.0002296     0.0002667    0.0004087 
   0.022755678     0.6082432   -0.4884565     0.0000887    0.0000678    -0.0000547    0.0000871     0.0003683    0.0009473 
   0.022855703     0.6105568   -0.4897572    -0.0001143   -0.0000174     0.0000473   -0.0001390     0.0002397    0.0004836 
   0.022955728     0.6112400   -0.4859334    -0.0002482   -0.0003412     0.0000012    0.0000225     0.0008727    0.0000703 
   0.023055753     0.6068308   -0.4942048    -0.0002052    0.0000001    -0.0001516    0.0000583     0.0005241    0.0003675 
   0.023155778     0.6089579   -0.4972964     0.0002886   -0.0006200    -0.0000902    0.0001010     0.0004209    0.0002600 
   0.023255803     0.6064029   -0.4984242     0.0004081    0.0003471    -0.0001199    0.0001198     0.0008876    0.0004031 
   0.023355828     0.6044627   -0.4909140    -0.0000352    0.0000528     0.0000268    0.0000647     0.0009171    0.0003851 
   0.023455853     0.5972859   -0.4984193    -0.0001455   -0.0001673     0.0001011    0.0000379     0.0007067    0.0001635 
   0.023555878     0.6012991   -0.4952145     0.0001450   -0.0000221    -0.0001164   -0.0000545     0.0002895    0.0006484 
   0.023655903     0.5914270   -0.4922834    -0.0000918    0.0005229     0.0002353    0.0000635     0.0002064    0.0005769 
   0.023755928     0.5898772   -0.4954043     0.0003090    0.0000460    -0.0000525    0.0000308     0.0008711    0.0001993 
   0.023855953     0.5912743   -0.4965931     0.0003302   -0.0005026    -0.0000469    0.0000033     0.0007474    0.0006666 
   0.023955978     0.5856488   -0.4953187     0.0000527    0.0002927     0.0001159    0.0000365     0.0009296    0.0004892 
   0.024056003     0.5927106   -0.4919915     0.0002663   -0.0001853    -0.0001830    0.0000970     0.0004552    0.0003552 
   0.024156028     0.5847021   -0.4927502     0.0003917    0.0001247     0.0000204    0.0001526     0.0001186    0.0005867 
   0.024256053     0.5817637   -0.4948575     0.0003607   -0.0001786    -0.0000319   -0.0000535     0.0002934    0.0002001 
   0.024356078     0.5812618   -0.4954559    -0.0001765   -0.0004660     0.0001138   -0.0000021     0.0007577    0.0000571 
   0.024456103     0.5727580   -0.4902759    -0.0003042    0.0004878    -0.0000386    0.0000832     0.0007166    0.0008891 
   0.024556128     0.5830637   -0.4952808    -0.0002196   -0.0001837    -0.0000214    0.0000541     0.0008205    0.0004242 
   0.024656153     0.5738742   -0.4974823     0.0003257    0.0002953    -0.0001126    0.0000866     0.0004540    0.0005481 
   0.024756178     0.5757720   -0.4992389     0.0000004    0.0003901    -0.0000176    0.0000598     0.0004883    0.0005270 
   0.024856203     0.5759277   -0.4975559     0.0002364   -0.0000078    -0.0000705   -0.0001435     0.0004676    0.0003026 
   0.024956228     0.5790162   -0.4941969     0.0001657    0.0001404    -0.0000341   -0.0000315     0.0006518    0.0007405 
   0.025056253     0.5633868   -0.4955060    -0.0002109   -0.0001997     0.0000357    0.0000032     0.0001354    0.0002610 
   0.025156278     0.5677005   -0.4996151     0.0000818    0.0000925    -0.0001406    0.0001145     0.0012483    0.0004935 
   0.025256303     0.5633182   -0.4923137     0.0004605   -0.0005007     0.0000811    0.0000688     0.0008865    0.0004938 
   0.025356328     0.5650810   -0.4994548    -0.0001575    0.0005874    -0.0000437    0.0000048     0.0006838    0.0006987 
   0.025456353     0.5559545   -0.4991310     0.0000315    0.0001436     0.0000333    0.0000086     0.0005946    0.0004885 
   0.025556378     0.5607257   -0.5009381    -0.0000776    0.0002960    -0.0001437    0.0000770     0.0010018    0.0004854 
   0.025656403     0.5583112   -0.5029984    -0.0002837    0.0006212    -0.0000537   -0.0000731     0.0003588    0.0004709 
   0.025756428     0.5595103   -0.5036373    -0.0001996   -0.0001390    -0.0000945    0.0000279     0.0000396    0.0004265 
   0.025856453     0.5543816   -0.5000417    -0.0000183   -0.0000755     0.0000654   -0.0000316     0.0005418    0.0006429 
   0.025956478     0.5505643   -0.4991733    -0.0001261   -0.0000340    -0.0000575    0.0000489     0.0009626    0.0005732 
   0.026056503     0.5474617   -0.4993207     0.0000699   -0.0003876     0.0000194    0.0000046     0.0007199    0.0007963 
   0.026156528     0.5465242   -0.4965545     0.0001965   -0.0000877     0.0000048   -0.0001481     0.0005074    0.0004749 
   0.026256553     0.5499735   -0.5003144    -0.0002763    0.0002355    -0.0000889    0.0000618     0.0002208    0.0003473 
   0.026356578     0.5471961   -0.5054023     0.0001538    0.0003457    -0.0001058   -0.0000327     0.0007037    0.0006974 
   0.026456603     0.5407943   -0.5039290    -0.0002398    0.0002362     0.0001007   -0.0000831     0.0004874   -0.0000765 
   0.026556628     0.5400826   -0.5089238     0.0002795    0.0005796    -0.0000629   -0.0000613     0.0006904    0.0005286 
   0.026656653     0.5354965   -0.5009885     0.0003799   -0.0002253    -0.0000190   -0.0001170     0.0006543    0.0005331 
   0.026756678     0.5333957   -0.5027586     0.0000761   -0.0001084     0.0000128    0.0000050     0.0007749    0.0003864 
   0.026856703     0.5364004   -0.5083057     0.0000830    0.0001211     0.0000918   -0.0000203     0.0007606    0.0006480 
   0.026956728     0.5350110   -0.5019546     0.0001776   -0.0002518     0.0000307   -0.0000015     0.0005676    0.0004971 
   0.027056753     0.5311986   -0.5054263     0.0002923   -0.0002217    -0.0001053   -0.0000489     0.0007970    0.0005606 
   0.027156778     0.5303955   -0.5065721     0.0005862   -0.0000072    -0.0000587   -0.0000341     0.0005757    0.0003802 
   0.027256803     0.5269140   -0.4998432    -0.0004827    0.0000469     0.0000031    0.0000326     0.0005483    0.0001692 
   0.027356828     0.5300091   -0.5061454     0.0000808    0.0001421    -0.0000598   -0.0001099     0.0006203    0.0007153 
   0.027456853     0.5171760   -0.5093488    -0.0001795   -0.0002473    -0.0000479    0.0000096     0.0006169    0.0001437 
   0.027556878     0.5194942   -0.5007967     0.0002332   -0.0000481    -0.0000436   -0.0001119     0.0009383    0.0008233 
   0.027656903     0.5222294   -0.5077770     0.0000853    0.0001720     0.0000467    0.0000684     0.0008184    0.0003107 
   0.027756928     0.5185486   -0.5036276     0.0001816    0.0002054     0.0000876   -0.0000656     0.0004412    0.0003941 
   0.027856953     0.5166534   -0.5062246    -0.0002730    0.0000495    -0.0000410    0.0000668     0.0009601    0.0006801 
   0.027956978     0.5107178   -0.5030235    -0.0001102   -0.0000484     0.0001104    0.0000684     0.0008155   -0.0002073 
   0.028057004     0.5130778   -0.5035776     0.0000321    0.0002303    -0.0000181   -0.0000289     0.0006305    0.0007688 
   0.028157029     0.5094453   -0.5078011     0.0001796    0.0000632    -0.0000310    0.0000367     0.0006531    0.0006578 
   0.028257054     0.5053094   -0.5037796    -0.0002843   -0.0004625     0.0000951   -0.0001166     0.0008927    0.0004031 
   0.028357079     0.5040621   -0.5055335     0.0001022    0.0001311    -0.0000720   -0.0000091     0.0003971    0.0005352 
   0.028457104     0.5035492   -0.5033959    -0.0002576   -0.0001750    -0.0000155    0.0000757     0.0003398    0.0008157 
   0.028557129     0.5033321   -0.5065172    -0.0001880    0.0001355    -0.0000219    0.0000118     0.0009019    0.0003441 
   0.028657154     0.5064531   -0.5051925     0.0001302    0.0002984    -0.0000696   -0.0000116     0.0002704    0.0008515 
   0.028757179     0.5005330   -0.5047236     0.0001282    0.0002691     0.0000367    0.0000894     0.0006671    0.0005167 
   0.028857204     0.4990244   -0.5084649    -0.0000512    0.0000938    -0.0000218    0.0001359     0.0006700    0.0004966 
   0.028957229     0.4909450   -0.5050017    -0.0004220    0.0002632     0.0000006   -0.0000420     0.0002289    0.0003309 
   0.029057254     0.4966356   -0.5079517    -0.0000600   -0.0002470    -0.0000387   -0.0000196     0.0005381    0.0007564 
   0.029157279     0.4898247   -0.5083596    -0.0003124   -0.0001549     0.0000020   -0.0000684     0.0007468    0.0007321 
   0.029257304     0.4881898   -0.5076073     0.0002609    0.0001218    -0.0000130   -0.0000085     0.0004012    0.0010455 
   0.029357329     0.4855193   -0.5037251     0.0001218    0.0000388    -0.0000571    0.0000531     0.0006622    0.0003868 
   0.029457354     0.4872146   -0.5057884     0.0000784    0.0004584     0.0000053   -0.0000254     0.0002372    0.0008129 
   0.029557379     0.4827608   -0.5092662     0.0000062   -0.0001883    -0.0000663   -0.0000681     0.0008207    0.0000502 
   0.029657404     0.4852963   -0.5056249     0.0000807   -0.0002538    -0.0001366    0.0001770     0.0007966    0.0004106 
   0.029757429     0.4784803   -0.5065086    -0.0000814   -0.0002519    -0.0000227   -0.0000300     0.0007181    0.0008171 
   0.029857454     0.4721668   -0.5069676    -0.0001817    0.0001947    -0.0000015    0.0000202     0.0008362    0.0005586 
   0.029957479     0.4805938   -0.5034443    -0.0000041   -0.0001573     0.0000911   -0.0000402    -0.0000131    0.0003772 
   0.030057504     0.4745585   -0.5080748    -0.0007448    0.0001713     0.0000309   -0.0000223     0.0007089    0.0003837 
   0.030157529     0.4752973   -0.5015650     0.0001797    0.0002296    -0.0000164   -0.0001000     0.0006814    0.0004602 
   0.030257554     0.4745809   -0.5037613    -0.0001843   -0.0004174    -0.0000333   -0.0000212     0.0002645    0.0006573 
   0.030357579     0.4720601   -0.4994443    -0.0000876   -0.0001118    -0.0000198   -0.0000506     0.0000697    0.0007281 
   0.030457604     0.4733481   -0.5049449    -0.0001779    0.0000169     0.0001287    0.0000850     0.0014437    0.0009338 
   0.030557629     0.4661880   -0.5010110    -0.0002843   -0.0001685    -0.0000211    0.0000239     0.0002163    0.0008505 
   0.030657654     0.4657848   -0.5065433    -0.0003128    0.0004750     0.0001188   -0.0000491     0.0004393    0.0005428 
   0.030757679     0.4632226   -0.5069250     0.0000354    0.0002678     0.0000383   -0.0001058     0.0005617    0.0003845 
   0.030857704     0.4611937   -0.5056474    -0.0003159    0.0000261     0.0000262   -0.0000607     0.0004690    0.0003926 
   0.030957729     0.4604201   -0.5082145     0.0001282   -0.0001606    -0.0000505   -0.0000380     0.0003795    0.0005342 
   0.031057754     0.4603028   -0.5055961    -0.0001775   -0.0002598     0.0000543   -0.0000087     0.0009496    0.0001920 
   0.031157779     0.4616994   -0.5104422     0.0000537    0.0001201    -0.0000281    0.0001697     0.0003988    0.0004710 
   0.031257804     0.4560362   -0.5069818    -0.0001395    0.0002720     0.0000365    0.0001363     0.0005271    0.0000947 
   0.031357829     0.4530954   -0.5056710     0.0002269   -0.0002187     0.0000724    0.0000895     0.0001275    0.0006953 
   0.031457854     0.4532041   -0.5014169     0.0001210    0.0001430     0.0000822    0.0001002     0.0005145    0.0004338 
   0.031557879     0.4515020   -0.5056101     0.0000962    0.0005149     0.0000460    0.0000034     0.0005970    0.0005115 
   0.031657904     0.4470598   -0.5053580    -0.0002063    0.0001528     0.0000014   -0.0001887     0.0007038    0.0006557 
   0.031757929     0.4474262   -0.5069358     0.0000525   -0.0001222    -0.0000631    0.0000175     0.0004771    0.0005316 
   0.031857954     0.4437563   -0.5055501     0.0005004   -0.0001346    -0.0000426   -0.0000848     0.0008112    0.0002487 
   0.031957979     0.4455304   -0.5045155     0.0003565   -0.0004150     0.0000290   -0.0000568     0.0004577    0.0008111 
   0.032058004     0.4466140   -0.5034708     0.0000347   -0.0001742     0.0000740    0.0001050     0.0003095    0.0000584 
   0.032158029     0.4457225   -0.5065066    -0.0002990    0.0000892    -0.0000439   -0.0000955     0.0007878    0.0001987 
   0.032258054     0.4431963   -0.5058821    -0.0001188   -0.0000759    -0.0000529   -0.0001345     0.0007478    0.0008305 
   0.032358079     0.4410188   -0.5049430     0.0002046    0.0000920     0.0000475   -0.0000383     0.0001680    0.0011442 
   0.032458104     0.4385800   -0.5060911    -0.0000196    0.0002345     0.0000928   -0.0000370     0.0005477    0.0003316 
   0.032558129     0.4340539   -0.5010055    -0.0000857    0.0000438    -0.0000760   -0.0000301     0.0005835    0.0002938 
   0.032658154     0.4357577   -0.5029522     0.0003059   -0.0001036     0.0000046   -0.0001738     0.0009392    0.0007144 
   0.032758179     0.4332049   -0.5015119     0.0003222   -0.0001771     0.0001496    0.0000642     0.0005160    0.0009343 
   0.032858204     0.4309466   -0.5004895     0.0000938    0.0003314    -0.0000750    0.0001264     0.0005394    0.0002186 
   0.032958229     0.4313653   -0.5002057    -0.0002581    0.0001075    -0.0001120   -0.0000471    -0.0002174    0.0007200 
   0.033058254     0.4257614   -0.5017716     0.0002044    0.0000870     0.0000307    0.0000621     0.0003763    0.0005402 
   0.033158279     0.4226785   -0.5031080    -0.0001046   -0.0003416     0.0000240    0.0000276     0.0009730    0.0007901 
   0.033258304     0.4219341   -0.5042233     0.0003714    0.0000033    -0.0001175   -0.0001131     0.0005743    0.0005582 
   0.033358329     0.4196409   -0.5013963     0.0002417   -0.0004662     0.0000346    0.0000507     0.0004334    0.0000429 
   0.033458354     0.4227490   -0.5006526    -0.0001359    0.0001993     0.0000286    0.0000314     0.0005615    0.0005769 
   0.033558379     0.4176647   -0.5031926     0.0000359    0.0000594     0.0000243   -0.0000860     0.0000527    0.0007144 
   0.033658404     0.4117619   -0.5019940    -0.0000439   -0.0003836     0.0000392    0.0000366     0.0010096    0.0005131 
   0.033758429     0.4144624   -0.5007334     0.0002640    0.0000435    -0.0000622    0.0001782     0.0006028    0.0005943 
   0.033858454     0.4112966   -0.5019986    -0.0001516   -0.0001032    -0.0000210    0.0000270     0.0003356    0.0003808 
   0.033958479     0.4139906   -0.5025966     0.0000300   -0.0000614    -0.0000439    0.0001004     0.0001007    0.0008484 
   0.034058504     0.4135117   -0.4939546     0.0008538   -0.0002327    -0.0000532   -0.0000476     0.0000771    0.0004025 
   0.034158529     0.4072898   -0.5041743     0.0000426    0.0001508     0.0000065    0.0000667     0.0008389    0.0007265 
   0.034258554     0.4092405   -0.5001499     0.0003266   -0.0000657     0.0001384   -0.0000198     0.0005469    0.0005899 
   0.034358579     0.4041270   -0.4995592    -0.0001653   -0.0000830    -0.0001044    0.0001076     0.0003444    0.0000029 
   0.034458604     0.4088180   -0.5034608     0.0000531    0.0002360    -0.0000347    0.0000090     0.0003253    0.0003101 
   0.034558629     0.4037710   -0.4996117    -0.0003017   -0.0000157    -0.0002057    0.0000177     0.0000676    0.0007584 
   0.034658654     0.4017025   -0.4992161     0.0001206    0.0002468    -0.0000086    0.0000265     0.0006001    0.0002959 
   0.034758679     0.4008019   -0.5000877     0.0000578   -0.0000228     0.0001599   -0.0000357     0.0009071    0.0008485 
   0.034858704     0.4054792   -0.4983864    -0.0002978   -0.0001086     0.0000450    0.0001190     0.0003333    0.0005346 
   0.034958729     0.4017940   -0.4928709    -0.0003457   -0.0000839    -0.0001178   -0.0000589     0.0007999    0.0007380 
   0.035058754     0.3962958   -0.4988108     0.0003795   -0.0002721     0.0001449   -0.0001260     0.0005474    0.0005140 
   0.035158779     0.4024321   -0.5007583    -0.0001144    0.0002037    -0.0000623    0.0001339     0.0002293    0.0008114 
   0.035258804     0.3944750   -0.4996931     0.0000685   -0.0003930     0.0000741   -0.0000346     0.0003596    0.0006740 
   0.035358829     0.3916332   -0.4937833     0.0001202    0.0001495     0.0000990   -0.0000654     0.0001335    0.0003997 
   0.035458854     0.3896195   -0.4955333    -0.0001971    0.0000589     0.0000197    0.0000689     0.0004469    0.0002295 
   0.035558879     0.3911897   -0.4975782    -0.0003526    0.0002157    -0.0000544    0.0000547     0.0006988    0.0001899 
   0.035658904     0.3836175   -0.4940882    -0.0002561   -0.0000165    -0.0001423   -0.0001355     0.0002815    0.0008247 
   0.035758929     0.3884087   -0.4929446     0.0002910   -0.0002206    -0.0000232   -0.0000257     0.0004686    0.0005635 
   0.035858954     0.3882894   -0.4920167    -0.0000371   -0.0000143     0.0000677    0.0000054     0.0006758    0.0006442 
   0.035958979     0.3872273   -0.4970724    -0.0000879    0.0000411     0.0000024   -0.0001398     0.0003939    0.0005771 
   0.036059005     0.3857990   -0.4943438    -0.0000595   -0.0002778    -0.0001290   -0.0000935     0.0004010    0.0003104 
   0.036159030     0.3823690   -0.4950788    -0.0001837   -0.0003870     0.0000048   -0.0001015     0.0002189    0.0003837 
   0.036259055     0.3801337   -0.4930721     0.0003904    0.0000681    -0.0001436    0.0000004     0.0008060    0.0000599 
   0.036359080     0.3782794   -0.4905096     0.0000960   -0.0002218     0.0001242   -0.0001736     0.0008068    0.0004011 
   0.036459105     0.3758461   -0.4949630     0.0000458   -0.0000490     0.0000438   -0.0000015     0.0001084    0.0000616 
   0.036559130     0.3746682   -0.4890882     0.0001870    0.0005376     0.0000857   -0.0000459     0.0002239    0.0004817 
   0.036659155     0.3746420   -0.4975658     0.0003139   -0.0002399     0.0000838   -0.0000036     0.0002088    0.0003635 
   0.036759180     0.3733447   -0.4908915     0.0000161   -0.0001508    -0.0000799   -0.0000251     0.0005951    0.0004426 
   0.036859205     0.3746533   -0.4909746     0.0002851   -0.0002563     0.0001128    0.0000166    -0.0001512    0.0003460 
   0.036959230     0.3680526   -0.4949944     0.0000510   -0.0001277    -0.0000979    0.0001139     0.0000599    0.0004778 
   0.037059255     0.3702996   -0.4945498    -0.0002831   -0.0003148    -0.0000156    0.0001037     0.0003346    0.0004379 
   0.037159280     0.3676271   -0.4897521    -0.0000871   -0.0002085    -0.0000505   -0.0000446     0.0009288    0.0006519 
   0.037259305     0.3636872   -0.4942997     0.0001464   -0.0002598     0.0001323   -0.0002287     0.0001279   -0.0000924 
   0.037359330     0.3652216   -0.4944717    -0.0001108    0.0004482    -0.0000019    0.0000762    -0.0001863    0.0005290 
   0.037459355     0.3648815   -0.4877800    -0.0000416   -0.0004243    -0.0000803   -0.0001504     0.0004185    0.0006542 
   0.037559380     0.3627685   -0.4908182    -0.0003029   -0.0007752    -0.0000654    0.0003102     0.0005209    0.0004396 
   0.037659405     0.3607786   -0.4886535    -0.0002118   -0.0002507     0.0001228   -0.0000887     0.0005248    0.0001407 
   0.037759430     0.3597952   -0.4908764    -0.0003278    0.0001303     0.0000514    0.0001845     0.0007592    0.0006516 
   0.037859455     0.3580181   -0.4847919    -0.0003115    0.0002225    -0.0000706   -0.0001644     0.0000448    0.0005453 
   0.037959480     0.3551178   -0.4853183     0.0004043    0.0003439    -0.0000984   -0.0001377     0.0002489    0.0003706 
   0.038059505     0.3555660   -0.4872842     0.0000046    0.0001384    -0.0000894   -0.0000380     0.0001221    0.0001029 
   0.038159530     0.3532794   -0.4892405    -0.0004318   -0.0003799    -0.0000245    0.0000142     0.0002940    0.0003527 
   0.038259555     0.3522625   -0.4866380    -0.0000259    0.0003304    -0.0000863   -0.0000660     0.0004189    0.0003176 
   0.038359580     0.3529845   -0.4846818    -0.0002439    0.0003902    -0.0000087    0.0000134     0.0008941    0.0005199 
   0.038459605     0.3502234   -0.4863723    -0.0005680    0.0000410     0.0000241    0.0000406     0.0003466    0.0005275 
   0.038559630     0.3502033   -0.4877941     0.0002517    0.0002742    -0.0000548   -0.0001176     0.0001979    0.0007636 
   0.038659655     0.3550414   -0.4857837     0.0002345    0.0005932    -0.0000736   -0.0001421     0.0007005    0.0003551 
   0.038759680     0.3469907   -0.4847120     0.0002385   -0.0003238     0.0001271   -0.0000291     0.0004300    0.0000660 
   0.038859705     0.3431703   -0.4881057     0.0000344    0.0003215    -0.0001015   -0.0001003     0.0004080    0.0003114 
   0.038959730     0.3460414   -0.4873406    -0.0001191   -0.0002588     0.0002159   -0.0001615     0.0004835   -0.0000964 
   0.039059755     0.3440355   -0.4843009    -0.0000437    0.0002039     0.0000502   -0.0001132     0.0006680    0.0006506 
   0.039159780     0.3417530   -0.4831745     0.0000019   -0.0003982    -0.0000017   -0.0000677     0.0001449    0.0005480 
   0.039259805     0.3393918   -0.4861236     0.0003515    0.0002580     0.0000856   -0.0000899     0.0000968    0.0001258 
   0.039359830     0.3354270   -0.4818087    -0.0004899    0.0004177    -0.0001737    0.0000991     0.0006725    0.0006114 
   0.039459855     0.3373052   -0.4833132     0.0006967   -0.0002736     0.0000072    0.0000917     0.0005685    0.0004258 
   0.039559880     0.3395432   -0.4824307    -0.0005303    0.0001628    -0.0002325    0.0001609     0.0003114    0.0001200 
   0.039659905     0.3345764   -0.4820256     0.0000887    0.0001997    -0.0000839    0.0001229    -0.0000840    0.0008748 
   0.039759930     0.3336488   -0.4830529     0.0000412   -0.0002517    -0.0000339   -0.0001270     0.0002174    0.0005309 
   0.039859955     0.3341230   -0.4799226     0.0005423   -0.0000831    -0.0000524   -0.0000651     0.0005211   -0.0002962 
   0.039959980     0.3332186   -0.4834567     0.0002427   -0.0005056    -0.0001070   -0.0002012     0.0006042    0.0000955 
   0.040060005     0.3308286   -0.4847584     0.0001080   -0.0003563     0.0002627    0.0000012     0.0001812    0.0009561 
   0.040160030     0.3296035   -0.4805508    -0.0003163   -0.0002862     0.0001294    0.0000453     0.0003576    0.0005679 
   0.040260055     0.3292569   -0.4783068     0.0003966   -0.0001852    -0.0000207   -0.0000848     0.0004358    0.0004897 
   0.040360080     0.3243853   -0.4774449    -0.0001900   -0.0000166    -0.0001869   -0.0000720     0.0000912    0.0007291 
   0.040460105     0.3288755   -0.4830649    -0.0001885   -0.0003662    -0.0001461    0.0001177     0.0004719    0.0005727 
   0.040560130     0.3252378   -0.4765584     0.0002227   -0.0000432    -0.0002102   -0.0000745     0.0002735    0.0003767 
   0.040660155     0.3249959   -0.4837557     0.0000601   -0.0001520    -0.0001361    0.0000181     0.0000162    0.0002127 
   0.040760180     0.3230497   -0.4727404     0.0003989    0.0004805     0.0000130   -0.0001269     0.0001664    0.0004385 
   0.040860205     0.3204678   -0.4763683    -0.0006461   -0.0001205     0.0000305    0.0000845     0.0004044    0.0008182 
   0.040960230     0.3217047   -0.4772440    -0.0001021    0.0002216    -0.0000888   -0.0000889     0.0006317    0.0006021 
   0.041060255     0.3224012   -0.4796350     0.0002395   -0.0002993    -0.0000068   -0.0000248     0.0002028    0.0005022 
   0.041160280     0.3179072   -0.4792456     0.0001515    0.0002071    -0.0001410   -0.0000988     0.0002246    0.0006590 
   0.041260305     0.3171835   -0.4749886    -0.0000539    0.0001266    -0.0000670    0.0001268     0.0004884    0.0004579 
   0.041360330     0.3161755   -0.4787403     0.0001285   -0.0001093    -0.0001170    0.0000711     0.0003578    0.0000664 
   0.041460355     0.3131060   -0.4740884     0.0001224    0.0001313    -0.0001113   -0.0000307     0.0000840    0.0001700 
   0.041560380     0.3175237   -0.4700280     0.0001642   -0.0003229    -0.0000149    0.0000058     0.0006490    0.0003601 
   0.041660405     0.3140833   -0.4769966    -0.0001148   -0.0003318     0.0000070    0.0000055     0.0003567    0.0004301 
   0.041760430     0.3098704   -0.4728170    -0.0004798    0.0001903    -0.0000991   -0.0000555     0.0007774    0.0003783 
   0.041860455     0.3092419   -0.4756940     0.0008034    0.0002270     0.0000511    0.0000449     0.0002195   -0.0001482 
   0.041960480     0.3078841   -0.4752644     0.0001193   -0.0005234     0.0000644   -0.0000057     0.0005063    0.0000976 
   0.042060505     0.3103909   -0.4712270     0.0006155   -0.0001793     0.0000759   -0.0001496    -0.0001482    0.0006516 
   0.042160530     0.3037188   -0.4715968    -0.0001701    0.0002175     0.0000274    0.0000812     0.0000859    0.0001367 
   0.042260555     0.3007797   -0.4707273     0.0002784   -0.0000185    -0.0001161    0.0000391     0.0006218    0.0009506 
   0.042360580     0.3062492   -0.4673533    -0.0004816   -0.0000665    -0.0000904   -0.0000633     0.0001714    0.0004232 
   0.042460605     0.3006199   -0.4706668    -0.0002173   -0.0003001     0.0000424    0.0000404     0.0001594    0.0007730 
   0.042560630     0.2986283   -0.4764090     0.0003023    0.0001567     0.0000573    0.0001574     0.0003968    0.0000232 
   0.042660655     0.2993112   -0.4708629    -0.0002978   -0.0000999    -0.0001335   -0.0002327     0.0003464    0.0009854 
   0.042760680     0.3007583   -0.4666681    -0.0004719    0.0001884     0.0002076   -0.0000369     0.0002803   -0.0001734 
   0.042860705     0.2973011   -0.4727897     0.0005010    0.0000566     0.0000849   -0.0000070     0.0006347    0.0004757 
   0.042960730     0.2954672   -0.4697218     0.0001977   -0.0007132     0.0000957   -0.0000070     0.0006256    0.0001192 
   0.043060755     0.2940123   -0.4681125     0.0006059    0.0001903    -0.0000981   -0.0000427     0.0001769    0.0000603 
   0.043160780     0.2954170   -0.4680896     0.0005573   -0.0001581    -0.0000535   -0.0001305     0.0003650    0.0003973 
   0.043260805     0.2955793   -0.4722356    -0.0002143   -0.0001256    -0.0001375    0.0000576     0.0002174    0.0006692 
   0.043360830     0.2963631   -0.4644631     0.0000334   -0.0002711    -0.0000847   -0.0000432    -0.0001066    0.0009382 
   0.043460855     0.2947506   -0.4630074     0.0001628    0.0004174    -0.0001132   -0.0000619     0.0000573    0.0001989 
   0.043560880     0.2932643   -0.4650314     0.0006238   -0.0001593    -0.0001959   -0.0000543     0.0003682    0.0010065 
   0.043660905     0.2941402   -0.4650375     0.0007436    0.0003463     0.0001390    0.0000988     0.0003383    0.0008155 
   0.043760930     0.2877570   -0.4686276     0.0000228   -0.0004070    -0.0000162   -0.0000231     0.0006367    0.0004676 
   0.043860955     0.2898381   -0.4637721     0.0004461   -0.0004505     0.0001728    0.0000792     0.0003332    0.0000103 
   0.043960980     0.2869509   -0.4600172    -0.0001234    0.0002804     0.0000064    0.0000317    -0.0003180    0.0008834 
   0.044061006     0.2935353   -0.4621263    -0.0001660   -0.0009975     0.0000021    0.0000143     0.0003904    0.0000494 
   0.044161031     0.2851553   -0.4673547     0.0003217   -0.0001776    -0.0000654   -0.0000075     0.0000637    0.0001158 
   0.044261056     0.2836251   -0.4640428    -0.0001445   -0.0000122     0.0000904    0.0000708     0.0001614    0.0002411 
   0.044361081     0.2830782   -0.4611660    -0.0005455   -0.0003390    -0.0000043   -0.0001256     0.0002482    0.0004260 
   0.044461106     0.2866467   -0.4611194    -0.0001063   -0.0000481     0.0000498   -0.0000358     0.0000643    0.0006770 
   0.044561131     0.2834160   -0.4639997    -0.0002523    0.0006486     0.0001056   -0.0001184     0.0000981    0.0004728 
   0.044661156     0.2830453   -0.4621188    -0.0001823   -0.0002052     0.0001245    0.0000934     0.0006475    0.0003333 
   0.044761181     0.2831880   -0.4592586    -0.0006722    0.0000030    -0.0001282    0.0000716     0.0004351    0.0002032 
   0.044861206     0.2803080   -0.4597885     0.0002726   -0.0003339    -0.0000357   -0.0000912     0.0007567    0.0003121 
   0.044961231     0.2772547   -0.4605139    -0.0006072    0.0002331     0.0000446   -0.0002024    -0.0005273    0.0003036 
   0.045061256     0.2757869   -0.4598362     0.0001400    0.0007515    -0.0000255   -0.0001237     0.0002171    0.0004726 
   0.045161281     0.2778027   -0.4570518     0.0000994   -0.0002469    -0.0000829   -0.0001909     0.0006582    0.0003550 
   0.045261306     0.2763323   -0.4593031     0.0003042   -0.0002492     0.0001046    0.0000172     0.0001366    0.0001532 
   0.045361331     0.2733797   -0.4611960     0.0000051    0.0003060     0.0001593   -0.0000432     0.0005793    0.0002050 
   0.045461356     0.2702949   -0.4578373    -0.0001536   -0.0000883    -0.0002550    0.0000533     0.0003227   -0.0000100 
   0.045561381     0.2701740   -0.4583489     0.0001482   -0.0003211    -0.0000424   -0.0000996     0.0002396    0.0011469 
   0.045661406     0.2720424   -0.4595824     0.0000395    0.0000200     0.0000174   -0.0000831     0.0004688    0.0003673 
   0.045761431     0.2731665   -0.4574267     0.0001745   -0.0007273     0.0000845   -0.0000583     0.0000618    0.0005811 
   0.045861456     0.2712969   -0.4547202    -0.0004593   -0.0000906    -0.0001041   -0.0001963    -0.0000128    0.0007114 
   0.045961481     0.2687671   -0.4541172    -0.0001946    0.0001641    -0.0000638   -0.0001881    -0.0001479    0.0004082 
   0.046061506     0.2689860   -0.4557291    -0.0004347    0.0002504    -0.0001091   -0.0001194     0.0006203   -0.0002837 
   0.046161531     0.2652761   -0.4516558    -0.0005170   -0.0001388    -0.0002166   -0.0000936     0.0006736    0.0001971 
   0.046261556     0.2652315   -0.4573233    -0.0002449    0.0001870     0.0000809   -0.0000723     0.0002475    0.0004673 
   0.046361581     0.2649286   -0.4507087    -0.0001734   -0.0004332    -0.0000236    0.0000661     0.0004651   -0.0000513 
   0.046461606     0.2635630   -0.4561266    -0.0005270   -0.0002520    -0.0000490    0.0000324     0.0005716    0.0004469 
   0.046561631     0.2593599   -0.4535461    -0.0000236    0.0005784    -0.0000174   -0.0000563    -0.0000582    0.0005594 
   0.046661656     0.2610807   -0.4546031    -0.0000858   -0.0007251     0.0000595   -0.0001127     0.0000878    0.0002900 
   0.046761681     0.2623408   -0.4488111     0.0000404   -0.0004627     0.0000643   -0.0000060     0.0000694   -0.0000827 
   0.046861706     0.2603916   -0.4548684     0.0003583   -0.0001913     0.0000005    0.0000020     0.0002894    0.0002831 
   0.046961731     0.2623804   -0.4509711    -0.0001173   -0.0003638    -0.0002202   -0.0002488     0.0004677    0.0005433 
   0.047061756     0.2619068   -0.4488044     0.0002361    0.0000357    -0.0001295    0.0000800     0.0004041    0.0004582 
   0.047161781     0.2580956   -0.4544471    -0.0007522   -0.0008205     0.0000289   -0.0000632     0.0003737    0.0004668 
   0.047261806     0.2570792   -0.4513656     0.0003384   -0.0004669     0.0000415    0.0001208     0.0000094    0.0000379 
   0.047361831     0.2586301   -0.4482837    -0.0003866   -0.0010297     0.0000462    0.0000476     0.0005878    0.0005208 
   0.047461856     0.2552812   -0.4489433     0.0003451    0.0003282     0.0000206    0.0001922     0.0001285    0.0002350 
   0.047561881     0.2595472   -0.4460218     0.0000586    0.0000544     0.0000896   -0.0002352     0.0004300    0.0004889 
   0.047661906     0.2561159   -0.4465034     0.0003993   -0.0008306     0.0002321   -0.0000045     0.0005361   -0.0000101 
   0.047761931     0.2534878   -0.4465424    -0.0003367    0.0001260     0.0000261    0.0001356     0.0006927    0.0001662 
   0.047861956     0.2527499   -0.4465905    -0.0002844    0.0000143     0.0000788    0.0000746     0.0001887    0.0005652 
   0.047961981     0.2486612   -0.4472740     0.0000404   -0.0004445    -0.0002257   -0.0000536     0.0002236    0.0000634 
   0.048062006     0.2515450   -0.4483038    -0.0002968    0.0002802     0.0000619    0.0000022    -0.0000115    0.0004776 
   0.048162031     0.2501878   -0.4480947     0.0004396   -0.0002708     0.0000062    0.0000184     0.0003002    0.0005330 
   0.048262056     0.2482885   -0.4456804    -0.0002260    0.0003013     0.0001731   -0.0002237     0.0004742    0.0002574 
   0.048362081     0.2483857   -0.4422981     0.0002253   -0.0002856    -0.0000783    0.0001126     0.0005639    0.0000361 
   0.048462106     0.2473008   -0.4416243     0.0000643   -0.0004853     0.0000536   -0.0002068     0.0004849    0.0003494 
   0.048562131     0.2451554   -0.4442951     0.0001696    0.0001294     0.0000177    0.0000942    -0.0000334    0.0000702 
   0.048662156     0.2436110   -0.4404077    -0.0003855   -0.0001798    -0.0002871   -0.0000020     0.0009679    0.0004968 
   0.048762181     0.2469678   -0.4404099    -0.0003942    0.0001135     0.0000267    0.0000787     0.0002079    0.0006315 
   0.048862206     0.2403883   -0.4460253     0.0005890    0.0001014     0.0000710   -0.0000395     0.0006049   -0.0001680 
   0.048962231     0.2437552   -0.4387810    -0.0002209   -0.0001027     0.0002466    0.0000440     0.0000959    0.0001074 
   0.049062256     0.2408653   -0.4410220     0.0001338    0.0008002     0.0000096   -0.0000157    -0.0000604    0.0000290 
   0.049162281     0.2404456   -0.4397447     0.0009254    0.0001177     0.0000593   -0.0001278    -0.0001831    0.0001935 
   0.049262306     0.2430112   -0.4403771     0.0003314   -0.0004777     0.0000396    0.0000486     0.0003980    0.0002593 
   0.049362331     0.2381415   -0.4401252    -0.0015648    0.0006052     0.0002109    0.0002082     0.0002314    0.0005941 
   0.049462356     0.2370651   -0.4413960    -0.0000493    0.0002001     0.0000663    0.0000425     0.0004387    0.0005611 
   0.049562381     0.2376684   -0.4365009    -0.0001094    0.0002717    -0.0001236    0.0001340     0.0005562    0.0001682 
   0.049662406     0.2382078   -0.4406109     0.0008727   -0.0002047    -0.0000592    0.0000449     0.0005384    0.0003419 
   0.049762431     0.2372755   -0.4441239     0.0003675    0.0002122    -0.0000867   -0.0000432     0.0000127    0.0005888 
   0.049862456     0.2340799   -0.4409825     0.0000042   -0.0002362    -0.0001358   -0.0002347     0.0001586    0.0003928 
   0.049962481     0.2367745   -0.4407094    -0.0000043   -0.0004199    -0.0000652   -0.0000560     0.0000979    0.0003210 
   0.050062506     0.2342243   -0.4385031    -0.0006981    0.0004332     0.0000128   -0.0000039     0.0007586    0.0005508 
   0.050162531     0.2333155   -0.4344404    -0.0001392    0.0009737     0.0001877   -0.0001346     0.0001040    0.0008116 
   0.050262556     0.2350358   -0.4390903    -0.0001719   -0.0000458    -0.0002900    0.0000771     0.0002766    0.0005216 
   0.050362581     0.2299139   -0.4355394    -0.0002077    0.0001152     0.0000377    0.0000380     0.0002413    0.0004010 
   0.050462606     0.2293169   -0.4356358     0.0003208    0.0005890    -0.0001192    0.0001855     0.0004340    0.0003716 
   0.050562631     0.2264446   -0.4337917    -0.0000712   -0.0006441    -0.0001329    0.0001495     0.0003272    0.0004071 
   0.050662656     0.2298386   -0.4344271     0.0001537   -0.0002228     0.0001253    0.0000492     0.0003136    0.0002545 
   0.050762681     0.2265144   -0.4291319     0.0001750   -0.0002787     0.0001084    0.0000543     0.0004646    0.0000007 
   0.050862706     0.2305000   -0.4355293    -0.0001194    0.0011102    -0.0000076    0.0000466     0.0004018    0.0003757 
   0.050962731     0.2240337   -0.4334960    -0.0000760    0.0002335    -0.0000826   -0.0001806     0.0003994    0.0002507 
   0.051062756     0.2263606   -0.4359737    -0.0005906    0.0008546     0.0001853   -0.0000932    -0.0000833    0.0002717 
   0.051162781     0.2245538   -0.4316848     0.0002516    0.0005528    -0.0001045    0.0000454     0.0006186    0.0000627 
   0.051262806     0.2236505   -0.4347961    -0.0000759   -0.0001724     0.0001060   -0.0000033    -0.0003129    0.0002736 
   0.051362831     0.2207927   -0.4325357     0.0000935    0.0003466    -0.0001274    0.0001462     0.0002153    0.0002679 
   0.051462856     0.2244457   -0.4325148     0.0003135   -0.0012079    -0.0000234    0.0001224     0.0005783    0.0003333 
   0.051562881     0.2216349   -0.4368772    -0.0001850    0.0013132     0.0000823    0.0001248    -0.0000481    0.0001744 
   0.051662906     0.2228442   -0.4337423     0.0001196   -0.0002864     0.0002609    0.0000065     0.0002838   -0.0002114 
   0.051762931     0.2209595   -0.4319543     0.0000412    0.0003136    -0.0002462   -0.0002211    -0.0000186   -0.0001609 
   0.051862956     0.2175546   -0.4343853     0.0001224   -0.0001867     0.0001338    0.0002156     0.0004179    0.0006398 
   0.051962981     0.2203892   -0.4271875     0.0005130   -0.0000905     0.0000549   -0.0002443     0.0006770   -0.0001668 
   0.052063007     0.2190973   -0.4262098     0.0003436   -0.0001907    -0.0001973   -0.0000833     0.0000276    0.0001710 
   0.052163032     0.2192843   -0.4303519     0.0006451   -0.0006670     0.0000738   -0.0000209     0.0004677    0.0002575 
   0.052263057     0.2169602   -0.4317028     0.0001351   -0.0001270    -0.0002016   -0.0001845     0.0002859    0.0005945 
   0.052363082     0.2172842   -0.4310397     0.0000273   -0.0000559    -0.0001414    0.0001114     0.0002819   -0.0000057 
   0.052463107     0.2167027   -0.4320028     0.0003717    0.0002191     0.0000712    0.0000404     0.0005273    0.0004958 
   0.052563132     0.2142095   -0.4278014     0.0001924   -0.0003464    -0.0000770   -0.0000294     0.0006000    0.0000983 
   0.052663157     0.2164545   -0.4236307    -0.0005837    0.0003201     0.0001161    0.0000738    -0.0002930    0.0002949 
   0.052763182     0.2140824   -0.4253543     0.0006872   -0.0003087    -0.0001597   -0.0001407    -0.0001966    0.0000712 
   0.052863207     0.2136905   -0.4275311     0.0001996   -0.0004643     0.0002018   -0.0000559     0.0001713    0.0004543 
   0.052963232     0.2119979   -0.4222199    -0.0002784    0.0006116     0.0001070    0.0001393     0.0005892    0.0003707 
   0.053063257     0.2099968   -0.4266483     0.0001411   -0.0001451     0.0000105    0.0001633     0.0003341    0.0004835 
   0.053163282     0.2088841   -0.4253955    -0.0000239   -0.0001702    -0.0000601    0.0000166     0.0001298    0.0000962 
   0.053263307     0.2117177   -0.4258255     0.0002088   -0.0004814     0.0001502    0.0000591     0.0005203    0.0001829 
   0.053363332     0.2073141   -0.4212406    -0.0000437    0.0003293     0.0000459   -0.0001261    -0.0000920    0.0003369 
   0.053463357     0.2070327   -0.4227255     0.0004535   -0.0001767    -0.0000610    0.0002521     0.0000647    0.0004350 
   0.053563382     0.2110865   -0.4229525    -0.0004551   -0.0001413     0.0000121    0.0002502     0.0004960    0.0000653 
   0.053663407     0.2078124   -0.4180861     0.0008474   -0.0005621     0.0000833    0.0002209     0.0004547    0.0003018 
   0.053763432     0.2064130   -0.4179389     0.0001893    0.0003658    -0.0001031    0.0000052     0.0006704    0.0006340 
   0.053863457     0.2060401   -0.4199330     0.0003940   -0.0003184    -0.0000169    0.0000589    -0.0005145    0.0001060 
   0.053963482     0.2031134   -0.4175428    -0.0004275    0.0004251    -0.0001349   -0.0002257     0.0006411   -0.0000607 
   0.054063507     0.2020339   -0.4207780     0.0005146    0.0000796     0.0002172    0.0003105     0.0004241    0.0002633 
   0.054163532     0.1991323   -0.4153784     0.0010806    0.0007300     0.0000236   -0.0000117     0.0001237    0.0007483 
   0.054263557     0.2023236   -0.4221356    -0.0005463   -0.0002010    -0.0000684    0.0002631    -0.0001936    0.0003264 
   0.054363582     0.1999219   -0.4161835    -0.0007365    0.0008676     0.0001273    0.0000517     0.0001467   -0.0002032 
   0.054463607     0.1983708   -0.4172005    -0.0001176   -0.0009511     0.0001155   -0.0000318     0.0001763    0.0000914 
   0.054563632     0.1992501   -0.4177810     0.0009086   -0.0006390    -0.0000089   -0.0000474     0.0001903    0.0001835 
   0.054663657     0.1991739   -0.4146726     0.0003250    0.0003874     0.0001055   -0.0000841     0.0003070    0.0002646 
   0.054763682     0.2013574   -0.4171599     0.0001753    0.0002147     0.0000863    0.0002317     0.0003695    0.0001140 
   0.054863707     0.1978417   -0.4172235    -0.0010385   -0.0001138    -0.0000734    0.0000598     0.0003633    0.0003846 
   0.054963732     0.2003447   -0.4144234    -0.0000232   -0.0004685    -0.0000008   -0.0000754     0.0005696    0.0002735 
   0.055063757     0.1967948   -0.4128985    -0.0003783    0.0002010     0.0000515   -0.0001888     0.0003215    0.0004749 
   0.055163782     0.1931579   -0.4172049    -0.0002646    0.0005106    -0.0000293    0.0001135     0.0000286    0.0001977 
   0.055263807     0.1963712   -0.4169144     0.0001738   -0.0002363     0.0001151   -0.0001306     0.0006928    0.0004939 
   0.055363832     0.1988376   -0.4119090     0.0001973   -0.0003407     0.0000608    0.0002247     0.0004796    0.0002566 
   0.055463857     0.1951330   -0.4179817    -0.0007395    0.0007424    -0.0001490    0.0001451     0.0005594    0.0002096 
   0.055563882     0.1941346   -0.4135201     0.0003747    0.0002576    -0.0001316    0.0002418     0.0007062    0.0006641 
   0.055663907     0.1907678   -0.4097569     0.0001312    0.0002264     0.0000803   -0.0001390     0.0003082    0.0001685 
   0.055763932     0.1935530   -0.4110214    -0.0000963   -0.0000689    -0.0002529   -0.0001000    -0.0000051   -0.0000120 
   0.055863957     0.1928611   -0.4120517     0.0001220    0.0007243     0.0002804    0.0001905     0.0003814    0.0001059 
   0.055963982     0.1887886   -0.4086532    -0.0003978    0.0007626     0.0000857    0.0000325    -0.0000574    0.0004977 
   0.056064007     0.1908781   -0.4050524     0.0000117    0.0007723     0.0000141    0.0000747     0.0006802    0.0005348 
   0.056164032     0.1947698   -0.4089448    -0.0001418    0.0000863     0.0002843    0.0001320     0.0003783    0.0002730 
   0.056264057     0.1937690   -0.4082100    -0.0002972   -0.0002281     0.0000804    0.0001031     0.0000143    0.0003665 
   0.056364082     0.1891515   -0.4083471    -0.0004095    0.0000245    -0.0000353   -0.0001441     0.0003423   -0.0001657 
   0.056464107     0.1838073   -0.4069546    -0.0004944   -0.0000550    -0.0001381   -0.0000260     0.0001740    0.0002072 
   0.056564132     0.1887856   -0.4056459    -0.0003061   -0.0000101     0.0000823   -0.0000162     0.0004091    0.0002638 
   0.056664157     0.1839051   -0.4087035     0.0012073    0.0010951     0.0002322    0.0001564     0.0000911    0.0006456 
   0.056764182     0.1847358   -0.4065374    -0.0000599    0.0003355    -0.0001526   -0.0000339     0.0005715    0.0000580 
   0.056864207     0.1870244   -0.4087185     0.0001145   -0.0000167     0.0000366    0.0000246     0.0002305    0.0002933 
   0.056964232     0.1840429   -0.4065852    -0.0005175    0.0002544    -0.0001108   -0.0000136     0.0002404    0.0001267 
   0.057064257     0.1862268   -0.4035320     0.0000327   -0.0005445    -0.0000099   -0.0002201     0.0003333    0.0000954 
   0.057164282     0.1852816   -0.4076396    -0.0000994    0.0004568     0.0000985   -0.0001936    -0.0000028    0.0002375 
   0.057264307     0.1792809   -0.4052193    -0.0000364    0.0008863    -0.0000989   -0.0000930     0.0007354   -0.0002044 
   0.057364332     0.1844505   -0.4063028    -0.0002612   -0.0003307    -0.0000130    0.0003909     0.0000013   -0.0000017 
   0.057464357     0.1832173   -0.4093923     0.0000473    0.0002303    -0.0001070    0.0001712     0.0002497   -0.0000446 
   0.057564382     0.1858799   -0.4041763     0.0005921    0.0000440    -0.0000135   -0.0000769     0.0008897    0.0004336 
   0.057664407     0.1788425   -0.4008749    -0.0001266    0.0003270     0.0001827    0.0000124     0.0007400    0.0006382 
   0.057764432     0.1778135   -0.3994355     0.0001437    0.0002052    -0.0002506    0.0002636     0.0005191   -0.0000757 
   0.057864457     0.1783372   -0.4017956    -0.0000456    0.0001960     0.0001455    0.0001936     0.0004128    0.0002882 
   0.057964482     0.1792960   -0.3964928    -0.0004712    0.0005968     0.0000228    0.0000996     0.0002336   -0.0000002 
   0.058064507     0.1800836   -0.4014825    -0.0002911    0.0000619    -0.0000764   -0.0000351     0.0006991    0.0001169 
   0.058164532     0.1771010   -0.4020473    -0.0001759    0.0000110     0.0000488   -0.0001302     0.0003162    0.0005608 
   0.058264557     0.1775279   -0.3995415    -0.0003684   -0.0003079     0.0000975    0.0000079    -0.0001971    0.0001162 
   0.058364582     0.1751274   -0.3967803     0.0000622   -0.0003679     0.0000524    0.0000243     0.0001401    0.0002028 
   0.058464607     0.1740946   -0.3962043     0.0005471    0.0005944     0.0004563    0.0002383     0.0002410    0.0002352 
   0.058564632     0.1784981   -0.4017057     0.0002388   -0.0000015     0.0000789    0.0000844     0.0005398    0.0003344 
   0.058664657     0.1736389   -0.3983691    -0.0000467    0.0001569     0.0001794   -0.0000773     0.0000832    0.0002827 
   0.058764682     0.1751618   -0.3938754     0.0001507    0.0005363    -0.0001265   -0.0001900     0.0002125    0.0005745 
   0.058864707     0.1760630   -0.4016191    -0.0000224    0.0004394     0.0000996   -0.0000433     0.0005509    0.0004545 
   0.058964732     0.1719964   -0.3910584    -0.0001991   -0.0005962    -0.0000815   -0.0001593     0.0004843   -0.0000030 
   0.059064757     0.1689987   -0.3990152    -0.0007619    0.0003091     0.0000960    0.0001779     0.0008079    0.0000445 
   0.059164782     0.1765235   -0.3976376    -0.0002038    0.0006167     0.0002524   -0.0000445    -0.0000386   -0.0002858 
   0.059264807     0.1692602   -0.3931836    -0.0004920    0.0007248    -0.0001641   -0.0003204     0.0003713    0.0000298 
   0.059364832     0.1662377   -0.3926839    -0.0003955    0.0004981    -0.0000465   -0.0000838     0.0007746   -0.0000904 
   0.059464857     0.1731572   -0.3921092     0.0004769   -0.0000006    -0.0001401    0.0000407     0.0001663   -0.0003815 
   0.059564882     0.1701501   -0.3926778    -0.0001064    0.0002403     0.0000036    0.0001225     0.0003590   -0.0000143 
   0.059664907     0.1666651   -0.3971470    -0.0003888    0.0003902     0.0001770    0.0003641    -0.0000403    0.0000503 
   0.059764932     0.1698496   -0.3908960     0.0001322    0.0002119     0.0000139   -0.0000144    -0.0001213   -0.0000717 
   0.059864957     0.1702821   -0.3921905    -0.0000028    0.0002953    -0.0000847   -0.0002507     0.0002704    0.0000284 
   0.059964982     0.1686690   -0.3926048     0.0002873    0.0005892    -0.0000447    0.0000036     0.0004517    0.0003154 
   0.060065008     0.1643689   -0.3916437     0.0003652   -0.0001378    -0.0001771   -0.0001479    -0.0000114   -0.0005944 
   0.060165033     0.1645270   -0.3914296     0.0000358   -0.0001394     0.0000230    0.0003575     0.0008388   -0.0000711 
   0.060265058     0.1690157   -0.3911502     0.0003311   -0.0005804    -0.0002119   -0.0001606    -0.0002059    0.0001631 
   0.060365083     0.1629692   -0.3895704     0.0004724    0.0003589    -0.0000124    0.0001672     0.0006668    0.0003467 
   0.060465108     0.1661677   -0.3953585     0.0001270   -0.0000818     0.0000553    0.0000489     0.0003818   -0.0000218 
   0.060565133     0.1640678   -0.3876736     0.0000163   -0.0000295     0.0001435   -0.0000204    -0.0003541   -0.0000812 
   0.060665158     0.1648800   -0.3942128     0.0004839    0.0001967    -0.0000471    0.0001180     0.0004243   -0.0000932 
   0.060765183     0.1632582   -0.3880884    -0.0006591    0.0000904     0.0001106    0.0001463     0.0003352    0.0002100 
   0.060865208     0.1648493   -0.3887545     0.0000009    0.0004094    -0.0000933   -0.0000627     0.0003543    0.0004558 
   0.060965233     0.1604068   -0.3876344    -0.0011971   -0.0000987    -0.0000589    0.0002283     0.0005630   -0.0002727 
   0.061065258     0.1618499   -0.3847039     0.0009365   -0.0001187     0.0001469    0.0000512     0.0004668    0.0005902 
   0.061165283     0.1619942   -0.3831101    -0.0003684    0.0001320     0.0001992   -0.0001734     0.0002893    0.0002341 
   0.061265308     0.1576755   -0.3839797    -0.0002053   -0.0000832    -0.0003219    0.0000676     0.0001083    0.0002874 
   0.061365333     0.1653735   -0.3838566     0.0005111   -0.0001508     0.0002139    0.0001927     0.0002629    0.0003960 
   0.061465358     0.1597653   -0.3853334     0.0000939    0.0004071     0.0001169   -0.0002918     0.0001094    0.0001097 
   0.061565383     0.1585198   -0.3828695     0.0002875    0.0001430     0.0000905    0.0002510     0.0003239    0.0000019 
   0.061665408     0.1624569   -0.3861358     0.0000276    0.0000296    -0.0000720    0.0000602     0.0001819    0.0003334 
   0.061765433     0.1578050   -0.3892906    -0.0002669    0.0004391    -0.0003027   -0.0001822     0.0002670    0.0002295 
   0.061865458     0.1585310   -0.3824201     0.0003008    0.0001660     0.0003658   -0.0000653     0.0005874    0.0006346 
   0.061965483     0.1610915   -0.3850709    -0.0004649   -0.0000130     0.0001256    0.0000808     0.0005965    0.0002332 
   0.062065508     0.1565410   -0.3852498     0.0000287    0.0000844    -0.0001314    0.0000614     0.0001329    0.0001873 
   0.062165533     0.1540650   -0.3814630    -0.0001822   -0.0001724     0.0001539    0.0003354    -0.0001961    0.0002559 
   0.062265558     0.1550212   -0.3824984     0.0003416    0.0005380    -0.0001463    0.0001875     0.0003257    0.0000820 
   0.062365583     0.1558401   -0.3810401    -0.0004525   -0.0006003     0.0000654   -0.0000341    -0.0003065    0.0000971 
   0.062465608     0.1566735   -0.3815556    -0.0000653   -0.0000421    -0.0001460   -0.0005020     0.0004430    0.0002394 
   0.062565633     0.1480619   -0.3821885    -0.0002017   -0.0000753    -0.0000358   -0.0000078     0.0003839   -0.0003870 
   0.062665658     0.1555925   -0.3770813     0.0003060    0.0005678    -0.0000426   -0.0000981     0.0001110    0.0000606 
   0.062765683     0.1540545   -0.3821372    -0.0005153   -0.0001435    -0.0000699   -0.0001569     0.0003147   -0.0001212 
   0.062865708     0.1536333   -0.3851079     0.0000595   -0.0001809     0.0000140    0.0000585     0.0003569   -0.0000806 
   0.062965733     0.1543008   -0.3801307    -0.0002723   -0.0013830    -0.0001642   -0.0002289     0.0001655   -0.0000171 
   0.063065758     0.1545586   -0.3837130    -0.0002446   -0.0005429    -0.0001024   -0.0000495     0.0005379   -0.0000104 
   0.063165783     0.1548358   -0.3790408     0.0003181    0.0003483     0.0000444    0.0001567     0.0001978    0.0000844 
   0.063265808     0.1515634   -0.3809830     0.0001772   -0.0003444     0.0000558    0.0000374     0.0004452    0.0001023 
   0.063365833     0.1512441   -0.3790530    -0.0001172   -0.0002207     0.0003390    0.0000331     0.0004130    0.0001407 
   0.063465858     0.1512033   -0.3745317    -0.0004489   -0.0000346    -0.0002280    0.0000220     0.0005038    0.0001975 
   0.063565883     0.1480714   -0.3737130    -0.0007147   -0.0001718     0.0002935    0.0001049     0.0000186   -0.0001175 
   0.063665908     0.1470874   -0.3781610    -0.0003595   -0.0001414     0.0003443    0.0002504     0.0000902    0.0003442 
   0.063765933     0.1487078   -0.3762248     0.0002551    0.0006532    -0.0000040   -0.0002314     0.0004695   -0.0000131 
   0.063865958     0.1478965   -0.3776123    -0.0005707    0.0006974    -0.0001094   -0.0001039     0.0003878    0.0003254 
   0.063965983     0.1477351   -0.3728576    -0.0003907    0.0002773     0.0000413   -0.0002509     0.0003423    0.0003567 
   0.064066008     0.1449494   -0.3705304     0.0002153   -0.0002416     0.0001076   -0.0003182     0.0006495    0.0000730 
   0.064166033     0.1507466   -0.3792650     0.0000565    0.0004055     0.0000264   -0.0000387     0.0005053    0.0000544 
   0.064266058     0.1437100   -0.3755429    -0.0001271   -0.0000132    -0.0001048   -0.0000644     0.0001799    0.0002026 
   0.064366083     0.1480449   -0.3655012    -0.0001316   -0.0001032    -0.0000570   -0.0002333     0.0007491   -0.0000477 
   0.064466108     0.1486584   -0.3719366    -0.0002374   -0.0000303    -0.0002273    0.0001529     0.0002121    0.0003439 
   0.064566133     0.1430214   -0.3725195    -0.0001829    0.0007968     0.0000425    0.0001644     0.0009848    0.0005184 
   0.064666158     0.1451845   -0.3738057     0.0003780    0.0003593    -0.0000012    0.0002278     0.0006299    0.0001076 
   0.064766183     0.1436546   -0.3696823     0.0001844    0.0002735    -0.0000363   -0.0000298     0.0003517    0.0001901 
   0.064866208     0.1474735   -0.3721240     0.0000587   -0.0004084     0.0002223    0.0001620     0.0003398    0.0001553 
   0.064966233     0.1443712   -0.3695106     0.0006167   -0.0004239     0.0000873    0.0000308     0.0000970    0.0005222 
   0.065066258     0.1452282   -0.3699931    -0.0003746   -0.0002616     0.0000641    0.0000277     0.0003944   -0.0002403 
   0.065166283     0.1423790   -0.3676241     0.0009031    0.0000746     0.0000618    0.0000452     0.0003775   -0.0001007 
   0.065266308     0.1435893   -0.3693767     0.0001256    0.0004936     0.0001018   -0.0000659     0.0004269   -0.0001629 
   0.065366333     0.1436916   -0.3632964     0.0004506    0.0000896     0.0002849    0.0000458     0.0008113   -0.0000254 
   0.065466358     0.1382572   -0.3665750    -0.0002058    0.0002406    -0.0001575    0.0000461     0.0002629    0.0002480 
   0.065566383     0.1389669   -0.3685281    -0.0007143    0.0001687     0.0000116   -0.0000788     0.0002052   -0.0002672 
   0.065666408     0.1403962   -0.3686142    -0.0000611   -0.0003575    -0.0001443    0.0002210     0.0003636   -0.0006743 
   0.065766433     0.1416404   -0.3615862    -0.0004162   -0.0000696     0.0001094   -0.0000498     0.0004897    0.0001050 
   0.065866458     0.1400542   -0.3682059     0.0003312    0.0009568     0.0000667   -0.0000808     0.0006177    0.0001492 
   0.065966483     0.1416061   -0.3631841     0.0004542    0.0001145     0.0001135    0.0000865     0.0004771    0.0003800 
   0.066066508     0.1367425   -0.3684328     0.0001206    0.0003325     0.0005662    0.0002474     0.0002871    0.0002764 
   0.066166533     0.1371517   -0.3634997     0.0006203   -0.0007004     0.0001079   -0.0001521    -0.0000780    0.0001660 
   0.066266558     0.1358372   -0.3682365    -0.0004267    0.0001488    -0.0001376   -0.0002103     0.0004691    0.0001331 
   0.066366583     0.1354993   -0.3637425    -0.0005584   -0.0004641     0.0000396    0.0000267     0.0006004   -0.0000138 
   0.066466608     0.1381209   -0.3617085    -0.0004120    0.0001374    -0.0000392   -0.0002050     0.0005680   -0.0001699 
   0.066566633     0.1355302   -0.3633980    -0.0005929   -0.0000722    -0.0005514   -0.0000902     0.0005064    0.0000224 
   0.066666658     0.1355133   -0.3571071    -0.0004281    0.0001221    -0.0000547    0.0000762     0.0004522   -0.0001491 
   0.066766683     0.1380367   -0.3638446    -0.0004469    0.0010442     0.0003881   -0.0001523     0.0005997    0.0000500 
   0.066866708     0.1390755   -0.3659167     0.0009124   -0.0005697    -0.0001338    0.0001563     0.0001043    0.0002018 
   0.066966733     0.1331778   -0.3640544     0.0006805   -0.0005043     0.0002008   -0.0000663     0.0004411   -0.0002659 
   0.067066758     0.1340705   -0.3646837    -0.0001992   -0.0003502     0.0001676   -0.0001593     0.0003250    0.0002114 
   0.067166783     0.1350267   -0.3600155     0.0002684    0.0001332    -0.0000776    0.0000220     0.0001004    0.0002959 
   0.067266808     0.1321496   -0.3610988    -0.0001349   -0.0007511    -0.0000206   -0.0000035     0.0003863   -0.0001081 
   0.067366833     0.1375400   -0.3598950    -0.0002989   -0.0000630    -0.0000646    0.0001136     0.0008723    0.0003658 
   0.067466858     0.1342350   -0.3611898    -0.0000126   -0.0000258     0.0000269   -0.0000266     0.0005345   -0.0002016 
   0.067566883     0.1307444   -0.3594044     0.0004299   -0.0003635     0.0000705    0.0001083     0.0005179   -0.0000252 
   0.067666908     0.1351368   -0.3601463     0.0001715    0.0008249     0.0002010    0.0000219     0.0006856   -0.0002843 
   0.067766933     0.1311322   -0.3569581    -0.0003534    0.0007080    -0.0000191    0.0001676     0.0008246    0.0003056 
   0.067866958     0.1323475   -0.3588785     0.0002278    0.0004570     0.0000208    0.0000373     0.0003478    0.0005060 
   0.067966983     0.1317712   -0.3575245     0.0006268    0.0001111    -0.0001468   -0.0000981     0.0000154    0.0002226 
   0.068067009     0.1282537   -0.3544350     0.0000273    0.0006137    -0.0001138   -0.0000378     0.0002897   -0.0004266 
   0.068167034     0.1291827   -0.3554038     0.0000236   -0.0001827     0.0000141    0.0001202     0.0003084   -0.0003104 
   0.068267059     0.1307435   -0.3545507     0.0002315   -0.0001157     0.0002360   -0.0000086     0.0006042    0.0003680 
   0.068367084     0.1252601   -0.3571922     0.0004819    0.0004865    -0.0002816    0.0000474     0.0003936    0.0001454 
   0.068467109     0.1261798   -0.3547828     0.0002214   -0.0002086    -0.0001681    0.0001370     0.0002079   -0.0000108 
   0.068567134     0.1289045   -0.3526956    -0.0005093    0.0001765     0.0000946    0.0002802     0.0007415    0.0001892 
   0.068667159     0.1293728   -0.3521660     0.0005935    0.0000753    -0.0000743   -0.0000691     0.0006468    0.0000058 
   0.068767184     0.1265852   -0.3545026    -0.0001209    0.0000731     0.0000076    0.0000763     0.0008263   -0.0003027 
   0.068867209     0.1269237   -0.3502708    -0.0002866   -0.0001311    -0.0003422    0.0001623     0.0001511    0.0000713 
   0.068967234     0.1257645   -0.3509147    -0.0003295   -0.0005411     0.0000224    0.0000330     0.0001143   -0.0000271 
   0.069067259     0.1259757   -0.3508629    -0.0005594   -0.0003189     0.0002502    0.0000904     0.0005136   -0.0000763 
   0.069167284     0.1238219   -0.3522284    -0.0005996    0.0001726     0.0001196   -0.0002465     0.0001942   -0.0001651 
   0.069267309     0.1246296   -0.3498693     0.0000374    0.0004179    -0.0002519   -0.0000008     0.0004272    0.0001900 
   0.069367334     0.1244967   -0.3514829    -0.0003416   -0.0002504     0.0001547    0.0002911     0.0003995    0.0003156 
   0.069467359     0.1256179   -0.3464502    -0.0001503   -0.0002929    -0.0000847   -0.0000574     0.0000724   -0.0004351 
   0.069567384     0.1231659   -0.3513280    -0.0001350    0.0001178    -0.0000612   -0.0001542     0.0005732    0.0000807 
   0.069667409     0.1226048   -0.3514377    -0.0005266   -0.0003597    -0.0000423    0.0002304     0.0007649    0.0001934 
   0.069767434     0.1214568   -0.3486612    -0.0004432   -0.0005540    -0.0000985   -0.0000576    -0.0000049    0.0005273 
   0.069867459     0.1247073   -0.3492441     0.0002421   -0.0001766     0.0000048    0.0002707     0.0000388   -0.0002458 
   0.069967484     0.1242011   -0.3498769     0.0002628    0.0005538     0.0000406    0.0000691     0.0009845   -0.0002787 
   0.070067509     0.1235913   -0.3459502    -0.0001477   -0.0003991     0.0000175    0.0000450     0.0004064   -0.0001057 
   0.070167534     0.1232399   -0.3480042    -0.0004912    0.0001461     0.0003461   -0.0002593    -0.0000312    0.0003393 
   0.070267559     0.1199508   -0.3474440    -0.0004622    0.0004482     0.0000441    0.0003445     0.0005364    0.0001220 
   0.070367584     0.1241132   -0.3452120     0.0005402    0.0009456     0.0001989    0.0000024     0.0000059    0.0001299 
   0.070467609     0.1215750   -0.3465945     0.0003808   -0.0008312     0.0000007    0.0000592     0.0001678    0.0004456 
   0.070567634     0.1233609   -0.3486038    -0.0000325   -0.0000548     0.0000663    0.0001316     0.0007198    0.0001645 
   0.070667659     0.1202744   -0.3453851     0.0001797    0.0000007     0.0000927   -0.0000705     0.0004729    0.0000318 
   0.070767684     0.1178535   -0.3464042    -0.0003969    0.0003121    -0.0001626   -0.0000483     0.0004304    0.0003340 
   0.070867709     0.1197489   -0.3451805    -0.0002717   -0.0005553    -0.0001462   -0.0002923     0.0003613    0.0003464 
   0.070967734     0.1172366   -0.3472750     0.0001968    0.0004327     0.0001264   -0.0000401     0.0006964    0.0002614 
   0.071067759     0.1208939   -0.3461221    -0.0002458    0.0004852    -0.0001203   -0.0000274     0.0006541    0.0007637 
   0.071167784     0.1170088   -0.3468674     0.0003847    0.0000983     0.0000022    0.0000085     0.0003617    0.0001799 
   0.071267809     0.1204934   -0.3447193     0.0003094    0.0002722    -0.0000996   -0.0000750     0.0005447   -0.0000340 
   0.071367834     0.1139639   -0.3437303     0.0004282    0.0000935    -0.0001819   -0.0001171     0.0005676   -0.0000295 
   0.071467859     0.1171652   -0.3449090     0.0001077   -0.0002723     0.0002232   -0.0001233     0.0002653   -0.0000454 
   0.071567884     0.1153524   -0.3398312    -0.0000368   -0.0000880    -0.0001522   -0.0000265     0.0002914    0.0002475 
   0.071667909     0.1188580   -0.3444425    -0.0002991    0.0000604    -0.0002582    0.0000796     0.0005972   -0.0000257 
   0.071767934     0.1155766   -0.3399526     0.0001499   -0.0003828    -0.0002104    0.0000684     0.0002053   -0.0000760 
   0.071867959     0.1149057   -0.3433080     0.0000973   -0.0001126     0.0001487   -0.0002649     0.0003900    0.0003858 
   0.071967984     0.1153583   -0.3398925     0.0004323    0.0002353     0.0000500    0.0002849    -0.0000143    0.0004833 
   0.072068009     0.1151071   -0.3425548    -0.0002441    0.0001814     0.0000122    0.0001949     0.0004876    0.0002029 
   0.072168034     0.1134841   -0.3382648     0.0008769    0.0002285     0.0000196    0.0000063     0.0004123    0.0001243 
   0.072268059     0.1153928   -0.3363930     0.0003140   -0.0001891     0.0002105   -0.0000464     0.0001866    0.0003355 
   0.072368084     0.1130344   -0.3406688     0.0001574   -0.0001981    -0.0000891    0.0002495     0.0005253   -0.0002742 
   0.072468109     0.1163059   -0.3394058    -0.0000913   -0.0004103    -0.0000562   -0.0000017     0.0010415    0.0000519 
   0.072568134     0.1140488   -0.3396196     0.0000627    0.0005339     0.0001575   -0.0000125     0.0008633    0.0003007 
   0.072668159     0.1112713   -0.3375186     0.0001248   -0.0003603    -0.0000037    0.0001361     0.0009959    0.0002236 
   0.072768184     0.1120276   -0.3371167     0.0004681    0.0000325     0.0001534    0.0002516    -0.0000410   -0.0000535 
   0.072868209     0.1115613   -0.3371923    -0.0000732    0.0001021    -0.0002185   -0.0002807     0.0004368   -0.0001091 
   0.072968234     0.1139722   -0.3388708    -0.0002909    0.0000561     0.0000019   -0.0002383     0.0007958    0.0001381 
   0.073068259     0.1090650   -0.3360602    -0.0001157   -0.0001378     0.0000387    0.0000054     0.0005188   -0.0000270 
   0.073168284     0.1115072   -0.3336602    -0.0008718    0.0001859    -0.0000191   -0.0000454     0.0003198    0.0003721 
   0.073268309     0.1104481   -0.3355552     0.0006799    0.0002182     0.0000166    0.0001475     0.0002353    0.0003677 
   0.073368334     0.1085828   -0.3336608     0.0006613    0.0001480    -0.0001174   -0.0002302     0.0005721    0.0002082 
   0.073468359     0.1143142   -0.3341322     0.0009704   -0.0006324     0.0002601    0.0001025     0.0003498   -0.0000635 
   0.073568384     0.1090724   -0.3321493     0.0003099   -0.0002263     0.0000072    0.0000890     0.0000149   -0.0001411 
   0.073668409     0.1074975   -0.3313193     0.0005910   -0.0003810    -0.0003984    0.0000050     0.0003540    0.0002685 
   0.073768434     0.1081783   -0.3339129     0.0000897    0.0001305     0.0002377    0.0000388     0.0006117    0.0002727 
   0.073868459     0.1104490   -0.3346060    -0.0003182   -0.0003062    -0.0001836   -0.0000326     0.0004533    0.0002087 
   0.073968484     0.1069941   -0.3338574     0.0002447    0.0003742    -0.0000637    0.0003056     0.0007641    0.0000205 
   0.074068509     0.1077759   -0.3317663     0.0000658   -0.0001693     0.0000491    0.0000670     0.0001915   -0.0003827 
   0.074168534     0.1087852   -0.3302260     0.0001211   -0.0004247    -0.0000998    0.0000459     0.0004615    0.0000821 
   0.074268559     0.1054139   -0.3295440     0.0005145   -0.0004025    -0.0000318    0.0000493     0.0000950    0.0001676 
   0.074368584     0.1090994   -0.3316899     0.0004867   -0.0000250    -0.0002690    0.0000089     0.0006260    0.0002374 
   0.074468609     0.1076128   -0.3338475     0.0001815    0.0001253     0.0000469    0.0004147     0.0008816    0.0000495 
   0.074568634     0.1072759   -0.3334175    -0.0001528   -0.0000548     0.0000522   -0.0001214     0.0000885    0.0004144 
   0.074668659     0.1058514   -0.3310050     0.0001041   -0.0002756     0.0001892    0.0003242     0.0003780   -0.0003025 
   0.074768684     0.1045539   -0.3298450     0.0001705    0.0002121     0.0000999    0.0000810     0.0005707    0.0000562 
   0.074868709     0.1054229   -0.3304505     0.0001090    0.0000361    -0.0000698    0.0000132     0.0008836    0.0001404 
   0.074968734     0.1029662   -0.3294429    -0.0000505   -0.0003287     0.0001261    0.0001969     0.0004899    0.0000396 
   0.075068759     0.1057280   -0.3262402    -0.0003926   -0.0004459    -0.0000122   -0.0002566     0.0007212    0.0000599 
   0.075168784     0.1062548   -0.3300966     0.0002018    0.0000773     0.0000704    0.0000777     0.0011217    0.0004234 
   0.075268809     0.1020957   -0.3286074    -0.0000067   -0.0000123     0.0001296    0.0002536     0.0008199    0.0003149 
   0.075368834     0.1048452   -0.3269295     0.0001698    0.0004371    -0.0002887   -0.0001866     0.0003279    0.0002075 
   0.075468859     0.1053229   -0.3271728     0.0002145   -0.0000113     0.0000943    0.0000619     0.0005344    0.0001129 
   0.075568884     0.1027751   -0.3258727     0.0001930   -0.0001644     0.0000701   -0.0001975     0.0006237    0.0002464 
   0.075668909     0.1021952   -0.3251746    -0.0000291    0.0003485    -0.0000090    0.0000729     0.0004515    0.0005380 
   0.075768934     0.1019417   -0.3269336    -0.0005291    0.0001400     0.0001914   -0.0001943     0.0002600   -0.0001162 
   0.075868959     0.1054982   -0.3282565    -0.0000666   -0.0001618    -0.0001798   -0.0003828     0.0010803    0.0002459 
   0.075968984     0.1040683   -0.3301826    -0.0002361   -0.0000534     0.0000839   -0.0002396     0.0009602    0.0000618 
   0.076069010     0.1049206   -0.3265992    -0.0003687   -0.0000428     0.0001434   -0.0001770     0.0007761    0.0001374 
   0.076169035     0.1018224   -0.3277030    -0.0002607   -0.0001390     0.0002296    0.0000012    -0.0000206    0.0002498 
   0.076269060     0.0989462   -0.3245231     0.0000607   -0.0004624    -0.0000205   -0.0000070     0.0010813   -0.0000345 
   0.076369085     0.1008316   -0.3220284    -0.0000490   -0.0002758     0.0000065   -0.0001026     0.0002750   -0.0000384 
   0.076469110     0.0995776   -0.3228583     0.0007122   -0.0000932    -0.0000875    0.0000168     0.0003707   -0.0000890 
   0.076569135     0.1018998   -0.3212679     0.0003685    0.0000668    -0.0000187    0.0000650     0.0004077   -0.0000146 
   0.076669160     0.0977802   -0.3226848    -0.0000132    0.0000806     0.0001724   -0.0001136     0.0002188    0.0000087 
   0.076769185     0.1020219   -0.3200411    -0.0001126    0.0000994    -0.0000207    0.0000196     0.0004581    0.0003756 
   0.076869210     0.1006201   -0.3231433     0.0005078   -0.0002617     0.0000076    0.0000601     0.0007818    0.0001376 
   0.076969235     0.0976682   -0.3204348     0.0007007    0.0001056     0.0001601    0.0002052     0.0010922    0.0005316 
   0.077069260     0.0980329   -0.3222414     0.0004325    0.0002912    -0.0000754    0.0002091     0.0005096   -0.0002648 
   0.077169285     0.0993359   -0.3171961     0.0002139   -0.0003107     0.0000425    0.0000031     0.0006795    0.0004163 
   0.077269310     0.0994954   -0.3187868     0.0004008    0.0002554    -0.0000871    0.0000576     0.0004134   -0.0006273 
   0.077369335     0.0958247   -0.3194560    -0.0000531   -0.0000400     0.0000444   -0.0002297     0.0006631    0.0001368 
   0.077469360     0.0984480   -0.3202834    -0.0002318    0.0007481    -0.0001419    0.0002008     0.0007443    0.0002312 
   0.077569385     0.0995814   -0.3212916    -0.0000896    0.0002054     0.0001332    0.0000629     0.0004907    0.0003495 
   0.077669410     0.0968691   -0.3203717    -0.0003509   -0.0001190    -0.0000227    0.0000711     0.0000874   -0.0004456 
   0.077769435     0.0957277   -0.3176789     0.0004359   -0.0004615     0.0002665   -0.0000593     0.0007784    0.0001261 
   0.077869460     0.0944343   -0.3166310     0.0001930   -0.0001318    -0.0002233    0.0000292     0.0004640   -0.0001926 
   0.077969485     0.0967102   -0.3192579     0.0002548    0.0002409     0.0000029    0.0001131     0.0007921    0.0004262 
   0.078069510     0.0953347   -0.3157433     0.0000366    0.0005298     0.0000792    0.0000577     0.0005286    0.0002435 
   0.078169535     0.0963108   -0.3179244    -0.0001572   -0.0000510    -0.0000589   -0.0001090     0.0007078    0.0000193 
   0.078269560     0.0921800   -0.3164955    -0.0003290   -0.0001725    -0.0001419    0.0000227     0.0008047    0.0002477 
   0.078369585     0.0934542   -0.3154445     0.0000327   -0.0001809     0.0001933    0.0002413     0.0005393   -0.0000783 
   0.078469610     0.0920444   -0.3167069    -0.0002961    0.0004801    -0.0002149    0.0000702     0.0004574    0.0003748 
   0.078569635     0.0944305   -0.3144133     0.0004293   -0.0006569     0.0000114   -0.0000074     0.0005949    0.0002051 
   0.078669660     0.0942486   -0.3162518    -0.0004864   -0.0005136    -0.0001322   -0.0000466     0.0005824    0.0001137 
   0.078769685     0.0960734   -0.3135129     0.0002269    0.0000693     0.0001954    0.0001026     0.0005721   -0.0000678 
   0.078869710     0.0942797   -0.3181446     0.0001513    0.0001380     0.0000394   -0.0000307     0.0005454   -0.0000733 
   0.078969735     0.0950372   -0.3123347    -0.0002852    0.0003122     0.0001052   -0.0000705     0.0011901    0.0006347 
   0.079069760     0.0927376   -0.3132464     0.0004445   -0.0001758    -0.0001819   -0.0001257     0.0005540    0.0000283 
   0.079169785     0.0915013   -0.3109573    -0.0002621   -0.0005830     0.0000765   -0.0001987     0.0008457    0.0002166 
   0.079269810     0.0952210   -0.3083983     0.0002154   -0.0001798    -0.0000965    0.0000927     0.0006173   -0.0002297 
   0.079369835     0.0911035   -0.3096950     0.0000302   -0.0006314    -0.0000749    0.0000856     0.0005577    0.0005795 
   0.079469860     0.0913509   -0.3130584    -0.0000454    0.0000386    -0.0001541    0.0000781     0.0008709    0.0000710 
   0.079569885     0.0922867   -0.3097983    -0.0003704    0.0003000    -0.0000101   -0.0001710     0.0004984    0.0004386 
   0.079669910     0.0889417   -0.3110408    -0.0000261    0.0001391    -0.0000267    0.0002225     0.0002950    0.0002601 
   0.079769935     0.0908242   -0.3091453    -0.0001770   -0.0000759     0.0000830   -0.0000478     0.0005809    0.0001224 
   0.079869960     0.0917345   -0.3114962    -0.0002322   -0.0001968    -0.0000761   -0.0000009     0.0003800   -0.0003496 
   0.079969985     0.0906179   -0.3099616    -0.0000553   -0.0004148     0.0000002    0.0000255     0.0010878    0.0000275 
   0.080070010     0.0904466   -0.3089337     0.0001953    0.0000276     0.0001512    0.0001100     0.0006484    0.0000223 
   0.080170035     0.0897879   -0.3079065    -0.0000225    0.0000711    -0.0000849    0.0002113     0.0005474    0.0000989 
   0.080270060     0.0917784   -0.3085975     0.0001708    0.0002220     0.0002516   -0.0001691     0.0009278    0.0001362 
   0.080370085     0.0922811   -0.3084977    -0.0000014   -0.0002726     0.0000815   -0.0000780     0.0005994    0.0001575 
   0.080470110     0.0896662   -0.3083588    -0.0003889   -0.0001471    -0.0000600   -0.0001004     0.0008524    0.0000803 
   0.080570135     0.0891000   -0.3071955     0.0001751    0.0004865    -0.0000594    0.0002673     0.0005185   -0.0000576 
   0.080670160     0.0901173   -0.3074142     0.0000319   -0.0002459     0.0000024    0.0001088     0.0005845   -0.0000990 
   0.080770185     0.0905165   -0.3079172    -0.0000650    0.0000439     0.0000132   -0.0000028     0.0005248    0.0000355 
   0.080870210     0.0909813   -0.3059949     0.0001957   -0.0002255     0.0000368   -0.0000264     0.0007531   -0.0002464 
   0.080970235     0.0903414   -0.3045517    -0.0003119    0.0002239     0.0000331    0.0000418     0.0005098   -0.0003658 
   0.081070260     0.0887373   -0.3071291     0.0001744    0.0001607    -0.0002754   -0.0000434     0.0011049    0.0001647 
   0.081170285     0.0871485   -0.3045758    -0.0000786    0.0003624     0.0001804   -0.0000580     0.0005332    0.0001061 
   0.081270310     0.0853671   -0.3066790     0.0002857    0.0000925    -0.0000650   -0.0000004     0.0008200    0.0004609 
   0.081370335     0.0896441   -0.3045111    -0.0000631    0.0002087    -0.0000717   -0.0000853     0.0002275    0.0004216 
   0.081470360     0.0858501   -0.3075069     0.0005868   -0.0001970    -0.0001488    0.0000182     0.0008403   -0.0000435 
   0.081570385     0.0856943   -0.3034147     0.0001181   -0.0005215     0.0001918   -0.0000335     0.0008658    0.0002250 
   0.081670410     0.0894317   -0.3028515    -0.0008344    0.0000224    -0.0001205   -0.0001548     0.0007222    0.0000683 
   0.081770435     0.0883069   -0.3028260    -0.0003800    0.0003101    -0.0002041    0.0000994     0.0009824   -0.0000574 
   0.081870460     0.0856104   -0.3017863     0.0001359   -0.0002639    -0.0004672   -0.0000161     0.0008274   -0.0003091 
   0.081970485     0.0840726   -0.3014749     0.0000474    0.0003301     0.0000352    0.0001659     0.0006770    0.0002057 
   0.082070510     0.0866199   -0.3017543     0.0002656   -0.0004083     0.0000665    0.0003276     0.0003736    0.0002338 
   0.082170535     0.0842652   -0.3019727    -0.0003285    0.0006004     0.0002318    0.0002285     0.0007515    0.0004493 
   0.082270560     0.0868040   -0.3013216    -0.0000568   -0.0001191     0.0001131    0.0001379     0.0009487    0.0001139 
   0.082370585     0.0820737   -0.3033253    -0.0000016   -0.0003140    -0.0001335   -0.0002737     0.0006704   -0.0002402 
   0.082470610     0.0836920   -0.3009139    -0.0000852    0.0003697    -0.0002921    0.0000448     0.0004701    0.0000950 
   0.082570635     0.0839355   -0.3007578     0.0003164   -0.0001752    -0.0000582    0.0000783     0.0003870    0.0001710 
   0.082670660     0.0825949   -0.2997622     0.0000981   -0.0000711     0.0000332    0.0000321     0.0003313    0.0000925 
   0.082770685     0.0822858   -0.2988974    -0.0001252   -0.0000787     0.0000125   -0.0000156     0.0006636    0.0004756 
   0.082870710     0.0819702   -0.2999408    -0.0001560    0.0008865    -0.0000126   -0.0001294     0.0005932   -0.0001366 
   0.082970735     0.0841512   -0.3000229    -0.0000516    0.0000958    -0.0001910   -0.0001624     0.0009086   -0.0003502 
   0.083070760     0.0833658   -0.2973800     0.0002703   -0.0003325    -0.0001594    0.0001705     0.0005748    0.0001999 
   0.083170785     0.0824394   -0.2977172     0.0000946    0.0005945     0.0001501   -0.0001127     0.0005100    0.0000076 
   0.083270810     0.0825600   -0.2973713    -0.0000154   -0.0000048     0.0001286    0.0001014     0.0005050    0.0006499 
   0.083370835     0.0816491   -0.2976373    -0.0002508    0.0003979    -0.0004294    0.0000471    -0.0000192    0.0001790 
   0.083470860     0.0820593   -0.2958586     0.0001702   -0.0003096    -0.0001702    0.0000416     0.0006214    0.0000068 
   0.083570885     0.0797114   -0.2960063    -0.0001793    0.0002037    -0.0000258    0.0000994     0.0004397   -0.0000431 
   0.083670910     0.0809899   -0.2944693    -0.0002234   -0.0003177     0.0000724    0.0000768     0.0004192    0.0002894 
   0.083770935     0.0794712   -0.2947495     0.0000975   -0.0002044     0.0001454   -0.0000196     0.0008522   -0.0002462 
   0.083870960     0.0835642   -0.2970825     0.0000494   -0.0000714     0.0001253   -0.0000791     0.0004274    0.0004210 
   0.083970985     0.0800465   -0.2936282     0.0001508   -0.0006146     0.0000421    0.0000219     0.0003448    0.0001336 
   0.084071011     0.0825478   -0.2969912     0.0002424   -0.0001889     0.0001689   -0.0001711     0.0006588   -0.0001942 
   0.084171036     0.0827465   -0.2935619    -0.0001261   -0.0004138    -0.0000013    0.0000628     0.0007616    0.0005770 
   0.084271061     0.0810009   -0.2945888     0.0000383   -0.0000784     0.0003692    0.0000260     0.0007186    0.0002934 
   0.084371086     0.0794893   -0.2953250     0.0002189    0.0002219     0.0000076   -0.0001699     0.0010250    0.0003348 
   0.084471111     0.0800679   -0.2941489     0.0002366   -0.0000810     0.0000682    0.0000075     0.0007752    0.0002809 
   0.084571136     0.0804631   -0.2933076     0.0001058    0.0001866    -0.0000881    0.0000974     0.0003820    0.0005564 
   0.084671161     0.0809929   -0.2927406     0.0001394   -0.0000889    -0.0000054   -0.0000029     0.0009484    0.0003655 
   0.084771186     0.0785092   -0.2926216     0.0000324    0.0000897     0.0001629   -0.0001371     0.0006792   -0.0000031 
   0.084871211     0.0760981   -0.2921117    -0.0002696    0.0001679     0.0000037    0.0001446     0.0006836    0.0001341 
   0.084971236     0.0786134   -0.2906057    -0.0001484    0.0002813     0.0000080   -0.0001447     0.0005952    0.0001477 
   0.085071261     0.0772723   -0.2920811    -0.0000417    0.0004844     0.0000209   -0.0001590     0.0005541    0.0002627 
   0.085171286     0.0770713   -0.2938024     0.0002960   -0.0001384     0.0003089   -0.0000192     0.0002179   -0.0000919 
   0.085271311     0.0797127   -0.2897688    -0.0001750   -0.0003570     0.0002266   -0.0000345     0.0005914    0.0001362 
   0.085371336     0.0804483   -0.2903830     0.0005423    0.0004250    -0.0000516   -0.0001431     0.0008285    0.0001430 
   0.085471361     0.0764283   -0.2922042     0.0001005   -0.0000445     0.0000332   -0.0000181     0.0002158   -0.0000640 
   0.085571386     0.0747330   -0.2913022    -0.0000770   -0.0004671    -0.0000242   -0.0000587     0.0005714    0.0001146 
   0.085671411     0.0755551   -0.2898400    -0.0000243   -0.0003690     0.0001060    0.0000407     0.0006850    0.0001200 
   0.085771436     0.0762759   -0.2910623     0.0000022    0.0000402     0.0001860   -0.0001233     0.0005964    0.0001689 
   0.085871461     0.0771705   -0.2912621    -0.0000350    0.0000249    -0.0000539    0.0002026     0.0007152    0.0003339 
   0.085971486     0.0779689   -0.2910106     0.0000263   -0.0004333    -0.0001211    0.0001429     0.0009451    0.0004330 
   0.086071511     0.0753798   -0.2907709     0.0001675   -0.0002389     0.0000648   -0.0000997     0.0008801    0.0002625 
   0.086171536     0.0750695   -0.2885154     0.0000105    0.0000370     0.0001282    0.0002253     0.0006574    0.0000862 
   0.086271561     0.0760651   -0.2872446     0.0000647    0.0000770     0.0001406    0.0000975     0.0006972    0.0001912 
   0.086371586     0.0749977   -0.2869756     0.0005034   -0.0002679    -0.0000289    0.0001766     0.0009229    0.0000771 
   0.086471611     0.0753298   -0.2866968     0.0000412    0.0001707    -0.0000408   -0.0003138     0.0004795   -0.0001110 
   0.086571636     0.0755545   -0.2878560     0.0002531   -0.0000601     0.0000020    0.0000985     0.0005457   -0.0000937 
   0.086671661     0.0740298   -0.2857529     0.0002912   -0.0000429     0.0001092   -0.0000242     0.0008266    0.0004465 
   0.086771686     0.0731197   -0.2856443     0.0000267   -0.0000870    -0.0000261   -0.0001604     0.0009126    0.0003141 
   0.086871711     0.0746489   -0.2882517     0.0003074    0.0002081    -0.0000311   -0.0000737     0.0006313    0.0001460 
   0.086971736     0.0742679   -0.2841428     0.0002069   -0.0003995     0.0001361   -0.0001004     0.0009649   -0.0003544 
   0.087071761     0.0748871   -0.2842734     0.0001023    0.0001401    -0.0001276    0.0000348     0.0004119    0.0000033 
   0.087171786     0.0745656   -0.2860769     0.0003574    0.0000887     0.0001951   -0.0002168     0.0005558    0.0002810 
   0.087271811     0.0756921   -0.2832315    -0.0000220   -0.0000359     0.0001315   -0.0000360     0.0004824   -0.0000014 
   0.087371836     0.0735257   -0.2825246    -0.0003064   -0.0003155    -0.0000161    0.0002975     0.0009659    0.0001982 
   0.087471861     0.0742502   -0.2849384    -0.0003101   -0.0000455    -0.0000666   -0.0002109     0.0003177   -0.0001931 
   0.087571886     0.0712443   -0.2841648    -0.0003197   -0.0000998    -0.0001730   -0.0000121     0.0000799    0.0000727 
   0.087671911     0.0749671   -0.2825659     0.0001008   -0.0002179    -0.0000426   -0.0000757     0.0010943    0.0001631 
   0.087771936     0.0711976   -0.2826641     0.0000165   -0.0001824     0.0001472    0.0000220     0.0005356    0.0002554 
   0.087871961     0.0727017   -0.2828065     0.0001349   -0.0000004    -0.0002664    0.0001053     0.0009793   -0.0000286 
   0.087971986     0.0723309   -0.2829211    -0.0001039    0.0000020    -0.0000568    0.0000586     0.0003707    0.0008933 
   0.088072011     0.0725928   -0.2817012     0.0001515   -0.0003171    -0.0000289    0.0001419     0.0002027   -0.0001206 
   0.088172036     0.0727976   -0.2810979    -0.0001957   -0.0001768     0.0001691   -0.0001841     0.0005984    0.0003202 
   0.088272061     0.0705067   -0.2806709    -0.0001755    0.0001158    -0.0000039   -0.0000689     0.0011732    0.0001450 
   0.088372086     0.0706937   -0.2793970    -0.0001088    0.0000135     0.0000978    0.0000070     0.0006073   -0.0001262 
   0.088472111     0.0711637   -0.2791596    -0.0002726   -0.0002768    -0.0001046   -0.0001003     0.0006734    0.0002069 
   0.088572136     0.0728837   -0.2827314    -0.0002630   -0.0001338    -0.0000466    0.0001504     0.0003212    0.0000654 
   0.088672161     0.0694661   -0.2811044     0.0000716    0.0003749    -0.0000368   -0.0003258     0.0008247    0.0002984 
   0.088772186     0.0718677   -0.2825222    -0.0003211    0.0000532    -0.0001012    0.0001084     0.0006259    0.0003866 
   0.088872211     0.0688031   -0.2778578     0.0000617   -0.0003644     0.0001202    0.0001410     0.0006672    0.0001831 
   0.088972236     0.0699451   -0.2775394    -0.0001109   -0.0000618     0.0000427   -0.0001254     0.0008341    0.0004180 
   0.089072261     0.0716079   -0.2776468     0.0000265    0.0001562     0.0000831    0.0001078     0.0005000    0.0000621 
   0.089172286     0.0725540   -0.2798707    -0.0000544   -0.0000276    -0.0002852   -0.0000425     0.0005933   -0.0002880 
   0.089272311     0.0694587   -0.2768115    -0.0002134   -0.0000898     0.0001858    0.0001064     0.0006883    0.0001756 
   0.089372336     0.0702476   -0.2788896     0.0000049    0.0001884    -0.0000295   -0.0000380     0.0008833   -0.0002850 
   0.089472361     0.0698676   -0.2767499     0.0002282   -0.0002789     0.0002663    0.0000710     0.0008736    0.0001585 
   0.089572386     0.0690870   -0.2777048    -0.0004391    0.0001604    -0.0000553    0.0000768     0.0008111    0.0004948 
   0.089672411     0.0684588   -0.2757725     0.0000286   -0.0000964     0.0000157   -0.0000436     0.0010690    0.0005641 
   0.089772436     0.0686186   -0.2770923     0.0000935    0.0001930    -0.0000750   -0.0001760     0.0007436    0.0002307 
   0.089872461     0.0681659   -0.2795154     0.0003750    0.0000476     0.0000044    0.0001685     0.0009068    0.0002432 
   0.089972486     0.0671363   -0.2747571    -0.0000105    0.0001559     0.0000228   -0.0001420     0.0005575   -0.0000644 
   0.090072511     0.0693553   -0.2756822     0.0000952   -0.0000308     0.0000987    0.0002409     0.0010742    0.0000377 
   0.090172536     0.0679856   -0.2766201     0.0002853    0.0002035     0.0000761   -0.0001859     0.0007725    0.0003921 
   0.090272561     0.0676641   -0.2762584    -0.0000674   -0.0004767     0.0001259    0.0000147     0.0007452    0.0000872 
   0.090372586     0.0669614   -0.2767596     0.0003119   -0.0000678    -0.0002303   -0.0001087     0.0002019    0.0004722 
   0.090472611     0.0663261   -0.2742480    -0.0000043    0.0002189    -0.0001002   -0.0001310     0.0012179    0.0003865 
   0.090572636     0.0666626   -0.2755559    -0.0004638    0.0001804     0.0002445   -0.0000158     0.0009682    0.0000404 
   0.090672661     0.0663822   -0.2747958    -0.0002957   -0.0002797     0.0000707    0.0001191     0.0010380    0.0004156 
   0.090772686     0.0673999   -0.2746948     0.0001250    0.0003160    -0.0001790   -0.0000167     0.0008399    0.0004305 
   0.090872711     0.0677289   -0.2736734    -0.0002012    0.0001174     0.0000880   -0.0001793     0.0005772    0.0004765 
   0.090972736     0.0696773   -0.2732882     0.0000396    0.0000096     0.0001042   -0.0001508     0.0006305    0.0001089 
   0.091072761     0.0649164   -0.2731565     0.0000993   -0.0000233     0.0000958    0.0000532     0.0004360    0.0002387 
   0.091172786     0.0654701   -0.2726369     0.0001100   -0.0002217     0.0001132    0.0000302     0.0003329    0.0002358 
   0.091272811     0.0681056   -0.2711216     0.0002441   -0.0000898    -0.0000447    0.0001617     0.0003533   -0.0000383 
   0.091372836     0.0652940   -0.2713791     0.0000126   -0.0005336     0.0001520   -0.0000388     0.0006358    0.0001635 
   0.091472861     0.0658937   -0.2725068    -0.0002353   -0.0000253    -0.0001283   -0.0001523     0.0007908   -0.0001442 
   0.091572886     0.0668778   -0.2732054    -0.0001995    0.0003043     0.0000369    0.0001055     0.0005762    0.0003103 
   0.091672911     0.0649904   -0.2707815     0.0000418   -0.0001467     0.0000399   -0.0001712     0.0004616   -0.0001105 
   0.091772936     0.0629076   -0.2719830    -0.0000392    0.0000770     0.0000163   -0.0003324     0.0007335   -0.0002919 
   0.091872961     0.0658538   -0.2725668     0.0001054   -0.0003199     0.0000093    0.0001917     0.0007219   -0.0001203 
   0.091972986     0.0655655   -0.2703787    -0.0000049    0.0001122    -0.0000457   -0.0000568     0.0003810    0.0000064 
   0.092073012     0.0650219   -0.2682022     0.0002756   -0.0001946     0.0000227   -0.0000073     0.0009409    0.0001000 
   0.092173037     0.0628842   -0.2697753    -0.0002207   -0.0001093     0.0001086   -0.0000505     0.0006366    0.0001011 
   0.092273062     0.0656385   -0.2687178     0.0003965    0.0005469     0.0000997   -0.0000816     0.0009941    0.0003131 
   0.092373087     0.0649762   -0.2708728    -0.0002188   -0.0002754    -0.0001360    0.0000137     0.0004677    0.0002560 
   0.092473112     0.0629727   -0.2695349     0.0000333   -0.0005186    -0.0000399   -0.0000355     0.0008260    0.0006395 
   0.092573137     0.0630701   -0.2709764     0.0000622    0.0000689    -0.0001103   -0.0000633     0.0003877   -0.0004539 
   0.092673162     0.0639050   -0.2703627     0.0001486   -0.0001560    -0.0000361   -0.0000258     0.0004792    0.0003095 
   0.092773187     0.0639584   -0.2695466     0.0004216   -0.0002240     0.0000933    0.0000038     0.0010369    0.0000359 
   0.092873212     0.0630804   -0.2675560     0.0002999    0.0000715     0.0001460   -0.0000309     0.0014120    0.0001134 
   0.092973237     0.0642965   -0.2675251    -0.0000320    0.0002898     0.0000540    0.0000117     0.0006920    0.0001076 
   0.093073262     0.0658554   -0.2664681    -0.0003093   -0.0002064     0.0000608   -0.0001973     0.0003252    0.0003450 
   0.093173287     0.0635272   -0.2648812     0.0000454   -0.0003264     0.0000673   -0.0000295     0.0004625    0.0009965 
   0.093273312     0.0632086   -0.2663184     0.0000593    0.0000298    -0.0001045   -0.0000918     0.0008392    0.0004023 
   0.093373337     0.0622369   -0.2652561    -0.0002909    0.0001827     0.0001305   -0.0000249     0.0010434    0.0001841 
   0.093473362     0.0618946   -0.2648176    -0.0001924    0.0000206     0.0001038   -0.0000515     0.0008109    0.0005563 
   0.093573387     0.0597840   -0.2661410    -0.0000308    0.0003623     0.0000490    0.0003426     0.0008841    0.0003991 
   0.093673412     0.0629487   -0.2644496    -0.0001907   -0.0000873    -0.0001394    0.0001672     0.0007540    0.0004989 
   0.093773437     0.0629394   -0.2655637    -0.0003330   -0.0000259    -0.0001082   -0.0000670     0.0004111    0.0005103 
   0.093873462     0.0628251   -0.2636144    -0.0002950    0.0002512     0.0000483    0.0001609     0.0004128    0.0006333 
   0.093973487     0.0604113   -0.2650523    -0.0000321   -0.0001852    -0.0001687    0.0000451     0.0005107    0.0003669 
   0.094073512     0.0610778   -0.2655508     0.0006351    0.0004225    -0.0002002    0.0001899     0.0008401    0.0002762 
   0.094173537     0.0601901   -0.2629615     0.0000719    0.0003235     0.0000374    0.0000816     0.0007069    0.0002344 
   0.094273562     0.0605296   -0.2619524     0.0003370    0.0003439    -0.0001182   -0.0000052     0.0009835    0.0001607 
   0.094373587     0.0609723   -0.2634169    -0.0000066    0.0000156     0.0001987    0.0001437     0.0009060    0.0004759 
   0.094473612     0.0608341   -0.2632161    -0.0002357   -0.0002101    -0.0002481   -0.0000201     0.0012686    0.0004817 
   0.094573637     0.0612194   -0.2625520    -0.0001787    0.0004273     0.0000068   -0.0001218     0.0008188    0.0005127 
   0.094673662     0.0611702   -0.2636510     0.0001967   -0.0003814     0.0002086    0.0000129     0.0008407    0.0001606 
   0.094773687     0.0613201   -0.2642100    -0.0000811   -0.0002080    -0.0000664    0.0001042     0.0006540    0.0005544 
   0.094873712     0.0589958   -0.2615595    -0.0001659    0.0002013    -0.0000277    0.0001907     0.0006654    0.0002040 
   0.094973737     0.0592332   -0.2620188    -0.0001408    0.0001808     0.0000454   -0.0000315     0.0008521    0.0003794 
   0.095073762     0.0584419   -0.2607337    -0.0000292    0.0003199    -0.0002036    0.0000415     0.0010033    0.0005059 
   0.095173787     0.0607401   -0.2615837    -0.0002198    0.0002326     0.0000260   -0.0000042     0.0013746    0.0005893 
   0.095273812     0.0607199   -0.2611665    -0.0002231   -0.0005918     0.0000425    0.0001382     0.0009469   -0.0001501 
   0.095373837     0.0603950   -0.2601683    -0.0000543   -0.0000938    -0.0000786   -0.0000224     0.0007038    0.0002748 
   0.095473862     0.0587424   -0.2619722    -0.0001958    0.0002390    -0.0000886   -0.0001294     0.0005924    0.0002401 
   0.095573887     0.0588720   -0.2602471     0.0000443    0.0001799     0.0000521    0.0003024     0.0007483    0.0002443 
   0.095673912     0.0582853   -0.2595179     0.0003108    0.0003621    -0.0001723    0.0000179     0.0004485    0.0002815 
   0.095773937     0.0591468   -0.2582325     0.0000150   -0.0000709     0.0001372    0.0000622     0.0007271   -0.0000701 
   0.095873962     0.0581049   -0.2590177     0.0000605    0.0001177    -0.0000364    0.0000806     0.0008365    0.0006710 
   0.095973987     0.0582330   -0.2576853     0.0000758    0.0001796    -0.0001087    0.0000616     0.0008885    0.0003333 
   0.096074012     0.0581616   -0.2587276    -0.0000739    0.0003948    -0.0000847    0.0001061     0.0010183    0.0003970 
   0.096174037     0.0581563   -0.2579919    -0.0001304    0.0001193    -0.0001425    0.0000014     0.0005697    0.0003785 
   0.096274062     0.0574847   -0.2589976     0.0000866   -0.0003230     0.0000832   -0.0000674     0.0007365    0.0003376 
   0.096374087     0.0592880   -0.2578929    -0.0003065   -0.0001597    -0.0001457    0.0001128     0.0012236    0.0003556 
   0.096474112     0.0570595   -0.2565412     0.0001487    0.0004281    -0.0001784   -0.0001318     0.0010908    0.0002789 
   0.096574137     0.0582008   -0.2585254    -0.0004959    0.0005098    -0.0000064   -0.0003619     0.0004784    0.0003485 
   0.096674162     0.0578368   -0.2561789    -0.0000484   -0.0002381    -0.0000697    0.0000076     0.0004314    0.0006135 
   0.096774187     0.0570252   -0.2553391    -0.0004535   -0.0000527     0.0002340    0.0001037     0.0007200    0.0006919 
   0.096874212     0.0559351   -0.2558371     0.0001167   -0.0002864     0.0000007   -0.0001743     0.0008755    0.0005042 
   0.096974237     0.0556863   -0.2558722    -0.0000616   -0.0003942    -0.0000176    0.0000755     0.0008005    0.0002663 
   0.097074262     0.0568070   -0.2539476    -0.0004340   -0.0002464     0.0000539    0.0000152     0.0012226    0.0003636 
   0.097174287     0.0577018   -0.2553214     0.0001638   -0.0005312     0.0000706   -0.0000112     0.0004581    0.0002858 
   0.097274312     0.0576135   -0.2539618     0.0000341    0.0002170    -0.0001068   -0.0001766     0.0007373    0.0006177 
   0.097374337     0.0566272   -0.2530096     0.0003665    0.0001227    -0.0001935   -0.0000135     0.0004296    0.0002916 
   0.097474362     0.0564108   -0.2537261     0.0002046   -0.0001850    -0.0000260    0.0000230     0.0006091   -0.0000787 
   0.097574387     0.0571087   -0.2526140     0.0000578   -0.0000200     0.0000372    0.0000277     0.0008502    0.0005382 
   0.097674412     0.0542936   -0.2533784    -0.0000393    0.0004320     0.0000024    0.0001788     0.0002410    0.0007045 
   0.097774437     0.0561690   -0.2541495    -0.0001238    0.0000355     0.0000323    0.0000955     0.0007350    0.0003212 
   0.097874462     0.0574817   -0.2520880    -0.0001403    0.0003409     0.0001251    0.0002354     0.0006168    0.0004643 
   0.097974487     0.0565960   -0.2529158    -0.0000948   -0.0002119     0.0000761   -0.0000408     0.0010428    0.0003123 
   0.098074512     0.0539742   -0.2532373    -0.0000358    0.0003038    -0.0000938    0.0000545     0.0009167    0.0001256 
   0.098174537     0.0546379   -0.2517422    -0.0000102    0.0003133     0.0000900    0.0000183     0.0006057    0.0005028 
   0.098274562     0.0547898   -0.2503798    -0.0004584    0.0000515     0.0002277    0.0000731     0.0008397    0.0006361 
   0.098374587     0.0545884   -0.2514174    -0.0002540    0.0001000     0.0000609    0.0001130     0.0005777    0.0000698 
   0.098474612     0.0549881   -0.2520060     0.0002803   -0.0002136    -0.0000012   -0.0001909     0.0008526    0.0005878 
   0.098574637     0.0547520   -0.2514250    -0.0000838    0.0000771    -0.0000233    0.0002393     0.0008458    0.0004841 
   0.098674662     0.0554888   -0.2511184    -0.0000784   -0.0000789     0.0001042   -0.0000472     0.0005566   -0.0001031 
   0.098774687     0.0541717   -0.2506001     0.0001369    0.0001891     0.0000788   -0.0000851     0.0006724    0.0002148 
   0.098874712     0.0531871   -0.2497021    -0.0003235   -0.0000537     0.0001468    0.0000607     0.0014451    0.0001603 
   0.098974737     0.0538672   -0.2498469     0.0000142   -0.0000736    -0.0000551   -0.0000540     0.0007259    0.0005043 
   0.099074762     0.0534940   -0.2493022    -0.0001060   -0.0000040    -0.0001770    0.0000707     0.0009737    0.0004502 
   0.099174787     0.0542587   -0.2487759     0.0000349   -0.0001136     0.0001448    0.0002424     0.0009844    0.0005541 
   0.099274812     0.0528651   -0.2476984    -0.0000770    0.0000503    -0.0000802    0.0000066     0.0012829    0.0003150 
   0.099374837     0.0535269   -0.2512146     0.0002872   -0.0001002     0.0001229   -0.0001695     0.0010984    0.0005891 
   0.099474862     0.0527918   -0.2486473    -0.0000834   -0.0000912     0.0001277    0.0000018     0.0005846    0.0003987 
   0.099574887     0.0541385   -0.2493239     0.0000565   -0.0002161     0.0000890   -0.0000511     0.0010299    0.0006029 
   0.099674912     0.0532868   -0.2472207    -0.0001634    0.0003902     0.0001877   -0.0001487     0.0006360    0.0003467 
   0.099774937     0.0531851   -0.2478690    -0.0000922   -0.0002272    -0.0000306   -0.0001513     0.0004456    0.0003671 
   0.099874962     0.0535207   -0.2476389     0.0000429    0.0000947     0.0000794    0.0001269     0.0006560    0.0002222 
   0.099974987     0.0534034   -0.2472398     0.0001294   -0.0002131    -0.0000737    0.0000540     0.0007135    0.0007289 
   0.100075013     0.0525260   -0.2471974    -0.0000080   -0.0000137     0.0000739    0.0000228     0.0007040    0.0003490 
   0.100175038     0.0538984   -0.2455430     0.0003868    0.0002294     0.0001572    0.0000687     0.0008238   -0.0000613 
   0.100275063     0.0516142   -0.2464748     0.0001541    0.0001054     0.0000757   -0.0000067     0.0003892    0.0005900 
   0.100375088     0.0525796   -0.2472319    -0.0000023   -0.0005523    -0.0001533   -0.0001915     0.0007293    0.0004227 
   0.100475113     0.0515945   -0.2456968    -0.0001709    0.0000124    -0.0001831    0.0001323     0.0007853    0.0005852 
   0.100575138     0.0534311   -0.2472512     0.0000777    0.0001041     0.0001415   -0.0001519     0.0008733    0.0006940 
   0.100675163     0.0516459   -0.2456374    -0.0000023    0.0001506     0.0000192   -0.0002042     0.0008307    0.0004822 
   0.100775188     0.0514311   -0.2456718    -0.0002066    0.0003878     0.0002217   -0.0000275     0.0002025    0.0002805 
   0.100875213     0.0523453   -0.2447500    -0.0000015   -0.0000043    -0.0000897   -0.0000098     0.0007945    0.0006787 
   0.100975238     0.0526311   -0.2423402     0.0001935    0.0003032     0.0001506   -0.0000190     0.0005775    0.0002783 
   0.101075263     0.0510686   -0.2437082     0.0001045    0.0000999    -0.0000025    0.0000422     0.0004784    0.0002817 
   0.101175288     0.0509787   -0.2447072    -0.0001708   -0.0000585    -0.0000358   -0.0000310     0.0009120    0.0002565 
   0.101275313     0.0514560   -0.2442260     0.0001747    0.0001160     0.0000808   -0.0000967     0.0003089    0.0005043 
   0.101375338     0.0511750   -0.2443562     0.0000071    0.0003977     0.0001563   -0.0001451     0.0006107    0.0003925 
   0.101475363     0.0499781   -0.2428521     0.0001035   -0.0002215    -0.0000669    0.0000539     0.0007577    0.0006018 
   0.101575388     0.0505244   -0.2426616    -0.0001388   -0.0002186     0.0000203    0.0001250     0.0004820    0.0003383 
   0.101675413     0.0498670   -0.2436440    -0.0003249    0.0004737    -0.0000107    0.0001411     0.0010092    0.0004437 
   0.101775438     0.0509635   -0.2422492    -0.0000203   -0.0000212    -0.0000157   -0.0000766     0.0006411    0.0002813 
   0.101875463     0.0503623   -0.2422811     0.0000481   -0.0000378    -0.0000011   -0.0000392     0.0005346    0.0006955 
   0.101975488     0.0481470   -0.2398183    -0.0000866   -0.0001914     0.0000497    0.0000573     0.0007541    0.0002013 
   0.102075513     0.0499355   -0.2425049     0.0002874   -0.0001434    -0.0000151   -0.0000249     0.0006375    0.0004347 
   0.102175538     0.0502666   -0.2415661     0.0000098    0.0000068     0.0000152    0.0003045     0.0009176    0.0002026 
   0.102275563     0.0489140   -0.2410647    -0.0002299   -0.0000237     0.0001079   -0.0000378     0.0007618    0.0010747 
   0.102375588     0.0489150   -0.2405128     0.0001008    0.0003590     0.0000130    0.0000416     0.0009340    0.0001538 
   0.102475613     0.0483978   -0.2401830    -0.0000601   -0.0000898     0.0001848    0.0000323     0.0011705    0.0004107 
   0.102575638     0.0514542   -0.2390995    -0.0001038   -0.0000054     0.0001473   -0.0000077     0.0006138    0.0004990 
   0.102675663     0.0498769   -0.2412160    -0.0001592    0.0003033    -0.0000596   -0.0001041     0.0005319    0.0003664 
   0.102775688     0.0489820   -0.2401876    -0.0000386    0.0001172     0.0000972    0.0000944     0.0007930    0.0003634 
   0.102875713     0.0487405   -0.2387654    -0.0000348    0.0000979     0.0000124    0.0000974     0.0005167    0.0001921 
   0.102975738     0.0498170   -0.2397403     0.0000319   -0.0000744    -0.0001953   -0.0000025     0.0008451    0.0002959 
   0.103075763     0.0481165   -0.2389117     0.0003286    0.0002145     0.0001238    0.0000243     0.0008075    0.0007313 
   0.103175788     0.0478776   -0.2396791     0.0001867   -0.0000212    -0.0000866   -0.0001010     0.0004861    0.0003519 
   0.103275813     0.0478522   -0.2380091    -0.0002576    0.0000022    -0.0001066   -0.0000280     0.0011563    0.0006843 
   0.103375838     0.0497843   -0.2400530     0.0001953   -0.0003379    -0.0000944   -0.0000653     0.0008108    0.0002502 
   0.103475863     0.0473284   -0.2371345    -0.0000967   -0.0002115     0.0001324    0.0000880     0.0006621    0.0003630 
   0.103575888     0.0481738   -0.2376296    -0.0002384   -0.0001764     0.0001568   -0.0001337     0.0010407    0.0007702 
   0.103675913     0.0496980   -0.2366633     0.0000236    0.0000304    -0.0002483    0.0001972     0.0011646    0.0004669 
   0.103775938     0.0485938   -0.2376266    -0.0001825   -0.0001220     0.0000820   -0.0000234     0.0007203   -0.0000818 
   0.103875963     0.0491575   -0.2368887    -0.0001050    0.0002858     0.0001157   -0.0000378     0.0005563    0.0002478 
   0.103975988     0.0481657   -0.2364250     0.0000550   -0.0000690     0.0000427    0.0001570     0.0005796    0.0003682 
   0.104076013     0.0479457   -0.2368243     0.0000639    0.0002388    -0.0000034   -0.0001390     0.0003748    0.0003912 
   0.104176038     0.0485432   -0.2358367     0.0001372    0.0003705    -0.0000553   -0.0001095     0.0007086    0.0001882 
   0.104276063     0.0476528   -0.2361754    -0.0000767   -0.0000200    -0.0000144    0.0000102     0.0008341    0.0005366 
   0.104376088     0.0476957   -0.2349937    -0.0002503   -0.0000742    -0.0001515   -0.0001048     0.0007039    0.0003372 
   0.104476113     0.0464526   -0.2349703     0.0003245   -0.0000306    -0.0000874    0.0000310     0.0007516    0.0007176 
   0.104576138     0.0479385   -0.2335297    -0.0000883    0.0000584     0.0000297   -0.0000592     0.0005057    0.0012027 
   0.104676163     0.0460258   -0.2337429    -0.0000723    0.0000179     0.0000447    0.0000376     0.0012648    0.0007509 
   0.104776188     0.0476110   -0.2349928    -0.0001212    0.0002556     0.0000299   -0.0000100     0.0004226    0.0003913 
   0.104876213     0.0464722   -0.2352417    -0.0002430    0.0003635    -0.0001283    0.0000467     0.0014313    0.0010666 
   0.104976238     0.0471045   -0.2353084     0.0000420    0.0001015    -0.0000029    0.0000281     0.0009713    0.0002701 
   0.105076263     0.0456871   -0.2342415     0.0002918    0.0002317     0.0000997   -0.0000281     0.0011100    0.0006421 
   0.105176288     0.0465743   -0.2336189    -0.0000586   -0.0000064    -0.0000527    0.0000084     0.0010667    0.0002836 
   0.105276313     0.0459756   -0.2327882     0.0002036   -0.0003477    -0.0000220   -0.0000321     0.0007695    0.0007641 
   0.105376338     0.0460227   -0.2322740    -0.0000141    0.0002349    -0.0001360   -0.0000134     0.0004060    0.0010945 
   0.105476363     0.0456272   -0.2338337     0.0000261    0.0002782    -0.0000033    0.0000771     0.0009205    0.0004312 
   0.105576388     0.0469363   -0.2325677     0.0000707   -0.0002340     0.0001882   -0.0000924     0.0011170    0.0007396 
   0.105676413     0.0454522   -0.2339704    -0.0000357    0.0001324     0.0001152    0.0001123     0.0009947    0.0003072 
   0.105776438     0.0458368   -0.2312846     0.0000344    0.0000390    -0.0001355    0.0001800     0.0001750    0.0006614 
   0.105876463     0.0445145   -0.2322133     0.0001459    0.0000004    -0.0001555    0.0002174     0.0008086    0.0006819 
   0.105976488     0.0432710   -0.2306496    -0.0000438    0.0003306    -0.0000097    0.0000077     0.0006676    0.0006733 
   0.106076513     0.0446121   -0.2308561     0.0002832    0.0002882     0.0000040    0.0001057     0.0007936    0.0004413 
   0.106176538     0.0452431   -0.2311357     0.0001327    0.0001747     0.0000612    0.0001083     0.0003619    0.0004165 
   0.106276563     0.0449514   -0.2307426     0.0001327   -0.0000314     0.0000709   -0.0000398     0.0005558    0.0005099 
   0.106376588     0.0447108   -0.2295158    -0.0000410    0.0003003    -0.0001723    0.0001180     0.0009380    0.0007625 
   0.106476613     0.0452436   -0.2312340     0.0002413    0.0001780    -0.0000297    0.0000322     0.0006147    0.0008474 
   0.106576638     0.0453734   -0.2285315    -0.0002172   -0.0001337     0.0000533   -0.0000303     0.0006355    0.0004773 
   0.106676663     0.0455414   -0.2304372     0.0000345    0.0000031    -0.0000003   -0.0000227     0.0008956    0.0007314 
   0.106776688     0.0449527   -0.2301804     0.0001744   -0.0001288    -0.0000410    0.0000195     0.0008364    0.0004987 
   0.106876713     0.0461074   -0.2279134    -0.0000287   -0.0002203    -0.0000058   -0.0000405     0.0007632    0.0004766 
   0.106976738     0.0446543   -0.2289338     0.0000138   -0.0001039    -0.0000633   -0.0000494     0.0008825    0.0003761 
   0.107076763     0.0435896   -0.2295695     0.0001349    0.0001548    -0.0000116   -0.0001236     0.0007853    0.0006133 
   0.107176788     0.0442681   -0.2286953     0.0000836    0.0002012     0.0000998    0.0002141     0.0012480    0.0009285 
   0.107276813     0.0450823   -0.2282510    -0.0003078    0.0000125     0.0000340    0.0000860     0.0007108    0.0005955 
   0.107376838     0.0440731   -0.2282011    -0.0001699   -0.0000316    -0.0000173   -0.0000143     0.0007832    0.0001943 
   0.107476863     0.0432997   -0.2282815     0.0001558   -0.0001605    -0.0000623    0.0001564     0.0010202    0.0004817 
   0.107576888     0.0447276   -0.2285853    -0.0001707   -0.0000038     0.0000227    0.0001581     0.0010397    0.0008978 
   0.107676913     0.0434318   -0.2283195    -0.0001905   -0.0000501     0.0000098    0.0001000     0.0010580    0.0009354 
   0.107776938     0.0425214   -0.2276000     0.0003448   -0.0002096     0.0000963   -0.0000170     0.0007451    0.0007606 
   0.107876963     0.0440080   -0.2265526     0.0003404   -0.0001480    -0.0000650   -0.0000607     0.0003780    0.0009133 
   0.107976988     0.0441032   -0.2261726    -0.0004185    0.0000421    -0.0000375    0.0001167     0.0010829    0.0004562 
   0.108077014     0.0431257   -0.2261071    -0.0001801    0.0002036     0.0000362   -0.0001771     0.0005627    0.0004923 
   0.108177039     0.0429942   -0.2265183    -0.0000917   -0.0001597     0.0000087   -0.0000797     0.0004199    0.0004681 
   0.108277064     0.0436157   -0.2260848     0.0000715   -0.0002200    -0.0000412   -0.0000112     0.0011536    0.0006403 
   0.108377089     0.0443253   -0.2260772    -0.0000897   -0.0000847    -0.0000455   -0.0001395     0.0005620    0.0006155 
   0.108477114     0.0416601   -0.2256469     0.0001995    0.0002063    -0.0000007    0.0000187     0.0005017    0.0006852 
   0.108577139     0.0416392   -0.2254336    -0.0000447    0.0001832    -0.0001049    0.0000975     0.0007232    0.0004105 
   0.108677164     0.0409165   -0.2242697    -0.0002031    0.0000882     0.0001931   -0.0001321     0.0004799    0.0000950 
   0.108777189     0.0417605   -0.2242656     0.0000480   -0.0000603    -0.0001508    0.0001117     0.0010427    0.0003030 
   0.108877214     0.0433243   -0.2252171     0.0000205   -0.0001481     0.0000451    0.0000924     0.0007684    0.0006193 
   0.108977239     0.0422684   -0.2248188     0.0001405   -0.0000118     0.0000910   -0.0000208     0.0009432    0.0005518 
   0.109077264     0.0423368   -0.2245244     0.0001638    0.0001850    -0.0000121    0.0000259     0.0009032    0.0007009 
   0.109177289     0.0423267   -0.2246107     0.0000648   -0.0000661    -0.0000170    0.0000425     0.0007684    0.0003245 
   0.109277314     0.0423470   -0.2240332    -0.0000116   -0.0001917     0.0001755   -0.0002225     0.0009661    0.0002990 
   0.109377339     0.0413962   -0.2231001    -0.0001692   -0.0000658     0.0000259   -0.0000516     0.0008779    0.0002520 
   0.109477364     0.0414444   -0.2227277    -0.0000444    0.0001797     0.0000079    0.0001984     0.0007799    0.0006093 
   0.109577389     0.0420963   -0.2235111    -0.0002411   -0.0002523    -0.0000526   -0.0000843     0.0005280    0.0006877 
   0.109677414     0.0401738   -0.2223303     0.0000861    0.0003861     0.0000839    0.0000712     0.0006757    0.0004387 
   0.109777439     0.0414021   -0.2222225    -0.0001908    0.0003417     0.0001223   -0.0000045     0.0002572    0.0010880 
   0.109877464     0.0411796   -0.2229616     0.0001350    0.0000916    -0.0000773    0.0001680     0.0009086    0.0000756 
   0.109977489     0.0417607   -0.2224833    -0.0000328    0.0000376     0.0000343    0.0001881     0.0010745    0.0006755 
   0.110077514     0.0411000   -0.2209563    -0.0006649   -0.0000057     0.0001859   -0.0000089     0.0003650    0.0002374 
   0.110177539     0.0402474   -0.2209888    -0.0001485    0.0002032    -0.0000331    0.0001035     0.0010606    0.0006798 
   0.110277564     0.0413014   -0.2204111     0.0002825    0.0002362     0.0000292   -0.0000200     0.0008806    0.0003779 
   0.110377589     0.0410629   -0.2217433     0.0001074    0.0000172     0.0000731   -0.0000774     0.0007438    0.0005737 
   0.110477614     0.0409825   -0.2207065    -0.0002207   -0.0000363    -0.0000348   -0.0000446     0.0006637    0.0005930 
   0.110577639     0.0408653   -0.2199255    -0.0001528    0.0000504     0.0000291   -0.0002400     0.0005954    0.0008352 
   0.110677664     0.0407598   -0.2196872    -0.0002879    0.0000119    -0.0002599   -0.0000442     0.0007442    0.0009542 
   0.110777689     0.0409416   -0.2208345    -0.0001173   -0.0001161    -0.0001077    0.0000165     0.0006671    0.0008135 
   0.110877714     0.0406015   -0.2185592     0.0000492    0.0004413     0.0000351   -0.0000302     0.0007967    0.0009962 
   0.110977739     0.0400559   -0.2188763     0.0002934    0.0000429    -0.0000506   -0.0001971     0.0009692    0.0005712 
   0.111077764     0.0392066   -0.2189228    -0.0001838    0.0002688    -0.0000358    0.0001812     0.0004982    0.0001999 
   0.111177789     0.0404113   -0.2188376     0.0003225   -0.0005043     0.0001331   -0.0000468     0.0005107    0.0007371 
   0.111277814     0.0400318   -0.2174710     0.0000339    0.0001421    -0.0000368    0.0001096     0.0005113    0.0010413 
   0.111377839     0.0409535   -0.2192504     0.0001106   -0.0000599     0.0000146   -0.0000220     0.0002601    0.0004678 
   0.111477864     0.0396226   -0.2186877    -0.0003345    0.0000019     0.0000212   -0.0000545     0.0009893    0.0005736 
   0.111577889     0.0405975   -0.2177324     0.0000978   -0.0001612    -0.0001619   -0.0000245     0.0008771    0.0012231 
   0.111677914     0.0403910   -0.2181415    -0.0002423   -0.0000986     0.0000545   -0.0001132     0.0006610    0.0005755 
   0.111777939     0.0394403   -0.2180467    -0.0003288   -0.0002249    -0.0001445    0.0000388     0.0006375    0.0009628 
   0.111877964     0.0394960   -0.2182124    -0.0001589    0.0001497    -0.0000407    0.0000644     0.0004234    0.0005223 
   0.111977989     0.0397221   -0.2171426    -0.0000287    0.0000978     0.0000854   -0.0000789     0.0007709    0.0009751 
   0.112078014     0.0399243   -0.2156836     0.0001390    0.0001188     0.0000383    0.0000497     0.0005677    0.0007561 
   0.112178039     0.0398729   -0.2164627    -0.0000722    0.0001408     0.0001126   -0.0001743     0.0004945    0.0005611 
   0.112278064     0.0389647   -0.2168582    -0.0001265    0.0001159     0.0000180    0.0000345     0.0009775    0.0007488 
   0.112378089     0.0395265   -0.2155680    -0.0002805   -0.0001471    -0.0001090    0.0001709     0.0003609    0.0002797 
   0.112478114     0.0386807   -0.2164791     0.0004262    0.0001146    -0.0000922    0.0000215     0.0005262    0.0004633 
   0.112578139     0.0382737   -0.2150858    -0.0002798   -0.0001229     0.0000553    0.0002450     0.0005314    0.0013427 
   0.112678164     0.0392462   -0.2165361    -0.0002804   -0.0000095     0.0000440   -0.0001100     0.0006908    0.0002647 
   0.112778189     0.0381617   -0.2157914    -0.0000683   -0.0002253    -0.0000199   -0.0001944     0.0006365    0.0013224 
   0.112878214     0.0376453   -0.2147041    -0.0000599   -0.0000828     0.0001269   -0.0000611     0.0008413    0.0008500 
   0.112978239     0.0375459   -0.2142604     0.0000556   -0.0000398    -0.0000030    0.0001615     0.0011058    0.0007916 
   0.113078264     0.0386528   -0.2141909     0.0001455    0.0000490    -0.0000472    0.0000491     0.0003773    0.0008309 
   0.113178289     0.0382159   -0.2144578     0.0000308   -0.0002007    -0.0000787    0.0000627     0.0008355    0.0004533 
   0.113278314     0.0395829   -0.2143424    -0.0003250   -0.0000469    -0.0001513   -0.0001122     0.0005198    0.0008295 
   0.113378339     0.0384173   -0.2139899    -0.0001351    0.0001249     0.0000297   -0.0000659     0.0008240    0.0006704 
   0.113478364     0.0387867   -0.2133427     0.0000441   -0.0000040     0.0000777   -0.0000678     0.0007245    0.0007378 
   0.113578389     0.0381793   -0.2127053    -0.0002489   -0.0002580     0.0000445   -0.0000843     0.0008823    0.0009894 
   0.113678414     0.0385222   -0.2127035     0.0001541   -0.0000428     0.0000299    0.0000298     0.0007093    0.0005648 
   0.113778439     0.0377275   -0.2134202    -0.0003140    0.0003844    -0.0000433   -0.0000086     0.0006781    0.0010418 
   0.113878464     0.0373570   -0.2119914     0.0001882    0.0001321    -0.0000263    0.0002048     0.0007810    0.0006384 
   0.113978489     0.0374990   -0.2130835     0.0000330    0.0002786    -0.0000597    0.0000828     0.0008783    0.0004125 
   0.114078514     0.0369784   -0.2121859     0.0000520    0.0000713     0.0000148    0.0001433     0.0011376    0.0010822 
   0.114178539     0.0370762   -0.2125348    -0.0002337    0.0000740    -0.0001097   -0.0002590     0.0007855    0.0010249 
   0.114278564     0.0379047   -0.2108069     0.0001274   -0.0002152     0.0001651   -0.0000076     0.0006400    0.0004058 
   0.114378589     0.0375568   -0.2112015    -0.0000315    0.0003073    -0.0000478    0.0000629     0.0010175    0.0006768 
   0.114478614     0.0361989   -0.2114596     0.0001789    0.0000730     0.0000854   -0.0001783     0.0004833    0.0006225 
   0.114578639     0.0376053   -0.2110644     0.0001166   -0.0005226    -0.0000403    0.0001347     0.0002459    0.0005173 
   0.114678664     0.0368921   -0.2098714     0.0005003    0.0000836    -0.0001003    0.0001887     0.0007165    0.0007832 
   0.114778689     0.0373811   -0.2111447    -0.0003120   -0.0002146     0.0001059    0.0000960     0.0003754    0.0005441 
   0.114878714     0.0377694   -0.2114663    -0.0000337    0.0001273    -0.0000277   -0.0000501     0.0003275    0.0005857 
   0.114978739     0.0375088   -0.2109318     0.0000773    0.0000462    -0.0001326    0.0001843     0.0008529    0.0013391 
   0.115078764     0.0362712   -0.2111547     0.0002125    0.0001023    -0.0000066   -0.0000777     0.0011364    0.0010160 
   0.115178789     0.0350792   -0.2095432     0.0002690   -0.0000837    -0.0000449   -0.0001081     0.0006142    0.0007309 
   0.115278814     0.0376052   -0.2091726    -0.0003115   -0.0001212     0.0001229    0.0001824     0.0004745    0.0008617 
   0.115378839     0.0368155   -0.2091065     0.0002555   -0.0001276     0.0000095    0.0000153     0.0007839    0.0010525 
   0.115478864     0.0365673   -0.2093042    -0.0002171    0.0002121    -0.0000490   -0.0000097     0.0007960    0.0007819 
   0.115578889     0.0364078   -0.2089182    -0.0001575   -0.0002578    -0.0000059    0.0000662     0.0002295    0.0009396 
   0.115678914     0.0362663   -0.2068582     0.0001031    0.0000585     0.0000304    0.0000556     0.0007414    0.0003208 
   0.115778939     0.0369990   -0.2081720    -0.0002733   -0.0000781     0.0000262    0.0001115     0.0001658    0.0008772 
   0.115878964     0.0367359   -0.2078909    -0.0001008   -0.0000562     0.0000417    0.0000111     0.0006820    0.0006570 
   0.115978989     0.0360011   -0.2079192    -0.0000860    0.0002411    -0.0001066   -0.0000067     0.0010044    0.0013193 
   0.116079015     0.0368428   -0.2068400     0.0001975    0.0000035    -0.0000414   -0.0000262     0.0005693    0.0004508 
   0.116179040     0.0351005   -0.2079481     0.0000049    0.0001991    -0.0000095   -0.0000836     0.0003577    0.0005006 
   0.116279065     0.0357206   -0.2072096     0.0000327   -0.0000849     0.0000094    0.0000718     0.0005817    0.0009085 
   0.116379090     0.0356582   -0.2069868    -0.0003596   -0.0000379    -0.0000989   -0.0000934     0.0005817    0.0006519 
   0.116479115     0.0364765   -0.2066994    -0.0001680   -0.0002153    -0.0001606   -0.0001472     0.0008887    0.0006862 
   0.116579140     0.0349865   -0.2060532    -0.0001218    0.0001261    -0.0001365    0.0000716     0.0007003    0.0010728 
   0.116679165     0.0355039   -0.2059776     0.0001788   -0.0002065     0.0001772    0.0000008     0.0003780    0.0000508 
   0.116779190     0.0354095   -0.2066070     0.0001041   -0.0001134    -0.0001684    0.0000216     0.0003210    0.0005501 
   0.116879215     0.0355050   -0.2056128    -0.0000024    0.0000097     0.0000941    0.0001299     0.0005464    0.0011998 
   0.116979240     0.0351808   -0.2056098    -0.0000266   -0.0000078     0.0000580    0.0000409     0.0008040    0.0010944 
   0.117079265     0.0357914   -0.2049827    -0.0000669   -0.0002699     0.0000668    0.0000304     0.0008556    0.0006600 
   0.117179290     0.0347865   -0.2054708     0.0003049    0.0002374    -0.0000455   -0.0001941     0.0005834    0.0001945 
   0.117279315     0.0359821   -0.2049763     0.0001418    0.0002873     0.0001005   -0.0000714     0.0010303    0.0008778 
   0.117379340     0.0353013   -0.2043214    -0.0001449   -0.0001405     0.0000125   -0.0000018     0.0002318    0.0006111 
   0.117479365     0.0355649   -0.2043443     0.0001482   -0.0000026    -0.0000801   -0.0000544     0.0006319    0.0007403 
   0.117579390     0.0341012   -0.2035549     0.0000554    0.0000559     0.0000293   -0.0002178     0.0003570    0.0003610 
   0.117679415     0.0335708   -0.2043416     0.0001048   -0.0000254    -0.0000014    0.0000867     0.0002066    0.0007431 
   0.117779440     0.0343984   -0.2035144    -0.0002219   -0.0002932     0.0000165    0.0001331     0.0006386    0.0007320 
   0.117879465     0.0348321   -0.2035231    -0.0000103    0.0000072    -0.0003185    0.0001890     0.0002603    0.0005484 
   0.117979490     0.0346830   -0.2028528    -0.0000512   -0.0000174     0.0000192   -0.0000063     0.0005516    0.0002274 
   0.118079515     0.0347495   -0.2031437    -0.0002389    0.0000362    -0.0000484    0.0000995     0.0007899    0.0009823 
   0.118179540     0.0334798   -0.2031738     0.0000407   -0.0000332    -0.0000457   -0.0000500     0.0009334    0.0006663 
   0.118279565     0.0342434   -0.2030512    -0.0001347   -0.0001133     0.0000586   -0.0001053     0.0003714    0.0004544 
   0.118379590     0.0341062   -0.2024252    -0.0000353    0.0001676    -0.0001351   -0.0001000     0.0004405    0.0004576 
   0.118479615     0.0338543   -0.2022959     0.0001507   -0.0002961    -0.0001201    0.0000584     0.0003748    0.0007024 
   0.118579640     0.0351020   -0.2016595     0.0001899    0.0001263     0.0001072   -0.0000803     0.0004053    0.0010839 
   0.118679665     0.0333587   -0.2016019    -0.0002049    0.0001191    -0.0000986   -0.0001502     0.0002977    0.0003934 
   0.118779690     0.0344429   -0.2008708     0.0000384    0.0001542     0.0001091    0.0000323     0.0004273   -0.0000342 
   0.118879715     0.0336208   -0.2018728    -0.0000043   -0.0002317    -0.0000648   -0.0000304     0.0003988    0.0005175 
   0.118979740     0.0332722   -0.2012385    -0.0000267    0.0003044     0.0000613    0.0000492     0.0009070    0.0007881 
   0.119079765     0.0339893   -0.2010252    -0.0002087    0.0001258     0.0000816   -0.0000279    -0.0001007    0.0013431 
   0.119179790     0.0325778   -0.2014160    -0.0000591   -0.0000709     0.0001730   -0.0000830     0.0009010    0.0005455 
   0.119279815     0.0330127   -0.2015860     0.0000443    0.0001899    -0.0000447   -0.0000975     0.0009683    0.0008900 
   0.119379840     0.0331939   -0.1992467    -0.0002728   -0.0001786    -0.0000553    0.0000047     0.0006134    0.0003589 
   0.119479865     0.0324819   -0.2005002    -0.0001264    0.0000546    -0.0001821    0.0001205     0.0008604    0.0005383 
   0.119579890     0.0323171   -0.1989915     0.0002753    0.0002454    -0.0000354   -0.0000831     0.0010286    0.0006390 
   0.119679915     0.0328305   -0.1996680    -0.0002829   -0.0002252    -0.0000645    0.0000200     0.0002928    0.0003012 
   0.119779940     0.0328199   -0.1993739     0.0001774   -0.0001825     0.0001264   -0.0000947     0.0004096    0.0008784 
   0.119879965     0.0325031   -0.1994210    -0.0000688   -0.0000471     0.0000518    0.0001657     0.0005416    0.0010110 
   0.119979990     0.0326890   -0.1991966    -0.0002583   -0.0000060     0.0001138   -0.0001231     0.0005867    0.0008692 
   0.120080015     0.0336693   -0.1985416     0.0003284   -0.0000415    -0.0000925    0.0000578     0.0003913    0.0008646 
   0.120180040     0.0325473   -0.1980039    -0.0001655   -0.0001096    -0.0001257   -0.0000275     0.0005966    0.0008394 
   0.120280065     0.0320991   -0.1983005    -0.0001708   -0.0000785     0.0000584    0.0000762     0.0004546    0.0004131 
   0.120380090     0.0327633   -0.1981730     0.0001796   -0.0000014    -0.0001723   -0.0000938     0.0009768    0.0004095 
   0.120480115     0.0337943   -0.1979627     0.0000467    0.0002344     0.0000886    0.0000220     0.0006273    0.0010987 
   0.120580140     0.0325761   -0.1977001    -0.0001103   -0.0000206    -0.0000180    0.0000445     0.0004584    0.0009699 
   0.120680165     0.0324475   -0.1972336     0.0000404   -0.0000829     0.0000373   -0.0000937     0.0008563    0.0008598 
   0.120780190     0.0328522   -0.1975973     0.0000310    0.0001252    -0.0000496    0.0000481     0.0006542    0.0007445 
   0.120880215     0.0325884   -0.1963478    -0.0000502   -0.0002056     0.0000653    0.0001236     0.0004116    0.0006524 
   0.120980240     0.0316882   -0.1969475     0.0000834   -0.0002243     0.0001045    0.0000485     0.0004662    0.0008412 
   0.121080265     0.0310670   -0.1972805     0.0000244   -0.0000221    -0.0000883    0.0000298     0.0005038    0.0009078 
   0.121180290     0.0319764   -0.1955917     0.0000419   -0.0000325     0.0000154    0.0001946     0.0005188    0.0010855 
   0.121280315     0.0323664   -0.1956805    -0.0002719    0.0001319     0.0001079   -0.0001245     0.0005987    0.0008617 
   0.121380340     0.0334000   -0.1952612     0.0000053    0.0000798    -0.0000144    0.0000595     0.0004483    0.0010404 
   0.121480365     0.0312263   -0.1953380    -0.0002233    0.0001397     0.0000672    0.0001236     0.0006372    0.0008773 
   0.121580390     0.0316204   -0.1953058     0.0001707   -0.0000315    -0.0000844   -0.0000386     0.0007975    0.0010782 
   0.121680415     0.0313805   -0.1952032    -0.0001850    0.0001397     0.0000294    0.0000029    -0.0002630    0.0004450 
   0.121780440     0.0320132   -0.1952173     0.0002448    0.0001707     0.0001590    0.0000393     0.0003601    0.0005179 
   0.121880465     0.0310021   -0.1946388     0.0002255   -0.0000211     0.0000191    0.0000165     0.0004660    0.0007465 
   0.121980490     0.0302525   -0.1945128     0.0001520    0.0000496    -0.0000374    0.0000223     0.0002436    0.0004582 
   0.122080515     0.0309932   -0.1934301     0.0002887   -0.0001092    -0.0001303   -0.0000586     0.0003571    0.0010798 
   0.122180540     0.0318356   -0.1954726    -0.0004829    0.0000453    -0.0000220   -0.0001937     0.0005441    0.0009593 
   0.122280565     0.0315398   -0.1947978     0.0000465    0.0000589     0.0001342   -0.0000988     0.0006478    0.0006062 
   0.122380590     0.0307856   -0.1933036    -0.0000264   -0.0000277    -0.0001266    0.0000415     0.0001548    0.0007784 
   0.122480615     0.0315021   -0.1954101     0.0000852   -0.0001029     0.0000511   -0.0000555     0.0009948    0.0011335 
   0.122580640     0.0314386   -0.1938787     0.0000250    0.0000985    -0.0000075   -0.0000024     0.0006521    0.0007645 
   0.122680665     0.0308990   -0.1935444     0.0001749   -0.0000030     0.0001706   -0.0001556     0.0003278    0.0008195 
   0.122780690     0.0315462   -0.1930613     0.0000118    0.0001908     0.0000955   -0.0000111     0.0005838    0.0007507 
   0.122880715     0.0309327   -0.1937306    -0.0001303    0.0000383     0.0000406   -0.0001425     0.0003760    0.0007549 
   0.122980740     0.0313012   -0.1926862     0.0001539    0.0002553     0.0000392   -0.0001685     0.0005079    0.0008434 
   0.123080765     0.0313855   -0.1921634    -0.0000980    0.0001910    -0.0000285    0.0000177     0.0009606    0.0008851 
   0.123180790     0.0304044   -0.1914980     0.0001481   -0.0000496     0.0000843    0.0001367     0.0005227    0.0013924 
   0.123280815     0.0308969   -0.1923971     0.0002462    0.0001993     0.0000551   -0.0000482     0.0002755    0.0008785 
   0.123380840     0.0315627   -0.1923718     0.0001907    0.0000994    -0.0000196   -0.0001560     0.0006108    0.0006756 
   0.123480865     0.0311015   -0.1913444    -0.0002411    0.0000148     0.0000620   -0.0000577     0.0000705    0.0008384 
   0.123580890     0.0296366   -0.1917479    -0.0000969   -0.0003212     0.0000077   -0.0001734     0.0000831    0.0003826 
   0.123680915     0.0307359   -0.1919724    -0.0002041   -0.0002100     0.0000003    0.0000434     0.0001845    0.0007804 
   0.123780940     0.0297650   -0.1911563     0.0000692    0.0002955     0.0000672   -0.0000455     0.0006128    0.0006566 
   0.123880965     0.0299000   -0.1910515    -0.0000846   -0.0000953     0.0000176    0.0001328     0.0003506    0.0004281 
   0.123980990     0.0303747   -0.1899274    -0.0000665    0.0000563     0.0002161   -0.0000809     0.0003762    0.0006836 
   0.124081016     0.0305833   -0.1902065     0.0000396   -0.0001248     0.0000423   -0.0000381    -0.0000852    0.0006879 
   0.124181041     0.0302086   -0.1892503     0.0001994    0.0000894    -0.0001442   -0.0002247     0.0002593    0.0010202 
   0.124281066     0.0300695   -0.1913404     0.0000350   -0.0001470     0.0001012   -0.0000571     0.0001971    0.0003514 
   0.124381091     0.0312844   -0.1900958     0.0001731   -0.0002435     0.0000541    0.0000318     0.0003175    0.0005210 
   0.124481116     0.0303155   -0.1889834    -0.0001893    0.0000911    -0.0001434   -0.0002467    -0.0000229    0.0012450 
   0.124581141     0.0299385   -0.1887474     0.0002193    0.0001315     0.0000644   -0.0001346     0.0005870    0.0008041 
   0.124681166     0.0295416   -0.1888667     0.0001321    0.0001106    -0.0001018   -0.0000769     0.0001619    0.0005045 
   0.124781191     0.0294656   -0.1889997    -0.0003339   -0.0000159     0.0000177    0.0001578     0.0003494    0.0006205 
   0.124881216     0.0298851   -0.1883660    -0.0002603   -0.0000920     0.0000946   -0.0001011     0.0000760    0.0009240 
   0.124981241     0.0297973   -0.1889713     0.0000341   -0.0000034     0.0001815   -0.0001328     0.0002494    0.0009540 
   0.125081266     0.0304049   -0.1886207    -0.0002327   -0.0000591    -0.0000946    0.0001365     0.0009784    0.0009920 
   0.125181291     0.0297692   -0.1879845     0.0000592   -0.0001911    -0.0001577    0.0001116     0.0006409    0.0005428 
   0.125281316     0.0295396   -0.1889357     0.0001724    0.0000222    -0.0001099    0.0000967     0.0003760    0.0012526 
   0.125381341     0.0296477   -0.1877122     0.0000391   -0.0000912     0.0000526    0.0000977     0.0011511    0.0003572 
   0.125481366     0.0298628   -0.1873738    -0.0000458   -0.0001516    -0.0000073   -0.0000611     0.0008700    0.0009544 
   0.125581391     0.0300610   -0.1877266    -0.0000866    0.0000935     0.0001444   -0.0000262     0.0006146    0.0009945 
   0.125681416     0.0300113   -0.1873132     0.0003114    0.0002292    -0.0000804    0.0000372     0.0002411    0.0008151 
   0.125781441     0.0290980   -0.1878561    -0.0000214   -0.0002050     0.0001719    0.0003198     0.0004387    0.0006524 
   0.125881466     0.0291876   -0.1865161    -0.0002135    0.0003165    -0.0000387    0.0000765     0.0006754    0.0009407 
   0.125981491     0.0285433   -0.1862761    -0.0001267   -0.0002249     0.0000350    0.0000591     0.0001928    0.0010971 
   0.126081516     0.0290901   -0.1863173     0.0000739   -0.0001101     0.0002561   -0.0000827     0.0001775    0.0006893 
   0.126181541     0.0294819   -0.1868204     0.0002374    0.0000019     0.0000382    0.0001053     0.0006742    0.0007065 
   0.126281566     0.0277260   -0.1862084    -0.0000615   -0.0000207     0.0000429   -0.0000914     0.0002526    0.0009062 
   0.126381591     0.0292227   -0.1865871     0.0001495    0.0000615    -0.0000048   -0.0001257     0.0000176    0.0007189 
   0.126481616     0.0289670   -0.1859805    -0.0001692    0.0001470     0.0000959   -0.0001615     0.0002145    0.0006552 
   0.126581641     0.0285935   -0.1854820     0.0000728    0.0000953     0.0000015    0.0001272     0.0001697    0.0005966 
   0.126681666     0.0285505   -0.1852756    -0.0001221    0.0002883    -0.0002203   -0.0000274     0.0004641    0.0009450 
   0.126781691     0.0288675   -0.1851433    -0.0001470    0.0000087     0.0000109    0.0003294     0.0004235    0.0006629 
   0.126881716     0.0286336   -0.1849041    -0.0000670    0.0001051    -0.0000349   -0.0001141     0.0003164    0.0007413 
   0.126981741     0.0288660   -0.1845562    -0.0000658   -0.0001454     0.0000057   -0.0000760     0.0004402    0.0008199 
   0.127081766     0.0292000   -0.1842256     0.0000151   -0.0003327     0.0002262    0.0000667    -0.0001952    0.0010585 
   0.127181791     0.0280653   -0.1840331    -0.0002740   -0.0000414    -0.0001619    0.0000967    -0.0000575    0.0007669 
   0.127281816     0.0287224   -0.1842208     0.0001458   -0.0000707     0.0000076   -0.0001713     0.0005937    0.0009760 
   0.127381841     0.0275823   -0.1831233    -0.0005639   -0.0000184    -0.0001814    0.0001321     0.0000694    0.0006361 
   0.127481866     0.0285920   -0.1834836    -0.0002274   -0.0000945     0.0001431    0.0000157     0.0000748    0.0006199 
   0.127581891     0.0284367   -0.1839700    -0.0001975   -0.0001103     0.0000460    0.0001497     0.0006181    0.0010484 
   0.127681916     0.0283831   -0.1842351    -0.0000870   -0.0000187    -0.0000514   -0.0001588     0.0003017    0.0004971 
   0.127781941     0.0279424   -0.1833164    -0.0002127    0.0000722     0.0000954    0.0000190     0.0003539    0.0008954 
   0.127881966     0.0283754   -0.1833623     0.0001367    0.0004560    -0.0000655    0.0000311    -0.0000671    0.0005487 
   0.127981991     0.0281953   -0.1837905    -0.0002701    0.0000821    -0.0000438    0.0000460     0.0000528    0.0006911 
   0.128082016     0.0280402   -0.1827076     0.0000968    0.0000825    -0.0000019    0.0000274     0.0007079    0.0008498 
   0.128182041     0.0281140   -0.1824859    -0.0001019   -0.0001106     0.0000804   -0.0000138     0.0004303    0.0005139 
   0.128282066     0.0276083   -0.1817775     0.0000931   -0.0000471     0.0003455    0.0000831     0.0007217    0.0013439 
   0.128382091     0.0282082   -0.1814082    -0.0001097    0.0001377    -0.0000551   -0.0001055    -0.0002116    0.0007358 
   0.128482116     0.0277848   -0.1813458    -0.0001786   -0.0000891    -0.0000036    0.0000917     0.0001365    0.0002558 
   0.128582141     0.0270468   -0.1821839    -0.0000510   -0.0000709    -0.0001040    0.0001554     0.0003225    0.0011531 
   0.128682166     0.0271320   -0.1815110    -0.0001037   -0.0000674    -0.0001206    0.0000843     0.0002653    0.0006388 
   0.128782191     0.0279390   -0.1806835    -0.0000252    0.0001011    -0.0001972    0.0000198     0.0006136    0.0001796 
   0.128882216     0.0273710   -0.1810893    -0.0000796   -0.0002985     0.0001593   -0.0001225    -0.0002328    0.0005086 
   0.128982241     0.0270528   -0.1804486     0.0000507   -0.0002074    -0.0000547   -0.0002126     0.0001091    0.0004260 
   0.129082266     0.0272630   -0.1811328    -0.0002265    0.0002224    -0.0001298    0.0000168     0.0005350    0.0008174 
   0.129182291     0.0274964   -0.1810752    -0.0000992    0.0000812    -0.0000894   -0.0002431     0.0004399    0.0004639 
   0.129282316     0.0269674   -0.1802687    -0.0000675    0.0002536     0.0000574    0.0000729    -0.0001273    0.0004983 
   0.129382341     0.0276148   -0.1800531     0.0001131    0.0002038    -0.0001748   -0.0000602     0.0001480    0.0009961 
   0.129482366     0.0269776   -0.1795077    -0.0001614   -0.0001556     0.0002364   -0.0000216     0.0011230    0.0008838 
   0.129582391     0.0270825   -0.1799745    -0.0000150    0.0000166    -0.0000607    0.0001198     0.0003000    0.0005936 
   0.129682416     0.0265327   -0.1798662     0.0001732    0.0002538     0.0000029    0.0002347     0.0003885    0.0010689 
   0.129782441     0.0266798   -0.1790635     0.0001156   -0.0002717    -0.0002466    0.0002389     0.0005544    0.0008357 
   0.129882466     0.0272835   -0.1788218    -0.0000865   -0.0002590     0.0000736    0.0001423     0.0000718    0.0005518 
   0.129982491     0.0268331   -0.1793299     0.0001556   -0.0001479     0.0000509    0.0000654     0.0006025    0.0009459 
   0.130082516     0.0273898   -0.1791330    -0.0000388    0.0001856    -0.0001579    0.0000705     0.0005821    0.0004118 
   0.130182541     0.0266507   -0.1788635     0.0000278    0.0000547     0.0000382   -0.0001736     0.0003066    0.0005676 
   0.130282566     0.0264984   -0.1784049    -0.0000343   -0.0000137     0.0002367    0.0001266     0.0007567   -0.0000250 
   0.130382591     0.0262650   -0.1774628     0.0000183    0.0000813    -0.0000154    0.0001254     0.0000066    0.0007290 
   0.130482616     0.0257526   -0.1781404     0.0002083   -0.0000294     0.0000138   -0.0000694    -0.0000768    0.0010474 
   0.130582641     0.0267725   -0.1767567     0.0002445   -0.0002149     0.0000564    0.0001103    -0.0000040    0.0010129 
   0.130682666     0.0266241   -0.1780389    -0.0001234   -0.0000883     0.0001119    0.0000245     0.0002430    0.0008806 
   0.130782691     0.0264475   -0.1776081    -0.0000040   -0.0000943     0.0001107   -0.0003092     0.0001035    0.0010795 
   0.130882716     0.0270249   -0.1771730    -0.0000029   -0.0000580    -0.0001217    0.0000422     0.0001686    0.0012190 
   0.130982741     0.0270743   -0.1767574    -0.0004053    0.0000754     0.0000185   -0.0001169    -0.0001330    0.0009005 
   0.131082766     0.0274027   -0.1769250     0.0001787    0.0000370     0.0000369   -0.0000625     0.0002228    0.0006504 
   0.131182791     0.0265121   -0.1767257     0.0000440   -0.0000708     0.0001315    0.0000521     0.0002463    0.0007997 
   0.131282816     0.0264499   -0.1767831    -0.0000736   -0.0002452     0.0000829    0.0000984     0.0002894    0.0013691 
   0.131382841     0.0253864   -0.1766023    -0.0004686   -0.0001273     0.0001761    0.0000049     0.0003113    0.0005851 
   0.131482866     0.0261027   -0.1763206    -0.0000325    0.0000171    -0.0000831   -0.0001571     0.0005326    0.0005581 
   0.131582891     0.0263159   -0.1761203     0.0002624    0.0002007    -0.0001303   -0.0001632    -0.0001071    0.0008395 
   0.131682916     0.0261193   -0.1761826     0.0000049    0.0001782    -0.0000343    0.0000125     0.0002133    0.0008616 
   0.131782941     0.0261990   -0.1755850    -0.0000865    0.0002681    -0.0000302    0.0000072    -0.0002000    0.0007667 
   0.131882966     0.0266120   -0.1757914    -0.0002005    0.0001081     0.0001280   -0.0000997     0.0007009    0.0004629 
   0.131982991     0.0256842   -0.1753192    -0.0001959   -0.0002114     0.0000496    0.0001158    -0.0002163    0.0004775 
   0.132083017     0.0262701   -0.1737360    -0.0001642   -0.0002442    -0.0001798   -0.0000146    -0.0000484    0.0009072 
   0.132183042     0.0261903   -0.1746254    -0.0001628   -0.0003490     0.0000424    0.0000344    -0.0004429    0.0008068 
   0.132283067     0.0261738   -0.1741798     0.0000447    0.0002353    -0.0000314    0.0000127     0.0002061    0.0005502 
   0.132383092     0.0250746   -0.1743980     0.0000588   -0.0001723     0.0000231    0.0000897     0.0001020    0.0008455 
   0.132483117     0.0264224   -0.1738018     0.0001588   -0.0004029    -0.0000080   -0.0002453    -0.0001565    0.0007235 
   0.132583142     0.0250722   -0.1732568    -0.0003274    0.0000068     0.0001026   -0.0000040     0.0002305    0.0010647 
   0.132683167     0.0257662   -0.1736429     0.0001181    0.0000791    -0.0000509    0.0000537     0.0001290    0.0010451 
   0.132783192     0.0260688   -0.1730004     0.0001497    0.0001447     0.0000329    0.0000153     0.0000605    0.0008291 
   0.132883217     0.0246831   -0.1736638    -0.0003255   -0.0000140     0.0000125    0.0000118     0.0003586    0.0009517 
   0.132983242     0.0256107   -0.1727516     0.0001107    0.0001309    -0.0000182    0.0000595     0.0000008    0.0008830 
   0.133083267     0.0252231   -0.1745279    -0.0003206   -0.0002029    -0.0000400   -0.0000485     0.0001450    0.0013890 
   0.133183292     0.0253600   -0.1731344     0.0002058    0.0000352    -0.0000190   -0.0001737     0.0006677    0.0005747 
   0.133283317     0.0254059   -0.1724947     0.0000903    0.0000166    -0.0001647    0.0000308     0.0000906    0.0008986 
   0.133383342     0.0253979   -0.1720456    -0.0001628   -0.0002272    -0.0002748   -0.0001921     0.0000296    0.0010231 
   0.133483367     0.0249249   -0.1717575    -0.0004203    0.0002009     0.0000505    0.0000203     0.0000338    0.0003824 
   0.133583392     0.0261962   -0.1721782     0.0000035   -0.0001229    -0.0001027   -0.0000581     0.0001054    0.0007836 
   0.133683417     0.0252925   -0.1726167    -0.0002635   -0.0001528    -0.0000472    0.0001312     0.0002440    0.0005025 
   0.133783442     0.0255772   -0.1717007    -0.0001802    0.0001055     0.0000881   -0.0002285     0.0000482    0.0005209 
   0.133883467     0.0251783   -0.1718591     0.0001940    0.0001845    -0.0001283   -0.0000234     0.0002234    0.0005520 
   0.133983492     0.0253543   -0.1717481    -0.0000706   -0.0000037     0.0000056   -0.0001204    -0.0000653    0.0006626 
   0.134083517     0.0257239   -0.1717963    -0.0000005   -0.0003409    -0.0000245   -0.0000746     0.0003971    0.0011441 
   0.134183542     0.0249480   -0.1704226    -0.0003055    0.0002036    -0.0002261    0.0000013    -0.0001073    0.0007794 
   0.134283567     0.0243353   -0.1706692     0.0000925   -0.0004741    -0.0000461   -0.0001230     0.0003056    0.0004533 
   0.134383592     0.0251312   -0.1711475     0.0001760   -0.0000977     0.0001356   -0.0003038     0.0005137    0.0008617 
   0.134483617     0.0243166   -0.1709258     0.0000042    0.0002065    -0.0000277   -0.0000245     0.0004552    0.0005661 
   0.134583642     0.0242424   -0.1708069    -0.0003560    0.0000296     0.0000798    0.0000735     0.0003967    0.0011624 
   0.134683667     0.0248960   -0.1698188    -0.0003174    0.0004916     0.0001350    0.0000800    -0.0000550    0.0008413 
   0.134783692     0.0250170   -0.1700635    -0.0004596   -0.0000370    -0.0001272   -0.0001579     0.0003151    0.0008941 
   0.134883717     0.0251256   -0.1707916    -0.0002815    0.0001241    -0.0001293    0.0000180     0.0008017    0.0008738 
   0.134983742     0.0243766   -0.1697925     0.0000267   -0.0001753    -0.0000185    0.0000351    -0.0004677    0.0009569 
   0.135083767     0.0251199   -0.1696785    -0.0002243    0.0000358     0.0001328    0.0001186     0.0005097    0.0005377 
   0.135183792     0.0247992   -0.1694422     0.0002328   -0.0003029    -0.0000633    0.0000697     0.0001786    0.0009053 
   0.135283817     0.0252236   -0.1693285     0.0000225   -0.0001287     0.0000617    0.0000435     0.0000924    0.0005638 
   0.135383842     0.0244866   -0.1684557     0.0000140   -0.0003207     0.0002576    0.0001853    -0.0001873    0.0008075 
   0.135483867     0.0248019   -0.1682215    -0.0001665   -0.0001502     0.0000086   -0.0000671     0.0003723    0.0003317 
   0.135583892     0.0243861   -0.1683866     0.0002342    0.0000301    -0.0000037   -0.0002578     0.0006211    0.0011336 
   0.135683917     0.0241266   -0.1688124    -0.0002880    0.0000610    -0.0000274   -0.0001171     0.0002477    0.0005489 
   0.135783942     0.0252808   -0.1686125     0.0002117    0.0000118     0.0000153    0.0001428     0.0000599    0.0006467 
   0.135883967     0.0240414   -0.1681203    -0.0003419    0.0000274     0.0000612   -0.0001914    -0.0000570    0.0012207 
   0.135983992     0.0242605   -0.1677170    -0.0002495    0.0001257    -0.0000640   -0.0001191     0.0004006    0.0003614 
   0.136084017     0.0241464   -0.1680677    -0.0002265    0.0002552    -0.0001693    0.0001169     0.0002640    0.0006718 
   0.136184042     0.0243480   -0.1682438     0.0001710    0.0000931    -0.0000032    0.0000057     0.0005454    0.0005322 
   0.136284067     0.0237319   -0.1673494    -0.0002731   -0.0000306     0.0000308   -0.0000969    -0.0004833    0.0005677 
   0.136384092     0.0243709   -0.1671100    -0.0002438    0.0000258    -0.0000240   -0.0000456    -0.0000098    0.0010236 
   0.136484117     0.0240457   -0.1673620    -0.0000052    0.0000637     0.0001568    0.0000789     0.0005255    0.0007487 
   0.136584142     0.0237755   -0.1676675     0.0000641   -0.0003644    -0.0001361   -0.0000854     0.0001464    0.0008055 
   0.136684167     0.0237392   -0.1671802    -0.0000008    0.0001288     0.0001821   -0.0000741    -0.0002634    0.0010210 
   0.136784192     0.0239540   -0.1665827     0.0001374    0.0004274     0.0000166    0.0000229     0.0001553    0.0005229 
   0.136884217     0.0239862   -0.1668651    -0.0003451   -0.0000282    -0.0000573    0.0000801    -0.0007772    0.0005920 
   0.136984242     0.0242194   -0.1670439     0.0001253   -0.0002994     0.0000846    0.0000154     0.0000816    0.0011897 
   0.137084267     0.0241158   -0.1663166    -0.0000991   -0.0001120    -0.0001039   -0.0000682    -0.0001698    0.0007614 
   0.137184292     0.0234538   -0.1664360    -0.0002954    0.0000892     0.0000697   -0.0000619    -0.0003148    0.0005393 
   0.137284317     0.0238653   -0.1656793    -0.0000825   -0.0000875     0.0000299    0.0001139    -0.0002738    0.0009851 
   0.137384342     0.0241392   -0.1651476    -0.0002188   -0.0004385     0.0000190   -0.0000233     0.0002484    0.0006957 
   0.137484367     0.0232817   -0.1662387     0.0000257    0.0000907     0.0001660   -0.0000800     0.0002660    0.0004323 
   0.137584392     0.0239495   -0.1652866     0.0002625    0.0007100     0.0000522    0.0000946     0.0000241    0.0005209 
   0.137684417     0.0237939   -0.1649455    -0.0001586    0.0000985    -0.0001261    0.0001376     0.0000917    0.0006265 
   0.137784442     0.0240034   -0.1654552    -0.0002525    0.0000643    -0.0000018    0.0000930    -0.0001314    0.0008083 
   0.137884467     0.0239502   -0.1650402     0.0000730    0.0000699    -0.0000668    0.0002140    -0.0003685   -0.0001166 
   0.137984492     0.0231059   -0.1646018    -0.0002822   -0.0001208    -0.0000024   -0.0002441    -0.0000927    0.0007479 
   0.138084517     0.0233868   -0.1643820    -0.0000482    0.0001023    -0.0000835   -0.0002688     0.0004397    0.0010348 
   0.138184542     0.0233125   -0.1639740     0.0001058   -0.0002012    -0.0000399    0.0000622     0.0003072    0.0008772 
   0.138284567     0.0227850   -0.1637803     0.0001022   -0.0000374    -0.0000919   -0.0000318    -0.0000294    0.0006762 
   0.138384592     0.0235558   -0.1635482    -0.0001272   -0.0000771    -0.0002846   -0.0001140     0.0001228    0.0012724 
   0.138484617     0.0232378   -0.1638389     0.0000128    0.0000351    -0.0000255   -0.0000212     0.0007619    0.0005039 
   0.138584642     0.0231460   -0.1632118     0.0001266   -0.0000962    -0.0000286    0.0000356    -0.0004343   -0.0000456 
   0.138684667     0.0228575   -0.1637314    -0.0001743   -0.0000829    -0.0000162   -0.0000688    -0.0000659    0.0008608 
   0.138784692     0.0240462   -0.1637448     0.0001121   -0.0002028    -0.0001648   -0.0000281     0.0001487    0.0004741 
   0.138884717     0.0237834   -0.1628057     0.0001198    0.0000530     0.0000327   -0.0000442     0.0000397    0.0007399 
   0.138984742     0.0230625   -0.1629828    -0.0003971   -0.0001137     0.0001229   -0.0000948    -0.0003003    0.0006768 
   0.139084767     0.0230362   -0.1628187     0.0000903    0.0002103    -0.0002517   -0.0001829     0.0000977    0.0008645 
   0.139184792     0.0228999   -0.1624652     0.0001801   -0.0003164    -0.0002453    0.0000180     0.0002569    0.0007503 
   0.139284817     0.0233360   -0.1629725    -0.0001889   -0.0002011    -0.0001961    0.0000180    -0.0000094    0.0007966 
   0.139384842     0.0231606   -0.1629909     0.0001429    0.0000223    -0.0000837    0.0001729     0.0000650    0.0008121 
   0.139484867     0.0229970   -0.1616631     0.0001106    0.0001456    -0.0000750    0.0002853     0.0000379    0.0009981 
   0.139584892     0.0229151   -0.1628117     0.0000588    0.0001436    -0.0000301   -0.0000029     0.0004489    0.0003560 
   0.139684917     0.0230244   -0.1619915    -0.0001809   -0.0002245    -0.0000340    0.0001877    -0.0003485    0.0004425 
   0.139784942     0.0229282   -0.1618617     0.0002666    0.0000281     0.0001048    0.0002886    -0.0000248    0.0003767 
   0.139884967     0.0225549   -0.1614458    -0.0000081   -0.0000776    -0.0000478    0.0001460     0.0002259    0.0004646 
   0.139984992     0.0226403   -0.1609404     0.0002291    0.0000422    -0.0000438   -0.0000500     0.0001136    0.0006078 
   0.140085018     0.0229391   -0.1613525     0.0000975   -0.0000371    -0.0000364   -0.0000067     0.0000677    0.0009973 
   0.140185043     0.0235917   -0.1608421    -0.0002538    0.0000061    -0.0001091    0.0000357     0.0002207    0.0012968 
   0.140285068     0.0227606   -0.1605495     0.0003452   -0.0000306     0.0000486   -0.0000094     0.0002400    0.0006046 
   0.140385093     0.0227910   -0.1610566     0.0003153   -0.0000197    -0.0000130   -0.0001367    -0.0000391    0.0006096 
   0.140485118     0.0223531   -0.1603637     0.0002502    0.0002261    -0.0000658   -0.0001076    -0.0001337    0.0006837 
   0.140585143     0.0227623   -0.1608607    -0.0000898    0.0001829    -0.0000812    0.0001789     0.0002037    0.0006750 
   0.140685168     0.0223988   -0.1610485    -0.0001478   -0.0000964     0.0000384    0.0000262     0.0001809    0.0009928 
   0.140785193     0.0225962   -0.1603687     0.0002674   -0.0003584    -0.0001460    0.0001447     0.0002317    0.0009154 
   0.140885218     0.0228070   -0.1592648     0.0000380    0.0003237     0.0000493   -0.0000011    -0.0001489    0.0005327 
   0.140985243     0.0228178   -0.1600256     0.0000844   -0.0000749     0.0002107   -0.0000123    -0.0000806    0.0002763 
   0.141085268     0.0224230   -0.1600118    -0.0002401   -0.0002388     0.0000705    0.0000996     0.0003569    0.0003038 
   0.141185293     0.0223890   -0.1597762     0.0000824    0.0000685    -0.0001463    0.0000703     0.0002902    0.0005403 
   0.141285318     0.0227032   -0.1595158     0.0000062   -0.0003453     0.0000664    0.0000690    -0.0008028    0.0007030 
   0.141385343     0.0216657   -0.1590917     0.0001803   -0.0002234     0.0000660    0.0000490    -0.0000169    0.0005183 
   0.141485368     0.0228020   -0.1588904     0.0001773    0.0001687     0.0000463   -0.0001513     0.0002094    0.0004959 
   0.141585393     0.0228186   -0.1587287    -0.0000007   -0.0001019    -0.0000869    0.0000738     0.0003415    0.0006965 
   0.141685418     0.0224530   -0.1595429    -0.0001620   -0.0000342     0.0000782    0.0000130    -0.0000708    0.0007397 
   0.141785443     0.0219186   -0.1588884    -0.0002325    0.0002341    -0.0000250    0.0001357    -0.0001095    0.0008540 
   0.141885468     0.0225735   -0.1581159     0.0004460    0.0001966    -0.0000787   -0.0001545     0.0003306    0.0004497 
   0.141985493     0.0219441   -0.1578844     0.0000625   -0.0000190    -0.0003842   -0.0000489    -0.0002283    0.0003727 
   0.142085518     0.0219452   -0.1579058    -0.0000850   -0.0003243     0.0000045   -0.0001099     0.0001626    0.0006721 
   0.142185543     0.0219412   -0.1578194    -0.0002364   -0.0000985     0.0000228    0.0001398     0.0001775    0.0003151 
   0.142285568     0.0221021   -0.1580404    -0.0000681   -0.0000843     0.0000283    0.0001934    -0.0001696    0.0004172 
   0.142385593     0.0225923   -0.1576649     0.0001173   -0.0000243    -0.0000619    0.0000151     0.0000556    0.0008539 
   0.142485618     0.0220596   -0.1576233     0.0002811    0.0000260     0.0001482    0.0000575    -0.0002371    0.0004869 
   0.142585643     0.0220983   -0.1565204    -0.0003677    0.0004905     0.0002400   -0.0000818    -0.0000070    0.0004576 
   0.142685668     0.0218277   -0.1575350    -0.0003139    0.0001064     0.0001896    0.0001641    -0.0000332    0.0004935 
   0.142785693     0.0219564   -0.1567762    -0.0000559   -0.0000581     0.0000597   -0.0001712    -0.0003529    0.0006669 
   0.142885718     0.0218759   -0.1566365    -0.0001419   -0.0002606    -0.0003196   -0.0000344    -0.0004499    0.0008834 
   0.142985743     0.0217023   -0.1567079     0.0002492   -0.0002053    -0.0000305    0.0001480     0.0002585    0.0002116 
   0.143085768     0.0218972   -0.1562984    -0.0002917    0.0001755     0.0001754    0.0000657    -0.0000776    0.0007596 
   0.143185793     0.0217914   -0.1560514     0.0000841   -0.0000380     0.0004374   -0.0001486    -0.0004840    0.0003777 
   0.143285818     0.0219423   -0.1562717    -0.0000159   -0.0000200    -0.0000302    0.0000702    -0.0002029    0.0011243 
   0.143385843     0.0217593   -0.1558449    -0.0000663    0.0000826     0.0000810   -0.0001003     0.0000758    0.0007392 
   0.143485868     0.0218697   -0.1561312    -0.0002671   -0.0003216    -0.0001498   -0.0003763     0.0000971    0.0006797 
   0.143585893     0.0212268   -0.1558034    -0.0000219   -0.0003311    -0.0000073    0.0000445    -0.0003796    0.0004870 
   0.143685918     0.0213932   -0.1550861     0.0000375    0.0001091     0.0001476    0.0000487    -0.0005180    0.0005922 
   0.143785943     0.0218261   -0.1550874    -0.0000692    0.0000726    -0.0001353    0.0000748    -0.0000830    0.0007394 
   0.143885968     0.0222188   -0.1558263     0.0002702   -0.0001467     0.0002175   -0.0001056     0.0001107    0.0001003 
   0.143985993     0.0212221   -0.1549022     0.0005154    0.0001256     0.0000747   -0.0001210     0.0001181    0.0002986 
   0.144086018     0.0212544   -0.1550056    -0.0003576   -0.0002340    -0.0001447   -0.0000012     0.0002552    0.0007234 
   0.144186043     0.0216241   -0.1552074    -0.0001030    0.0003103    -0.0001030   -0.0001245    -0.0003505    0.0003703 
   0.144286068     0.0219203   -0.1541622     0.0001386   -0.0001119     0.0001004   -0.0001890     0.0000790    0.0006129 
   0.144386093     0.0218966   -0.1540475    -0.0001247   -0.0001580    -0.0001390   -0.0000899     0.0000551    0.0003879 
   0.144486118     0.0214116   -0.1547107     0.0000332    0.0000719    -0.0001554   -0.0002107    -0.0001884    0.0002684 
   0.144586143     0.0211500   -0.1539417    -0.0003410    0.0001099    -0.0001275   -0.0002197    -0.0000208    0.0009089 
   0.144686168     0.0215885   -0.1532152     0.0001974    0.0000486    -0.0001503    0.0001942     0.0003419    0.0011018 
   0.144786193     0.0214081   -0.1534253    -0.0000376   -0.0000081    -0.0000911   -0.0000783    -0.0000404    0.0007177 
   0.144886218     0.0211755   -0.1534320     0.0001417    0.0000342     0.0001495   -0.0001627     0.0000301    0.0006618 
   0.144986243     0.0212240   -0.1531133     0.0001318   -0.0002049    -0.0002930    0.0000355    -0.0001925    0.0007601 
   0.145086268     0.0219901   -0.1534194    -0.0000858   -0.0000139     0.0001716    0.0001030    -0.0004533    0.0005470 
   0.145186293     0.0211136   -0.1529285     0.0002119    0.0000540    -0.0000414   -0.0002189    -0.0002115    0.0001182 
   0.145286318     0.0212845   -0.1525361     0.0004141   -0.0001215    -0.0000316   -0.0002417     0.0002243    0.0006102 
   0.145386343     0.0210509   -0.1527466    -0.0000148    0.0000205    -0.0000796    0.0000121     0.0000812    0.0005572 
   0.145486368     0.0214349   -0.1520995     0.0002027   -0.0000601    -0.0000107   -0.0000116    -0.0002043    0.0010056 
   0.145586393     0.0215713   -0.1522916     0.0000445    0.0000156     0.0000986    0.0001755    -0.0002093    0.0003631 
   0.145686418     0.0211397   -0.1530407    -0.0001504    0.0000429    -0.0000976   -0.0000269    -0.0000442    0.0003941 
   0.145786443     0.0214265   -0.1515960    -0.0003727    0.0002997    -0.0000409    0.0001641    -0.0003377    0.0008442 
   0.145886468     0.0220033   -0.1510539    -0.0001949    0.0002476     0.0000988    0.0001180    -0.0003829    0.0003469 
   0.145986493     0.0210534   -0.1524744    -0.0000454    0.0002209     0.0001117   -0.0000256     0.0000249    0.0009283 
   0.146086518     0.0214725   -0.1520571    -0.0000938   -0.0001149     0.0001204   -0.0000602    -0.0001221    0.0007208 
   0.146186543     0.0204477   -0.1520184     0.0001639   -0.0001728    -0.0000367   -0.0000304    -0.0001572    0.0005391 
   0.146286568     0.0204178   -0.1511905    -0.0000307   -0.0001425    -0.0002625   -0.0000947     0.0000619    0.0001604 
   0.146386593     0.0207900   -0.1517423     0.0002028   -0.0000615    -0.0001168   -0.0000760    -0.0002403    0.0005444 
   0.146486618     0.0202812   -0.1508777    -0.0003697   -0.0000836     0.0000216    0.0001160    -0.0000460   -0.0000037 
   0.146586643     0.0209635   -0.1510819    -0.0000316   -0.0000939     0.0000845   -0.0001627    -0.0003513    0.0004524 
   0.146686668     0.0221348   -0.1504183     0.0003361   -0.0001185     0.0000379   -0.0000537    -0.0002304    0.0005189 
   0.146786693     0.0206050   -0.1506871    -0.0000274    0.0001334    -0.0001217   -0.0001555     0.0000158    0.0009548 
   0.146886718     0.0208264   -0.1504614     0.0000474   -0.0002298    -0.0000001   -0.0000159    -0.0000912    0.0006612 
   0.146986743     0.0211509   -0.1503409     0.0001839   -0.0000105    -0.0001020   -0.0001638    -0.0000207    0.0006261 
   0.147086768     0.0204971   -0.1501308    -0.0001676   -0.0002271    -0.0000568    0.0000979    -0.0000805    0.0004556 
   0.147186793     0.0208270   -0.1504336     0.0000610    0.0001024     0.0000659    0.0001093    -0.0002941    0.0006338 
   0.147286818     0.0213275   -0.1496889    -0.0000063    0.0000956    -0.0002508    0.0000332    -0.0001219    0.0007740 
   0.147386843     0.0207473   -0.1493996    -0.0003036   -0.0003321    -0.0000198   -0.0003364    -0.0004020    0.0003937 
   0.147486868     0.0210050   -0.1495978    -0.0000840    0.0002424    -0.0000239   -0.0000045    -0.0000037    0.0007667 
   0.147586893     0.0199747   -0.1488973    -0.0002507    0.0003519     0.0001973    0.0000899    -0.0004510    0.0006068 
   0.147686918     0.0199615   -0.1491814     0.0000664    0.0006209     0.0001178   -0.0001548    -0.0003688    0.0004576 
   0.147786943     0.0203005   -0.1493087     0.0002065    0.0000366    -0.0000789   -0.0000523    -0.0000959    0.0009788 
   0.147886968     0.0210992   -0.1481383     0.0001120   -0.0001156    -0.0002399   -0.0000564    -0.0000372    0.0004378 
   0.147986993     0.0204697   -0.1490198     0.0003697    0.0003091     0.0001833   -0.0002164    -0.0005275    0.0007982 
   0.148087019     0.0206678   -0.1497805    -0.0001326   -0.0001539    -0.0001574    0.0000393     0.0000571    0.0005940 
   0.148187044     0.0204873   -0.1492002    -0.0001827   -0.0001380    -0.0002380    0.0000038    -0.0001312    0.0008545 
   0.148287069     0.0214764   -0.1494623     0.0000615   -0.0002797    -0.0000395    0.0002014    -0.0007408    0.0005316 
   0.148387094     0.0206421   -0.1483755    -0.0001582    0.0000677     0.0002757   -0.0000103    -0.0000883    0.0003949 
   0.148487119     0.0207917   -0.1488569     0.0001312    0.0000259     0.0000265    0.0000078    -0.0000813    0.0005161 
   0.148587144     0.0213279   -0.1485106    -0.0002490    0.0000434    -0.0000441    0.0000152    -0.0000152    0.0002223 
   0.148687169     0.0199653   -0.1473428    -0.0001474   -0.0001639    -0.0000553    0.0000876    -0.0003715    0.0004287 
   0.148787194     0.0209839   -0.1476117     0.0000188   -0.0000500    -0.0001056   -0.0000026    -0.0001550    0.0003248 
   0.148887219     0.0205754   -0.1473169     0.0003572    0.0000177    -0.0000519   -0.0001190    -0.0005477    0.0006822 
   0.148987244     0.0210779   -0.1475049    -0.0000697    0.0002654     0.0000354    0.0000415     0.0002888    0.0002521 
   0.149087269     0.0204572   -0.1472602     0.0003316    0.0000830    -0.0000371   -0.0001929    -0.0000743    0.0005642 
   0.149187294     0.0202769   -0.1466814    -0.0000472   -0.0001674    -0.0000505   -0.0000830    -0.0005903   -0.0000218 
   0.149287319     0.0202527   -0.1469580    -0.0001701   -0.0001085    -0.0002599    0.0000937    -0.0003814    0.0001185 
   0.149387344     0.0205003   -0.1463724     0.0001144   -0.0004650    -0.0000607   -0.0002427     0.0001638    0.0001316 
   0.149487369     0.0205270   -0.1470333     0.0004307    0.0001364    -0.0000415    0.0001450    -0.0000441    0.0005070 
   0.149587394     0.0200370   -0.1461744    -0.0002666   -0.0000677    -0.0000113   -0.0000905    -0.0003134    0.0002544 
   0.149687419     0.0207734   -0.1466013    -0.0000795    0.0003612     0.0001541   -0.0001651    -0.0001844    0.0008504 
   0.149787444     0.0198051   -0.1459078     0.0003730   -0.0002025     0.0000284   -0.0002378    -0.0002850    0.0005113 
   0.149887469     0.0205347   -0.1460401    -0.0001354    0.0001993    -0.0000052   -0.0003242    -0.0002450    0.0005002 
   0.149987494     0.0208535   -0.1459518     0.0000197    0.0000514    -0.0000524    0.0000549    -0.0000541    0.0005499 
   0.150087519     0.0202155   -0.1460212    -0.0002236   -0.0001429    -0.0000235    0.0000783    -0.0005105    0.0003670 
   0.150187544     0.0213287   -0.1456288     0.0002353   -0.0001839    -0.0000228    0.0000378    -0.0003600    0.0007935 
   0.150287569     0.0194712   -0.1461363     0.0001986    0.0001965     0.0000162    0.0000780    -0.0000846    0.0003524 
   0.150387594     0.0205996   -0.1453931     0.0001056   -0.0000855     0.0000238    0.0000894    -0.0002885    0.0002341 
   0.150487619     0.0195804   -0.1450538     0.0002034   -0.0000308    -0.0000314   -0.0001200    -0.0002545    0.0005327 
   0.150587644     0.0197508   -0.1450646    -0.0005886   -0.0000161     0.0000121    0.0000445    -0.0001006    0.0004645 
   0.150687669     0.0201342   -0.1447980     0.0000101    0.0003239     0.0000386    0.0000753     0.0001485    0.0001134 
   0.150787694     0.0207391   -0.1448270    -0.0001034    0.0001834     0.0000010   -0.0000606    -0.0001659    0.0002310 
   0.150887719     0.0199203   -0.1449960     0.0003086    0.0000739     0.0000445    0.0001495    -0.0000661    0.0003648 
   0.150987744     0.0215741   -0.1441128     0.0001397   -0.0000759     0.0000225   -0.0001190    -0.0000595    0.0005849 
   0.151087769     0.0196078   -0.1447170     0.0001779   -0.0000283     0.0000709   -0.0000973    -0.0004050    0.0006329 
   0.151187794     0.0202957   -0.1438302     0.0001103   -0.0000425    -0.0000456    0.0001092    -0.0001946    0.0003788 
   0.151287819     0.0200517   -0.1436255     0.0003744    0.0001818    -0.0001406    0.0000261    -0.0001030    0.0002195 
   0.151387844     0.0202261   -0.1438688    -0.0003764    0.0000351     0.0000283   -0.0001079    -0.0001605    0.0004675 
   0.151487869     0.0200827   -0.1435648    -0.0002536    0.0002725    -0.0000856   -0.0002005     0.0001951    0.0002751 
   0.151587894     0.0199465   -0.1438553    -0.0001986   -0.0002861    -0.0002447   -0.0000593    -0.0003610    0.0003990 
   0.151687919     0.0194945   -0.1433519    -0.0001393   -0.0001295    -0.0000031    0.0000407    -0.0001149    0.0008350 
   0.151787944     0.0200484   -0.1433188    -0.0001195    0.0000671     0.0000776    0.0001446    -0.0000663    0.0002025 
   0.151887969     0.0212910   -0.1434398    -0.0000087    0.0001174     0.0000231    0.0001191    -0.0000166    0.0003361 
   0.151987994     0.0203401   -0.1432678    -0.0002426   -0.0000433     0.0001999   -0.0000112    -0.0005264    0.0009845 
   0.152088019     0.0196570   -0.1427314    -0.0002498    0.0000916    -0.0001025   -0.0000078    -0.0001230    0.0001583 
   0.152188044     0.0198339   -0.1422936    -0.0000171    0.0003267     0.0000684    0.0000942    -0.0001547    0.0007243 
   0.152288069     0.0200681   -0.1431694    -0.0000638   -0.0002497     0.0000375   -0.0000640    -0.0002269    0.0004463 
   0.152388094     0.0205446   -0.1424141    -0.0004432   -0.0002082     0.0002805    0.0001719    -0.0002153    0.0004171 
   0.152488119     0.0202331   -0.1421357    -0.0002131    0.0001739     0.0001010   -0.0000519    -0.0005816    0.0002990 
   0.152588144     0.0198155   -0.1422517     0.0000125   -0.0000691     0.0000588   -0.0001443     0.0000373    0.0002460 
   0.152688169     0.0199068   -0.1419307     0.0001174    0.0001586     0.0000550    0.0000846    -0.0003508   -0.0000453 
   0.152788194     0.0187494   -0.1416243    -0.0003485    0.0000039    -0.0001417   -0.0000680    -0.0001542    0.0003090 
   0.152888219     0.0199881   -0.1427502    -0.0006004    0.0003541    -0.0000391   -0.0001068    -0.0004042    0.0000819 
   0.152988244     0.0201851   -0.1412490     0.0003174   -0.0002557    -0.0000069    0.0000715    -0.0003541   -0.0001170 
   0.153088269     0.0198588   -0.1415999     0.0000225   -0.0003236    -0.0000069   -0.0000788    -0.0000669    0.0003312 
   0.153188294     0.0194098   -0.1413386    -0.0000340    0.0004895    -0.0002002    0.0001006    -0.0003666    0.0000361 
   0.153288319     0.0202540   -0.1413305    -0.0002272   -0.0000640    -0.0000149   -0.0001507    -0.0002493    0.0005919 
   0.153388344     0.0203299   -0.1411608    -0.0000277   -0.0001563    -0.0000186   -0.0000179    -0.0002674    0.0003947 
   0.153488369     0.0198161   -0.1406081    -0.0002210   -0.0001724     0.0000388    0.0001177     0.0001269    0.0003464 
   0.153588394     0.0189930   -0.1406367     0.0000810   -0.0000027     0.0001092    0.0001285    -0.0000986    0.0008679 
   0.153688419     0.0201673   -0.1400978     0.0000757   -0.0001246    -0.0000468   -0.0001099    -0.0002687    0.0004531 
   0.153788444     0.0197689   -0.1398212     0.0000422    0.0000971     0.0001048    0.0002381    -0.0006661   -0.0000138 
   0.153888469     0.0199734   -0.1407664    -0.0004549   -0.0001231     0.0000494    0.0000066    -0.0004658    0.0003437 
   0.153988494     0.0196804   -0.1399156     0.0000263   -0.0002928    -0.0001382    0.0000092    -0.0000892    0.0003759 
   0.154088519     0.0189252   -0.1404461     0.0001946   -0.0001861     0.0000648    0.0001242    -0.0001837    0.0003984 
   0.154188544     0.0203883   -0.1395819     0.0000213    0.0001147     0.0000867    0.0000549    -0.0004604    0.0002614 
   0.154288569     0.0188774   -0.1397057    -0.0003787    0.0001062    -0.0001216    0.0001224    -0.0003598    0.0001497 
   0.154388594     0.0199754   -0.1393464     0.0000220   -0.0000684    -0.0001719    0.0000318    -0.0001446    0.0004114 
   0.154488619     0.0189200   -0.1397757    -0.0001123   -0.0001443    -0.0002964    0.0000234    -0.0004328    0.0002065 
   0.154588644     0.0194556   -0.1384501     0.0000825    0.0002477    -0.0000485   -0.0000542     0.0000583   -0.0000387 
   0.154688669     0.0190208   -0.1388122     0.0001437    0.0005030     0.0000295    0.0000130    -0.0001326   -0.0000047 
   0.154788694     0.0197674   -0.1391844     0.0000716    0.0000323     0.0000844    0.0000683    -0.0003952    0.0003127 
   0.154888719     0.0191504   -0.1384194     0.0000028   -0.0000611     0.0001030   -0.0000480     0.0001508    0.0002443 
   0.154988744     0.0195162   -0.1377770    -0.0002703   -0.0000865     0.0001068   -0.0001670    -0.0004494    0.0004520 
   0.155088769     0.0194979   -0.1382667     0.0002495   -0.0000006     0.0000264   -0.0001060    -0.0001572    0.0003335 
   0.155188794     0.0193680   -0.1384190     0.0000541    0.0002824    -0.0000733   -0.0000916     0.0000028    0.0001296 
   0.155288819     0.0192790   -0.1381592     0.0000314   -0.0000258     0.0000974   -0.0000600     0.0000344    0.0006251 
   0.155388844     0.0198977   -0.1378542     0.0003002    0.0002691    -0.0000267   -0.0000310    -0.0004196    0.0002441 
   0.155488869     0.0198414   -0.1372503     0.0001070   -0.0000722    -0.0001313   -0.0000749    -0.0003802    0.0007033 
   0.155588894     0.0198686   -0.1378241     0.0000696    0.0000350    -0.0000531   -0.0000114    -0.0000241    0.0000536 
   0.155688919     0.0190338   -0.1375982     0.0001504    0.0002060     0.0000678   -0.0002418    -0.0004813    0.0007135 
   0.155788944     0.0198156   -0.1376861    -0.0001335   -0.0000877     0.0000352    0.0002140     0.0002251    0.0000321 
   0.155888969     0.0195136   -0.1376640    -0.0001174   -0.0001143     0.0000721   -0.0000726    -0.0005718    0.0006067 
   0.155988994     0.0196434   -0.1380755    -0.0002707   -0.0002974     0.0000618   -0.0001817    -0.0001475   -0.0000898 
   0.156089020     0.0186647   -0.1374759     0.0001906    0.0001119    -0.0000142    0.0000084    -0.0002062    0.0007619 
   0.156189045     0.0194291   -0.1371552     0.0002519   -0.0003792    -0.0000748    0.0000111     0.0000249    0.0005312 
   0.156289070     0.0192935   -0.1362177     0.0000408    0.0001470    -0.0002001    0.0000510    -0.0005711    0.0008429 
   0.156389095     0.0196537   -0.1363833     0.0000114   -0.0000660    -0.0001052   -0.0000931    -0.0002133   -0.0001496 
   0.156489120     0.0197359   -0.1371068    -0.0001838   -0.0002194    -0.0002899   -0.0001021    -0.0000441    0.0004508 
   0.156589145     0.0192367   -0.1366288     0.0001804    0.0000594    -0.0000415    0.0000038    -0.0004070   -0.0000652 
   0.156689170     0.0189572   -0.1365629     0.0004075   -0.0000466    -0.0000106    0.0001295    -0.0005935    0.0003700 
   0.156789195     0.0191987   -0.1360953    -0.0003083   -0.0002699    -0.0000199    0.0000935    -0.0000201    0.0003539 
   0.156889220     0.0194080   -0.1357724    -0.0000865    0.0000507     0.0000318   -0.0000093     0.0000121    0.0000621 
   0.156989245     0.0195870   -0.1355271    -0.0000592    0.0000864    -0.0000027   -0.0000571    -0.0004854    0.0003731 
   0.157089270     0.0186519   -0.1352888    -0.0000557    0.0003954     0.0000136   -0.0000319    -0.0003896    0.0000855 
   0.157189295     0.0192624   -0.1361067    -0.0003263    0.0001063    -0.0001062    0.0001217    -0.0001720    0.0001935 
   0.157289320     0.0187897   -0.1350690    -0.0000342   -0.0002140    -0.0000189    0.0000548    -0.0000969   -0.0001085 
   0.157389345     0.0194437   -0.1350403     0.0000195    0.0000993    -0.0002887   -0.0000683    -0.0001462    0.0008129 
   0.157489370     0.0185880   -0.1346724     0.0000075   -0.0001443     0.0001059   -0.0000054    -0.0000052    0.0009089 
   0.157589395     0.0184714   -0.1353045     0.0002369    0.0000482     0.0002119   -0.0000700    -0.0004472    0.0000190 
   0.157689420     0.0193899   -0.1352079    -0.0001478   -0.0000744    -0.0000229    0.0000340    -0.0004067    0.0004562 
   0.157789445     0.0196912   -0.1358077    -0.0005442    0.0001668     0.0001221    0.0000864     0.0003618   -0.0000086 
   0.157889470     0.0191061   -0.1352446    -0.0000429    0.0000657     0.0001125    0.0002212     0.0000032   -0.0000884 
   0.157989495     0.0185536   -0.1343730     0.0001993    0.0001969    -0.0000869   -0.0000662    -0.0005580    0.0006008 
   0.158089520     0.0196282   -0.1337796     0.0000434    0.0002144    -0.0001755    0.0000135     0.0001364    0.0001848 
   0.158189545     0.0193073   -0.1338528     0.0000306    0.0000033    -0.0001466   -0.0001428    -0.0005426    0.0001828 
   0.158289570     0.0192797   -0.1337751     0.0001158   -0.0001901    -0.0001535   -0.0001166    -0.0001448    0.0001783 
   0.158389595     0.0188243   -0.1344697     0.0001969    0.0001631    -0.0000121    0.0000454    -0.0002621    0.0001717 
   0.158489620     0.0188608   -0.1330207    -0.0000726    0.0000633    -0.0001424    0.0000062    -0.0004297   -0.0000378 
   0.158589645     0.0189767   -0.1343288    -0.0003306    0.0000388     0.0001112   -0.0000693    -0.0005628   -0.0000830 
   0.158689670     0.0190760   -0.1342640    -0.0001503    0.0000871    -0.0000869   -0.0001793     0.0002913    0.0000872 
   0.158789695     0.0191416   -0.1328279     0.0001156    0.0003198     0.0000514    0.0001166    -0.0002978    0.0004340 
   0.158889720     0.0193878   -0.1332924     0.0001101   -0.0001260    -0.0000229    0.0002275     0.0000148    0.0000622 
   0.158989745     0.0191053   -0.1326688    -0.0000430   -0.0001126    -0.0000029   -0.0000229    -0.0004630    0.0000258 
   0.159089770     0.0190100   -0.1325049     0.0003441    0.0001389     0.0001642   -0.0001405     0.0003546    0.0001930 
   0.159189795     0.0194628   -0.1327281    -0.0000891    0.0000712    -0.0000983    0.0000264    -0.0002005    0.0002073 
   0.159289820     0.0190093   -0.1324393    -0.0000706   -0.0003343     0.0002847   -0.0002368    -0.0003319    0.0002951 
   0.159389845     0.0191205   -0.1332161    -0.0000239   -0.0002237    -0.0000099    0.0000162     0.0003841    0.0001277 
   0.159489870     0.0186087   -0.1325675     0.0001589   -0.0000401    -0.0001002   -0.0000353    -0.0002864   -0.0003709 
   0.159589895     0.0194493   -0.1313972     0.0000991    0.0000543    -0.0000142   -0.0003087    -0.0000118    0.0000308 
   0.159689920     0.0189076   -0.1327383     0.0000972   -0.0002500     0.0000605    0.0001813    -0.0004491    0.0001336 
   0.159789945     0.0196679   -0.1323027    -0.0001850    0.0001040    -0.0001380    0.0000013    -0.0004786   -0.0003709 
   0.159889970     0.0190686   -0.1314590     0.0000483   -0.0000703    -0.0001090   -0.0001277    -0.0004265   -0.0000345 
   0.159989995     0.0187891   -0.1324486    -0.0001454    0.0000290    -0.0002735    0.0000396    -0.0002738    0.0001215 
   0.160090020     0.0190960   -0.1308742     0.0002959   -0.0000557    -0.0001762    0.0000267    -0.0005116   -0.0001390 
   0.160190045     0.0186051   -0.1309147    -0.0000165    0.0001331    -0.0000023   -0.0000438    -0.0003888    0.0001018 
   0.160290070     0.0187541   -0.1308548     0.0002318    0.0000514     0.0000592    0.0002198    -0.0004129    0.0000745 
   0.160390095     0.0189164   -0.1310991    -0.0001499   -0.0002501     0.0002429   -0.0001051     0.0001419    0.0001247 
   0.160490120     0.0187122   -0.1310099     0.0002794    0.0000089     0.0001064   -0.0000085    -0.0006820    0.0001799 
   0.160590145     0.0186945   -0.1308094     0.0003396   -0.0003216    -0.0000422    0.0000577    -0.0000547    0.0003980 
   0.160690170     0.0187294   -0.1301843    -0.0000780    0.0000346    -0.0000901   -0.0001676    -0.0001402   -0.0003241 
   0.160790195     0.0179691   -0.1301635    -0.0001895   -0.0000691     0.0000103   -0.0000293    -0.0001412    0.0002355 
   0.160890220     0.0195196   -0.1308647    -0.0000702    0.0004938     0.0000512    0.0001882    -0.0005097    0.0003296 
   0.160990245     0.0192164   -0.1306992    -0.0000355    0.0000808     0.0001779    0.0000821    -0.0003223    0.0003430 
   0.161090270     0.0189640   -0.1305728    -0.0000459   -0.0000388     0.0000377   -0.0001455    -0.0000085    0.0000213 
   0.161190295     0.0183611   -0.1296404     0.0000460   -0.0002679     0.0001786    0.0001878    -0.0006057   -0.0001015 
   0.161290320     0.0192526   -0.1302121     0.0001521   -0.0000071    -0.0000662   -0.0001797    -0.0000534    0.0001651 
   0.161390345     0.0184507   -0.1295157    -0.0000617    0.0000856     0.0000138    0.0000587    -0.0008038    0.0005118 
   0.161490370     0.0188223   -0.1294185    -0.0000682   -0.0003832    -0.0000677    0.0001059    -0.0000720   -0.0000539 
   0.161590395     0.0181050   -0.1290391     0.0000505    0.0003344     0.0001214   -0.0000635     0.0001964   -0.0003112 
   0.161690420     0.0188207   -0.1301481    -0.0002706    0.0000964    -0.0000784    0.0002235    -0.0000169    0.0002939 
   0.161790445     0.0182726   -0.1290234    -0.0001632   -0.0001037    -0.0000307   -0.0000333     0.0002265    0.0000099 
   0.161890470     0.0182059   -0.1281648    -0.0002524   -0.0002128    -0.0000916   -0.0001768    -0.0003484    0.0002588 
   0.161990495     0.0186024   -0.1288483    -0.0003311   -0.0001301    -0.0000569    0.0002236     0.0002002    0.0001647 
   0.162090520     0.0186117   -0.1290377    -0.0001266   -0.0002686     0.0000207   -0.0000897    -0.0000267    0.0002246 
   0.162190545     0.0188960   -0.1295963    -0.0001665   -0.0000585     0.0000545    0.0001662    -0.0007772   -0.0000521 
   0.162290570     0.0186083   -0.1291909    -0.0002500   -0.0000245     0.0000583    0.0001148     0.0001349   -0.0000231 
   0.162390595     0.0189632   -0.1287195    -0.0002084    0.0003822     0.0002030   -0.0001736    -0.0003027   -0.0003542 
   0.162490620     0.0190386   -0.1283506     0.0000916   -0.0001372     0.0001259   -0.0000859    -0.0003915    0.0003335 
   0.162590645     0.0192149   -0.1278638     0.0002009   -0.0000339    -0.0001085   -0.0000096    -0.0001080   -0.0006009 
   0.162690670     0.0186413   -0.1281174    -0.0001322    0.0000947     0.0002082    0.0001402    -0.0000976    0.0002034 
   0.162790695     0.0184498   -0.1270538     0.0002103   -0.0000673     0.0000135    0.0003377    -0.0000481   -0.0003562 
   0.162890720     0.0195274   -0.1278827     0.0002012    0.0000665    -0.0000117    0.0001222    -0.0006862    0.0002725 
   0.162990745     0.0193715   -0.1277144     0.0000248   -0.0003894     0.0000604   -0.0000961    -0.0000157   -0.0000400 
   0.163090770     0.0186492   -0.1279556     0.0000253    0.0005434     0.0000828   -0.0000762    -0.0003516   -0.0000159 
   0.163190795     0.0185587   -0.1276520    -0.0002514   -0.0000184     0.0000818    0.0000001     0.0002412   -0.0001673 
   0.163290820     0.0186813   -0.1275837    -0.0001104    0.0000572     0.0000573   -0.0002802    -0.0003733    0.0001776 
   0.163390845     0.0180384   -0.1278418     0.0002738    0.0004110     0.0000320    0.0000821    -0.0003127   -0.0000856 
   0.163490870     0.0182501   -0.1268816    -0.0003031    0.0002877     0.0001686   -0.0000887     0.0001045    0.0002716 
   0.163590895     0.0184487   -0.1269449    -0.0001183    0.0001148     0.0002177    0.0001065    -0.0000962    0.0000939 
   0.163690920     0.0188905   -0.1266652     0.0001833   -0.0001418    -0.0000047    0.0000584    -0.0003563    0.0004691 
   0.163790945     0.0184801   -0.1272969    -0.0000695   -0.0001161    -0.0000144   -0.0000645     0.0000055    0.0003156 
   0.163890970     0.0185224   -0.1259236     0.0001691    0.0000521    -0.0001495    0.0000556    -0.0004217    0.0001133 
   0.163990995     0.0181523   -0.1266246    -0.0003978   -0.0000086    -0.0000876   -0.0000271    -0.0002998    0.0000207 
   0.164091021     0.0192739   -0.1267040     0.0000471   -0.0001579     0.0001171   -0.0001131    -0.0000049   -0.0004073 
   0.164191046     0.0196907   -0.1256089     0.0000051    0.0002314     0.0001642    0.0000905    -0.0002447   -0.0001456 
   0.164291071     0.0188228   -0.1254943    -0.0000342   -0.0000778     0.0000196   -0.0000094    -0.0000930   -0.0001721 
   0.164391096     0.0179911   -0.1261828    -0.0001923   -0.0001596     0.0001055   -0.0001606    -0.0002649   -0.0002801 
   0.164491121     0.0184002   -0.1261131     0.0005108   -0.0002283    -0.0001190    0.0000471    -0.0004499    0.0000909 
   0.164591146     0.0181198   -0.1255240    -0.0000749    0.0000231    -0.0000235    0.0001796    -0.0002062   -0.0002882 
   0.164691171     0.0183471   -0.1265501    -0.0002071   -0.0001699    -0.0002308    0.0000377    -0.0004703   -0.0001109 
   0.164791196     0.0188588   -0.1256140     0.0000512    0.0000753    -0.0000896   -0.0002742    -0.0001124   -0.0000663 
   0.164891221     0.0183583   -0.1254403    -0.0001541   -0.0003767     0.0001417   -0.0001785    -0.0003990   -0.0000338 
   0.164991246     0.0174704   -0.1255803     0.0000957    0.0003184     0.0000621   -0.0003092    -0.0002775    0.0000795 
   0.165091271     0.0178502   -0.1254365     0.0003194    0.0000280     0.0000272    0.0001079     0.0003761   -0.0000012 
   0.165191296     0.0185717   -0.1244163    -0.0000597   -0.0000341    -0.0001418    0.0002398     0.0001136   -0.0000363 
   0.165291321     0.0187099   -0.1239071     0.0002060   -0.0001153     0.0001088    0.0000957     0.0001109   -0.0003311 
   0.165391346     0.0188508   -0.1244310     0.0002241    0.0000634    -0.0000663   -0.0001617    -0.0002427   -0.0000551 
   0.165491371     0.0177384   -0.1244720    -0.0001238   -0.0002182     0.0001423   -0.0000379    -0.0002206   -0.0001073 
   0.165591396     0.0185053   -0.1243481     0.0000123   -0.0002702    -0.0000992    0.0000206     0.0000834    0.0004115 
   0.165691421     0.0177675   -0.1245477     0.0000891    0.0000296    -0.0000046    0.0000397    -0.0006047   -0.0004152 
   0.165791446     0.0182044   -0.1234043     0.0002607    0.0002659    -0.0001733   -0.0001276    -0.0005177    0.0000478 
   0.165891471     0.0186942   -0.1240758     0.0002905   -0.0000749     0.0001320   -0.0000382     0.0003890   -0.0002485 
   0.165991496     0.0186630   -0.1244396    -0.0002961    0.0001257     0.0001468   -0.0002118    -0.0000094    0.0001320 
   0.166091521     0.0184026   -0.1238811    -0.0001076   -0.0000377    -0.0000365   -0.0003473    -0.0008785    0.0000466 
   0.166191546     0.0178557   -0.1234410    -0.0000474   -0.0001315     0.0000771   -0.0000724    -0.0005789   -0.0004413 
   0.166291571     0.0185542   -0.1230346    -0.0002481    0.0000380     0.0001104   -0.0000481    -0.0003868   -0.0002795 
   0.166391596     0.0185969   -0.1243321    -0.0000984    0.0001542    -0.0000257   -0.0000490    -0.0001184    0.0001589 
   0.166491621     0.0183305   -0.1232027     0.0001903   -0.0000452     0.0001671   -0.0000363     0.0002642   -0.0002260 
   0.166591646     0.0182946   -0.1234087     0.0001090   -0.0001154    -0.0000057   -0.0000909    -0.0002824   -0.0003992 
   0.166691671     0.0179329   -0.1227986     0.0003681    0.0001327     0.0001940    0.0000076    -0.0001123    0.0000580 
   0.166791696     0.0192350   -0.1226526    -0.0001083    0.0002197     0.0000508   -0.0000016     0.0000341    0.0002391 
   0.166891721     0.0176187   -0.1231353    -0.0000405    0.0000630     0.0001485   -0.0000868    -0.0000927   -0.0000626 
   0.166991746     0.0193131   -0.1223298     0.0000229    0.0000307     0.0000383   -0.0000630    -0.0001975   -0.0005829 
   0.167091771     0.0181049   -0.1229007     0.0000766    0.0001382     0.0001718    0.0000937    -0.0004483   -0.0001192 
   0.167191796     0.0186303   -0.1217115    -0.0000552    0.0003040    -0.0001424    0.0000083    -0.0003434    0.0000568 
   0.167291821     0.0179780   -0.1222403    -0.0003291   -0.0001348    -0.0001503   -0.0001449    -0.0001274    0.0000886 
   0.167391846     0.0183275   -0.1226117    -0.0001943   -0.0000944     0.0000835    0.0000124    -0.0000538   -0.0000287 
   0.167491871     0.0185909   -0.1218371    -0.0001067   -0.0003801     0.0001667    0.0001428    -0.0000880   -0.0001486 
   0.167591896     0.0183105   -0.1218454     0.0000096   -0.0001480     0.0001511    0.0000661    -0.0002290   -0.0000719 
   0.167691921     0.0184242   -0.1222841     0.0002759   -0.0002255    -0.0000326    0.0000430    -0.0002881   -0.0003786 
   0.167791946     0.0195447   -0.1215781    -0.0000897   -0.0001124    -0.0002561    0.0001357    -0.0001284   -0.0006507 
   0.167891971     0.0174961   -0.1214804     0.0000413    0.0003603    -0.0001043   -0.0000807    -0.0001215   -0.0003449 
   0.167991996     0.0183576   -0.1211788    -0.0000678    0.0001840    -0.0000950    0.0000752     0.0000001   -0.0000248 
   0.168092021     0.0185570   -0.1204623    -0.0000755    0.0001432    -0.0001003    0.0001648    -0.0001807   -0.0000489 
   0.168192046     0.0175368   -0.1216026     0.0002363   -0.0001736    -0.0000660   -0.0000425     0.0001090   -0.0004058 
   0.168292071     0.0185624   -0.1208609    -0.0002153    0.0000830    -0.0002942   -0.0000513    -0.0001585   -0.0002584 
   0.168392096     0.0180985   -0.1210393    -0.0000488   -0.0002068    -0.0000673    0.0001271    -0.0001276   -0.0003168 
   0.168492121     0.0189581   -0.1203124    -0.0002588   -0.0003174    -0.0001480    0.0000844     0.0004525   -0.0006560 
   0.168592146     0.0182889   -0.1204162    -0.0000112    0.0001146     0.0000992    0.0000314     0.0000057   -0.0005202 
   0.168692171     0.0189367   -0.1205559    -0.0001126    0.0000078     0.0000794   -0.0001021     0.0001788   -0.0001005 
   0.168792196     0.0181951   -0.1204805     0.0001622    0.0002320    -0.0002557    0.0000048    -0.0000238   -0.0007439 
   0.168892221     0.0175932   -0.1195046     0.0001332    0.0001376     0.0000168   -0.0000778    -0.0000942   -0.0002580 
   0.168992246     0.0181591   -0.1200187     0.0000090   -0.0004472    -0.0001462   -0.0000506    -0.0003654    0.0002743 
   0.169092271     0.0176284   -0.1199381     0.0001263    0.0000300    -0.0002585   -0.0000254     0.0000357    0.0000054 
   0.169192296     0.0181654   -0.1200426    -0.0002546    0.0001245     0.0000693   -0.0001276    -0.0006503   -0.0000750 
   0.169292321     0.0172898   -0.1203289    -0.0001868    0.0001498    -0.0000413   -0.0000954    -0.0000931    0.0002843 
   0.169392346     0.0177583   -0.1200641    -0.0000256   -0.0000495    -0.0001546   -0.0001173     0.0000438   -0.0000769 
   0.169492371     0.0186619   -0.1192533    -0.0000162   -0.0000330     0.0000197    0.0001370     0.0002108    0.0000936 
   0.169592396     0.0191663   -0.1199384     0.0000258    0.0003038    -0.0000815   -0.0001506     0.0003490   -0.0001138 
   0.169692421     0.0185248   -0.1186695    -0.0000406   -0.0000056    -0.0000671    0.0000603    -0.0002492   -0.0002416 
   0.169792446     0.0183951   -0.1201057    -0.0002671   -0.0001672     0.0001285    0.0000344     0.0002013   -0.0001342 
   0.169892471     0.0181405   -0.1185194     0.0000692   -0.0001464     0.0000826   -0.0000878    -0.0000918   -0.0000130 
   0.169992496     0.0177862   -0.1191248     0.0001482   -0.0000519    -0.0000603    0.0000316     0.0004027   -0.0001994 
   0.170092521     0.0185487   -0.1184441    -0.0001011   -0.0001424    -0.0000424   -0.0000092    -0.0003994    0.0002059 
   0.170192546     0.0180646   -0.1185790     0.0000252    0.0000355    -0.0001221    0.0000370    -0.0003639    0.0001650 
   0.170292571     0.0178173   -0.1181822    -0.0000355    0.0001814    -0.0000711    0.0001036    -0.0001093   -0.0000275 
   0.170392596     0.0183112   -0.1193978     0.0000719    0.0000973     0.0000329   -0.0000019     0.0001845   -0.0001817 
   0.170492621     0.0181753   -0.1176295    -0.0000057   -0.0001043     0.0002159    0.0000476    -0.0002549    0.0004143 
   0.170592646     0.0185647   -0.1181637    -0.0000911   -0.0000625     0.0000235    0.0000722    -0.0005074   -0.0003214 
   0.170692671     0.0186338   -0.1186747     0.0000313    0.0000110    -0.0001971   -0.0000220    -0.0005523   -0.0003907 
   0.170792696     0.0178481   -0.1175232     0.0000500    0.0001672    -0.0000005    0.0001346     0.0000562   -0.0002642 
   0.170892721     0.0180407   -0.1180565     0.0000046   -0.0001058     0.0000942   -0.0000909    -0.0003048   -0.0001684 
   0.170992746     0.0189238   -0.1172177     0.0000327   -0.0002337     0.0000957    0.0000278    -0.0005349    0.0001146 
   0.171092771     0.0191715   -0.1175918    -0.0000929   -0.0001661     0.0000083    0.0000718    -0.0006426   -0.0003776 
   0.171192796     0.0179622   -0.1168852    -0.0001453    0.0000957     0.0000932   -0.0000450     0.0000971   -0.0001242 
   0.171292821     0.0187014   -0.1176101    -0.0003829   -0.0000297     0.0000290   -0.0002655    -0.0001084   -0.0002461 
   0.171392846     0.0180744   -0.1172607    -0.0001374   -0.0001426     0.0001621   -0.0000698     0.0003071   -0.0001471 
   0.171492871     0.0183677   -0.1166918     0.0000286    0.0002313     0.0000089   -0.0001007     0.0000129    0.0002872 
   0.171592896     0.0179006   -0.1168956     0.0000120    0.0001029     0.0000615   -0.0002480    -0.0003559    0.0001764 
   0.171692921     0.0183809   -0.1168714    -0.0000250   -0.0001346    -0.0001992    0.0000160     0.0001492   -0.0003701 
   0.171792946     0.0185090   -0.1170250    -0.0002478   -0.0000995    -0.0000184    0.0000109    -0.0006829   -0.0002978 
   0.171892971     0.0177342   -0.1168398     0.0000357   -0.0000230    -0.0000991    0.0000594    -0.0006551   -0.0003106 
   0.171992996     0.0180836   -0.1165423    -0.0000148    0.0002045     0.0000384    0.0000482    -0.0006182   -0.0002083 
   0.172093022     0.0180876   -0.1157410    -0.0000399    0.0002706    -0.0000338    0.0000667     0.0000693   -0.0002587 
   0.172193047     0.0184307   -0.1167614     0.0000610    0.0001503    -0.0000015   -0.0000413    -0.0001991   -0.0006821 
   0.172293072     0.0178919   -0.1170814     0.0001058   -0.0002458     0.0000028   -0.0000713    -0.0003033   -0.0000262 
   0.172393097     0.0190145   -0.1161316     0.0000115   -0.0000017    -0.0000801   -0.0000280    -0.0001578    0.0000912 
   0.172493122     0.0187185   -0.1165371     0.0000305    0.0000222    -0.0000406   -0.0000076     0.0001805   -0.0002132 
   0.172593147     0.0188514   -0.1158663     0.0001342   -0.0002950    -0.0000699   -0.0000460    -0.0003329   -0.0005257 
   0.172693172     0.0189468   -0.1157724    -0.0000504   -0.0001101     0.0001159   -0.0000148    -0.0005277    0.0005356 
   0.172793197     0.0170614   -0.1160207     0.0001813    0.0000914     0.0000941    0.0001222     0.0000675    0.0000382 
   0.172893222     0.0179134   -0.1158665    -0.0002227    0.0000476    -0.0000806   -0.0000248    -0.0000460   -0.0000634 
   0.172993247     0.0182975   -0.1153063     0.0000306    0.0001264    -0.0003163    0.0000640     0.0001770   -0.0003124 
   0.173093272     0.0182302   -0.1153364     0.0000441    0.0000564     0.0000454   -0.0001204    -0.0002780   -0.0002598 
   0.173193297     0.0184215   -0.1144082    -0.0001350   -0.0001900     0.0002246    0.0000303    -0.0002010   -0.0002388 
   0.173293322     0.0183505   -0.1150941     0.0000987    0.0000574    -0.0001397    0.0000925     0.0006681   -0.0001971 
   0.173393347     0.0186183   -0.1155614    -0.0000012   -0.0001116    -0.0000488    0.0001933     0.0000437   -0.0003113 
   0.173493372     0.0185279   -0.1152505     0.0000528    0.0001952     0.0001649    0.0002208     0.0000616   -0.0006673 
   0.173593397     0.0191949   -0.1155065     0.0000865    0.0000164     0.0001196    0.0000354    -0.0000140   -0.0005354 
   0.173693422     0.0180803   -0.1150014    -0.0000446    0.0000108     0.0002260    0.0000310    -0.0002133   -0.0004504 
   0.173793447     0.0185365   -0.1137773    -0.0000520    0.0000130    -0.0000198   -0.0000080     0.0002440   -0.0004146 
   0.173893472     0.0192165   -0.1145130     0.0000779   -0.0000094    -0.0000014   -0.0001479     0.0000338   -0.0006317 
   0.173993497     0.0191318   -0.1139423     0.0000412    0.0001483    -0.0000222   -0.0001106    -0.0000505   -0.0000634 
   0.174093522     0.0181098   -0.1145310    -0.0001123    0.0000886    -0.0001512    0.0000093     0.0000029   -0.0005675 
   0.174193547     0.0186791   -0.1130628    -0.0003348    0.0000799    -0.0001939   -0.0000160     0.0001051   -0.0000532 
   0.174293572     0.0184403   -0.1137817    -0.0000839    0.0001824    -0.0001347    0.0000407     0.0002443    0.0002249 
   0.174393597     0.0183094   -0.1137376     0.0001089   -0.0002663     0.0001733    0.0000490     0.0001495   -0.0000152 
   0.174493622     0.0182317   -0.1129295     0.0001115   -0.0002177    -0.0001274   -0.0000592    -0.0001178   -0.0004816 
   0.174593647     0.0187280   -0.1136821     0.0000583   -0.0000010     0.0001828    0.0001069     0.0004285   -0.0002542 
   0.174693672     0.0190110   -0.1133671    -0.0000568   -0.0002947    -0.0000593   -0.0000782    -0.0005858   -0.0002387 
   0.174793697     0.0186742   -0.1136016    -0.0002151   -0.0001878     0.0000236    0.0000198     0.0000154   -0.0003030 
   0.174893722     0.0198667   -0.1132304     0.0000125    0.0001557     0.0000962   -0.0001481    -0.0003718   -0.0008794 
   0.174993747     0.0177225   -0.1133564     0.0002533    0.0000140     0.0001113    0.0000817    -0.0001708   -0.0002897 
   0.175093772     0.0181183   -0.1136455     0.0002099    0.0000819     0.0000569   -0.0000157    -0.0003499   -0.0009905 
   0.175193797     0.0186420   -0.1124972     0.0000543    0.0001400    -0.0001016   -0.0001181     0.0001930    0.0001019 
   0.175293822     0.0183517   -0.1126370    -0.0004038   -0.0003202    -0.0000628   -0.0000826    -0.0005560   -0.0006700 
   0.175393847     0.0183634   -0.1125314     0.0001072    0.0000159    -0.0000166    0.0000115     0.0001848   -0.0003318 
   0.175493872     0.0182301   -0.1117842    -0.0001543   -0.0000690    -0.0001298   -0.0000834    -0.0007100   -0.0003097 
   0.175593897     0.0190625   -0.1124462     0.0000414   -0.0000072    -0.0001445    0.0000263     0.0001713    0.0000610 
   0.175693922     0.0184683   -0.1126680    -0.0001160    0.0001547     0.0000247    0.0002607     0.0000134   -0.0004374 
   0.175793947     0.0188713   -0.1115796     0.0000429    0.0000553     0.0000435    0.0000034     0.0001838   -0.0006544 
   0.175893972     0.0183689   -0.1112988    -0.0000990    0.0001563    -0.0000242    0.0000905     0.0002652   -0.0005614 
   0.175993997     0.0183342   -0.1128612     0.0000942    0.0000532    -0.0000046   -0.0000948    -0.0005228   -0.0003235 
   0.176094022     0.0184424   -0.1115487    -0.0000103   -0.0002020    -0.0000656    0.0000409     0.0002416   -0.0004126 
   0.176194047     0.0184355   -0.1122818     0.0001096    0.0002753    -0.0000285   -0.0002007     0.0004016    0.0000418 
   0.176294072     0.0188760   -0.1121787     0.0001700    0.0003774    -0.0000205    0.0000216    -0.0003913   -0.0006195 
   0.176394097     0.0185071   -0.1115136     0.0001031   -0.0001300     0.0000189    0.0000569    -0.0001987   -0.0000020 
   0.176494122     0.0194913   -0.1117577     0.0000383    0.0000918     0.0000113    0.0001038    -0.0001776   -0.0000156 
   0.176594147     0.0192788   -0.1119634    -0.0002100   -0.0002563     0.0000059   -0.0000694     0.0003473   -0.0004304 
   0.176694172     0.0185264   -0.1113894     0.0000957    0.0000845    -0.0000850   -0.0000867     0.0003750    0.0000161 
   0.176794197     0.0186968   -0.1109047    -0.0001052   -0.0001495     0.0001769   -0.0001036    -0.0001124   -0.0001607 
   0.176894222     0.0187514   -0.1113178    -0.0001003   -0.0000810     0.0000504   -0.0000211     0.0002500   -0.0001611 
   0.176994247     0.0184202   -0.1101844     0.0003132   -0.0002131    -0.0000756   -0.0000513     0.0001903   -0.0005621 
   0.177094272     0.0188469   -0.1108806    -0.0000053   -0.0000652    -0.0000464   -0.0000492     0.0002201   -0.0001495 
   0.177194297     0.0187378   -0.1107817    -0.0001273    0.0002489     0.0002897   -0.0000142    -0.0001095   -0.0002289 
   0.177294322     0.0177214   -0.1112192    -0.0000824   -0.0002996     0.0000424   -0.0000520     0.0000963   -0.0002668 
   0.177394347     0.0186147   -0.1094468     0.0001296   -0.0001898     0.0000563   -0.0000142     0.0003187   -0.0001112 
   0.177494372     0.0189261   -0.1104779     0.0002200    0.0003036    -0.0001993    0.0001002    -0.0002547   -0.0006975 
   0.177594397     0.0187049   -0.1093369     0.0000776   -0.0000609     0.0002172   -0.0000534     0.0000095   -0.0001238 
   0.177694422     0.0189316   -0.1103545    -0.0000994    0.0002953     0.0000324    0.0001079     0.0003372   -0.0001775 
   0.177794447     0.0185890   -0.1094408     0.0003347    0.0000292    -0.0000069    0.0000769     0.0000121   -0.0006282 
   0.177894472     0.0177568   -0.1098450    -0.0000740    0.0002755    -0.0000433    0.0000409     0.0002481   -0.0003905 
   0.177994497     0.0181848   -0.1092412     0.0003571    0.0001347    -0.0000708   -0.0000102     0.0001100    0.0001557 
   0.178094522     0.0186483   -0.1092514     0.0001350   -0.0001445    -0.0000489    0.0001086     0.0001499   -0.0001970 
   0.178194547     0.0185252   -0.1099685    -0.0003257    0.0000366     0.0000925    0.0000249     0.0002058   -0.0003793 
   0.178294572     0.0185543   -0.1090340     0.0002081   -0.0001262     0.0000072    0.0000099     0.0000036   -0.0004305 
   0.178394597     0.0183276   -0.1089500     0.0000100    0.0000268    -0.0000837    0.0001573    -0.0005043   -0.0002498 
   0.178494622     0.0184884   -0.1098133    -0.0000253    0.0000460     0.0000303    0.0001006    -0.0002976   -0.0006539 
   0.178594647     0.0189620   -0.1091442    -0.0001671    0.0002139    -0.0000653   -0.0001027     0.0004595    0.0000917 
   0.178694672     0.0185344   -0.1084869     0.0000389    0.0002477    -0.0001864    0.0000669    -0.0000492   -0.0004189 
   0.178794697     0.0188629   -0.1084947    -0.0000517   -0.0001123     0.0001269   -0.0001419     0.0002617   -0.0003592 
   0.178894722     0.0187868   -0.1085151     0.0000667    0.0000504    -0.0000001    0.0000447     0.0001259   -0.0001592 
   0.178994747     0.0187966   -0.1085245     0.0000186    0.0003526    -0.0000796    0.0001006    -0.0001020   -0.0004686 
   0.179094772     0.0187433   -0.1081014     0.0000245    0.0000309    -0.0001473    0.0000787     0.0002121   -0.0002822 
   0.179194797     0.0177907   -0.1080157    -0.0000673    0.0000575    -0.0000992    0.0000409     0.0002665   -0.0005219 
   0.179294822     0.0193976   -0.1083028    -0.0001590    0.0000352     0.0000795    0.0002854     0.0002133   -0.0002854 
   0.179394847     0.0181655   -0.1083088    -0.0003791    0.0000015    -0.0000993    0.0000112     0.0000426   -0.0002408 
   0.179494872     0.0191785   -0.1084662    -0.0001043    0.0001129    -0.0000027   -0.0001162    -0.0000894   -0.0002708 
   0.179594897     0.0191458   -0.1088325    -0.0000176   -0.0002761     0.0001921    0.0001891     0.0004926   -0.0004894 
   0.179694922     0.0187102   -0.1074007     0.0000804   -0.0000539    -0.0001299    0.0000028    -0.0000922   -0.0003618 
   0.179794947     0.0180988   -0.1073001    -0.0003207    0.0000706     0.0001021   -0.0000015     0.0001735   -0.0005379 
   0.179894972     0.0193746   -0.1080894    -0.0000429    0.0003265     0.0000565   -0.0000137     0.0005212   -0.0005086 
   0.179994997     0.0182631   -0.1075036     0.0000728    0.0001752    -0.0000771    0.0000813     0.0004885   -0.0001976 
   0.180095023     0.0190544   -0.1080583     0.0002372   -0.0002913    -0.0000082   -0.0000701    -0.0001355   -0.0000082 
   0.180195048     0.0189134   -0.1070793     0.0000540   -0.0001123    -0.0000761   -0.0000975     0.0003423   -0.0005528 
   0.180295073     0.0187997   -0.1074481    -0.0001145   -0.0002526     0.0000181    0.0000242     0.0002903    0.0006133 
   0.180395098     0.0190162   -0.1071503     0.0000660   -0.0001105     0.0001739    0.0000455     0.0004955   -0.0005391 
   0.180495123     0.0188926   -0.1073432     0.0000862   -0.0001170    -0.0000547    0.0000944    -0.0000665   -0.0007585 
   0.180595148     0.0174133   -0.1078504    -0.0005101    0.0000485     0.0001060    0.0000063     0.0000352   -0.0003013 
   0.180695173     0.0193158   -0.1063090     0.0000444    0.0000578     0.0000832    0.0000928    -0.0001089   -0.0007543 
   0.180795198     0.0188197   -0.1069538     0.0003778    0.0001201     0.0002700    0.0000372     0.0002928   -0.0007367 
   0.180895223     0.0192048   -0.1069054     0.0000182    0.0004446    -0.0000272   -0.0001002    -0.0001450   -0.0002114 
   0.180995248     0.0190319   -0.1063017    -0.0000871   -0.0002163    -0.0000482   -0.0000680     0.0003925   -0.0000712 
   0.181095273     0.0189555   -0.1069707     0.0002690    0.0000415     0.0000900   -0.0001440     0.0004327   -0.0005965 
   0.181195298     0.0184067   -0.1067911    -0.0000391   -0.0000159    -0.0000831   -0.0001216     0.0000766   -0.0005368 
   0.181295323     0.0187022   -0.1070395    -0.0001910   -0.0001279     0.0000519   -0.0000074    -0.0000754   -0.0003324 
   0.181395348     0.0186941   -0.1065388    -0.0002796    0.0001269     0.0000814   -0.0000057     0.0004535   -0.0007201 
   0.181495373     0.0187840   -0.1065328    -0.0001062   -0.0000065    -0.0000253   -0.0000787     0.0005543   -0.0007176 
   0.181595398     0.0189849   -0.1059180     0.0000632    0.0001416    -0.0000748    0.0002899    -0.0001736   -0.0007854 
   0.181695423     0.0186281   -0.1050251     0.0001007    0.0000232     0.0001776    0.0000684     0.0003099    0.0001003 
   0.181795448     0.0192288   -0.1055670    -0.0002758   -0.0000293    -0.0001711   -0.0000632    -0.0002519   -0.0003710 
   0.181895473     0.0193818   -0.1058253     0.0000797    0.0000083    -0.0001341   -0.0001480     0.0002270   -0.0001612 
   0.181995498     0.0192329   -0.1058049    -0.0000921    0.0002613    -0.0001598    0.0001158     0.0002614   -0.0001358 
   0.182095523     0.0185595   -0.1051552    -0.0002477    0.0000780     0.0000478   -0.0000008     0.0007880   -0.0003756 
   0.182195548     0.0187418   -0.1054011    -0.0001691   -0.0002270     0.0001117    0.0001451     0.0002982   -0.0003776 
   0.182295573     0.0187747   -0.1056897    -0.0000476   -0.0000822    -0.0000324   -0.0001778     0.0003978   -0.0001343 
   0.182395598     0.0189735   -0.1049987    -0.0002486   -0.0000790     0.0000594    0.0000997     0.0002412   -0.0006979 
   0.182495623     0.0197394   -0.1044179    -0.0001075   -0.0001148    -0.0001375    0.0001169     0.0000054   -0.0008535 
   0.182595648     0.0194975   -0.1050917    -0.0002482    0.0000401    -0.0000469    0.0000223    -0.0001128   -0.0005055 
   0.182695673     0.0186997   -0.1057724    -0.0000440    0.0001935    -0.0000766   -0.0001672    -0.0002986   -0.0001433 
   0.182795698     0.0182388   -0.1048121     0.0000125   -0.0000891    -0.0000311    0.0000680     0.0000705   -0.0006063 
   0.182895723     0.0189709   -0.1038890    -0.0000800   -0.0000248    -0.0000461   -0.0000325     0.0000847   -0.0005891 
   0.182995748     0.0192011   -0.1042607    -0.0000663    0.0001439    -0.0000079    0.0000232     0.0005924   -0.0007644 
   0.183095773     0.0188316   -0.1041703    -0.0001446   -0.0001509    -0.0000663    0.0000524     0.0000321   -0.0004845 
   0.183195798     0.0194532   -0.1050244    -0.0001148   -0.0000866    -0.0001043   -0.0001317     0.0005386   -0.0003067 
   0.183295823     0.0188942   -0.1033137     0.0002949   -0.0001982    -0.0001222   -0.0000549     0.0003128   -0.0003925 
   0.183395848     0.0200477   -0.1046829    -0.0000690   -0.0001198    -0.0000878   -0.0000027     0.0002548   -0.0002516 
   0.183495873     0.0187809   -0.1042289    -0.0001328   -0.0000347    -0.0000475   -0.0001103     0.0001215   -0.0008783 
   0.183595898     0.0190002   -0.1040788    -0.0000902   -0.0000226     0.0000739   -0.0001014     0.0001920   -0.0003909 
   0.183695923     0.0190633   -0.1035698     0.0000518    0.0000896    -0.0000768   -0.0000293     0.0002609   -0.0001906 
   0.183795948     0.0194510   -0.1044838     0.0000912    0.0001482    -0.0000338    0.0000993    -0.0000175   -0.0004675 
   0.183895973     0.0194347   -0.1041344    -0.0001760    0.0000238     0.0001003   -0.0001192     0.0000527   -0.0006540 
   0.183995998     0.0196002   -0.1025526     0.0000076   -0.0001894    -0.0000242   -0.0002149     0.0003202   -0.0004362 
   0.184096023     0.0191983   -0.1040285     0.0001875    0.0001781     0.0001181    0.0000947     0.0003768   -0.0004838 
   0.184196048     0.0200421   -0.1037451     0.0000109   -0.0000149     0.0000900    0.0000293     0.0002771   -0.0002864 
   0.184296073     0.0204655   -0.1033750    -0.0001364    0.0001337    -0.0000688   -0.0001550     0.0000943   -0.0000708 
   0.184396098     0.0189256   -0.1028605    -0.0000029   -0.0000469     0.0001820   -0.0000917     0.0002909   -0.0005475 
   0.184496123     0.0197188   -0.1026001    -0.0000139    0.0000252    -0.0000817   -0.0000428     0.0002143   -0.0003514 
   0.184596148     0.0192239   -0.1033626    -0.0000403    0.0001629     0.0000484   -0.0001099     0.0000510   -0.0003614 
   0.184696173     0.0196145   -0.1029930    -0.0000819   -0.0001947     0.0000319   -0.0001222     0.0000851   -0.0003838 
   0.184796198     0.0186398   -0.1024036    -0.0001853   -0.0000604     0.0000341    0.0000441     0.0007299   -0.0001494 
   0.184896223     0.0191931   -0.1026885    -0.0003013    0.0002549     0.0000593   -0.0000197     0.0001266   -0.0001472 
   0.184996248     0.0183068   -0.1021810    -0.0000159   -0.0001383     0.0000179    0.0000604     0.0000155   -0.0001384 
   0.185096273     0.0188990   -0.1021671    -0.0001092   -0.0001493     0.0000503    0.0000582     0.0002170   -0.0002031 
   0.185196298     0.0199102   -0.1028530     0.0000627    0.0000075    -0.0001308    0.0000158     0.0006119    0.0000505 
   0.185296323     0.0192652   -0.1025418     0.0001566    0.0000466     0.0000718   -0.0000253     0.0002003   -0.0002345 
   0.185396348     0.0200886   -0.1016752     0.0000846    0.0000426    -0.0000710   -0.0000231     0.0002218   -0.0006366 
   0.185496373     0.0196058   -0.1012447     0.0000513    0.0000265     0.0000694   -0.0000181    -0.0001190   -0.0002291 
   0.185596398     0.0193191   -0.1017687    -0.0000616   -0.0001617     0.0001430   -0.0000505     0.0005157   -0.0000541 
   0.185696423     0.0194426   -0.1015084    -0.0000965   -0.0001756    -0.0001304   -0.0001804    -0.0001061   -0.0003639 
   0.185796448     0.0196869   -0.1013119    -0.0002514    0.0000808    -0.0000660   -0.0000089     0.0004652    0.0000754 
   0.185896473     0.0187019   -0.1012398     0.0001900   -0.0001206     0.0000647    0.0000933     0.0000462   -0.0005385 
   0.185996498     0.0196126   -0.1006305    -0.0001009   -0.0000303     0.0001474   -0.0000824     0.0002137   -0.0004091 
   0.186096523     0.0193440   -0.1007014     0.0001314    0.0000942    -0.0001099    0.0001265     0.0006111   -0.0002118 
   0.186196548     0.0194816   -0.1008760     0.0001420   -0.0000308    -0.0000472   -0.0000225    -0.0000664   -0.0003521 
   0.186296573     0.0207867   -0.1010040     0.0001270   -0.0000245    -0.0001454   -0.0000045     0.0006291   -0.0004751 
   0.186396598     0.0193794   -0.1015125     0.0000165    0.0000699    -0.0000549    0.0002846     0.0003989   -0.0005288 
   0.186496623     0.0192451   -0.1005131     0.0000598    0.0000861     0.0000670    0.0001071     0.0002680   -0.0002756 
   0.186596648     0.0186476   -0.1014577    -0.0000049    0.0000811     0.0000070   -0.0000949     0.0003264   -0.0000939 
   0.186696673     0.0197314   -0.1009788     0.0000995    0.0000190    -0.0000263    0.0000617     0.0006549    0.0003842 
   0.186796698     0.0197753   -0.1008479    -0.0002185   -0.0000926     0.0000407    0.0002236     0.0002920   -0.0007709 
   0.186896723     0.0196860   -0.1002076    -0.0001756    0.0001632     0.0000389   -0.0000653     0.0003840   -0.0000159 
   0.186996748     0.0188673   -0.1002750    -0.0000740    0.0003645     0.0000616    0.0000755     0.0005090   -0.0001285 
   0.187096773     0.0192752   -0.1009116     0.0000194   -0.0001710    -0.0000716    0.0001244     0.0000461   -0.0003948 
   0.187196798     0.0190761   -0.0999029     0.0000904   -0.0001327     0.0000514   -0.0001659     0.0002861   -0.0004617 
   0.187296823     0.0192274   -0.0997670    -0.0002721    0.0000756    -0.0000092    0.0000162    -0.0001677   -0.0008035 
   0.187396848     0.0200938   -0.0994858     0.0001555   -0.0000170    -0.0000903   -0.0002767     0.0003884   -0.0009172 
   0.187496873     0.0198087   -0.0999477    -0.0000854   -0.0000652     0.0000770   -0.0001754     0.0004421   -0.0002152 
   0.187596898     0.0196669   -0.1000049    -0.0001428   -0.0002641     0.0000028   -0.0000359     0.0001527   -0.0002903 
   0.187696923     0.0198483   -0.0994585     0.0002345   -0.0000001    -0.0000858    0.0001215     0.0003241   -0.0006700 
   0.187796948     0.0192260   -0.0997189     0.0000562    0.0001464    -0.0001664    0.0000911     0.0005020   -0.0002137 
   0.187896973     0.0200122   -0.0992980     0.0001047   -0.0000108    -0.0000701   -0.0000525    -0.0000557   -0.0003993 
   0.187996998     0.0198983   -0.0994823    -0.0002002    0.0000945     0.0001089    0.0000019     0.0005098   -0.0005182 
   0.188097024     0.0195423   -0.0988863    -0.0000621    0.0001475     0.0000623   -0.0001235     0.0001336   -0.0006408 
   0.188197049     0.0197144   -0.0990636    -0.0001664    0.0000600    -0.0002083    0.0001789     0.0003225   -0.0005052 
   0.188297074     0.0199593   -0.0990287     0.0001444   -0.0000057    -0.0001005    0.0001791     0.0004937   -0.0002081 
   0.188397099     0.0198785   -0.0980537     0.0001583   -0.0000543     0.0000293    0.0000157     0.0000569   -0.0003217 
   0.188497124     0.0199668   -0.0986396     0.0000063    0.0000318     0.0001603    0.0000116     0.0006029   -0.0005711 
   0.188597149     0.0197560   -0.0985491     0.0001339    0.0001646     0.0000621   -0.0000395     0.0002143   -0.0005932 
   0.188697174     0.0196435   -0.0985553    -0.0002392   -0.0000142     0.0000068    0.0000363     0.0006239   -0.0003192 
   0.188797199     0.0196203   -0.0980896     0.0001185    0.0000665     0.0000259    0.0001102     0.0003190   -0.0005120 
   0.188897224     0.0192400   -0.0982450     0.0001722    0.0003545     0.0000529   -0.0000327     0.0005520   -0.0000947 
   0.188997249     0.0193768   -0.0984786     0.0001456   -0.0000920    -0.0000300    0.0000200     0.0005006   -0.0008962 
   0.189097274     0.0196743   -0.0985231    -0.0002545    0.0001908    -0.0000378    0.0000682    -0.0000148   -0.0003958 
   0.189197299     0.0200667   -0.0984416     0.0000945   -0.0000473    -0.0000730   -0.0000034     0.0001103   -0.0002545 
   0.189297324     0.0199101   -0.0972456    -0.0000177   -0.0000326     0.0000645   -0.0000255     0.0004844   -0.0003187 
   0.189397349     0.0202114   -0.0973196    -0.0001912   -0.0000006    -0.0002925    0.0000245    -0.0000200   -0.0000546 
   0.189497374     0.0200025   -0.0981881    -0.0002264   -0.0002280    -0.0000616    0.0000631     0.0004825   -0.0007314 
   0.189597399     0.0193276   -0.0983615     0.0001528    0.0002934    -0.0000371   -0.0000327     0.0000381   -0.0005330 
   0.189697424     0.0200114   -0.0974888    -0.0001139   -0.0002584     0.0001705   -0.0001420     0.0006774   -0.0000651 
   0.189797449     0.0197330   -0.0971997    -0.0000858    0.0002106     0.0000137    0.0000191     0.0007035   -0.0007886 
   0.189897474     0.0200133   -0.0975072    -0.0000746   -0.0000183    -0.0001594   -0.0001882     0.0000150   -0.0006068 
   0.189997499     0.0197515   -0.0970197     0.0001473   -0.0000026    -0.0000360    0.0001085     0.0007931   -0.0002570 
   0.190097524     0.0195713   -0.0973557     0.0000534    0.0000832     0.0001557    0.0001217     0.0003102   -0.0002214 
   0.190197549     0.0197159   -0.0966067    -0.0000936    0.0000103     0.0001232   -0.0001302     0.0004143   -0.0003513 
   0.190297574     0.0203214   -0.0973036     0.0000830    0.0001050     0.0000468   -0.0000611     0.0003699   -0.0002616 
   0.190397599     0.0202802   -0.0975459     0.0000033    0.0001851     0.0000288    0.0002018     0.0004431   -0.0005572 
   0.190497624     0.0195837   -0.0971657    -0.0000551   -0.0001099    -0.0001115    0.0000417     0.0004613   -0.0000345 
   0.190597649     0.0198807   -0.0972647     0.0000039    0.0001517    -0.0002460   -0.0000859     0.0004267   -0.0003539 
   0.190697674     0.0201507   -0.0967054     0.0002813    0.0002903    -0.0001740   -0.0001086     0.0007181   -0.0006511 
   0.190797699     0.0198651   -0.0963456    -0.0000559    0.0000992    -0.0001755    0.0000490     0.0000580   -0.0005783 
   0.190897724     0.0194477   -0.0964441     0.0000770    0.0000783     0.0000140   -0.0000350     0.0005398    0.0000276 
   0.190997749     0.0203200   -0.0963981     0.0000603   -0.0001223     0.0000193    0.0001542     0.0006811   -0.0003162 
   0.191097774     0.0198998   -0.0965746    -0.0001316    0.0001027     0.0002035   -0.0000561     0.0006861   -0.0003705 
   0.191197799     0.0203673   -0.0963495     0.0002878   -0.0000014     0.0000437   -0.0001973     0.0006451    0.0000488 
   0.191297824     0.0198667   -0.0955636     0.0001601   -0.0001928    -0.0000893    0.0000543     0.0004488   -0.0001411 
   0.191397849     0.0200821   -0.0959475    -0.0000280    0.0001072    -0.0000756    0.0001130     0.0008874    0.0002868 
   0.191497874     0.0202284   -0.0960406    -0.0000484    0.0000947    -0.0000626   -0.0000306     0.0007284    0.0001257 
   0.191597899     0.0201878   -0.0958346     0.0001479   -0.0000320    -0.0000173   -0.0000720     0.0004680   -0.0004473 
   0.191697924     0.0208558   -0.0952795     0.0001760   -0.0000410     0.0000577    0.0000325     0.0005929   -0.0001764 
   0.191797949     0.0201840   -0.0955807    -0.0000466   -0.0000079     0.0000687   -0.0000598     0.0003328   -0.0007562 
   0.191897974     0.0208429   -0.0957556    -0.0000607    0.0004445    -0.0000225    0.0000343     0.0006868   -0.0006510 
   0.191997999     0.0198647   -0.0955110    -0.0001157   -0.0000247    -0.0002321    0.0001344     0.0002659   -0.0000811 
   0.192098024     0.0197055   -0.0952343     0.0002585   -0.0000116     0.0000473   -0.0001194     0.0006227   -0.0003596 
   0.192198049     0.0201499   -0.0948552    -0.0000663    0.0002940    -0.0000763    0.0002771     0.0002039   -0.0005652 
   0.192298074     0.0203853   -0.0950497    -0.0000768   -0.0001935    -0.0000867    0.0000587     0.0003794   -0.0004904 
   0.192398099     0.0204699   -0.0945836    -0.0000404   -0.0001292    -0.0001338   -0.0001045     0.0004775    0.0000501 
   0.192498124     0.0206868   -0.0942524    -0.0000521   -0.0002807     0.0000215   -0.0001688     0.0004345   -0.0002230 
   0.192598149     0.0197309   -0.0945430    -0.0001085    0.0000113     0.0000597    0.0000036     0.0004080   -0.0001550 
   0.192698174     0.0197516   -0.0936663    -0.0002390   -0.0001104    -0.0000098   -0.0001213     0.0004169   -0.0001823 
   0.192798199     0.0207461   -0.0936540     0.0000276   -0.0000174     0.0001201   -0.0000208     0.0000314   -0.0004524 
   0.192898224     0.0202536   -0.0941051     0.0002962   -0.0000869     0.0001861    0.0000160     0.0006052   -0.0000779 
   0.192998249     0.0201574   -0.0943034    -0.0002279   -0.0000469    -0.0000632   -0.0000853     0.0003325   -0.0005846 
   0.193098274     0.0200660   -0.0944010    -0.0000325   -0.0001849     0.0000565    0.0000792     0.0003635   -0.0001227 
   0.193198299     0.0204172   -0.0948012    -0.0002016    0.0000820     0.0000466   -0.0001334     0.0003986   -0.0003535 
   0.193298324     0.0200273   -0.0937594     0.0000787    0.0002361     0.0000392    0.0000248     0.0008738   -0.0003308 
   0.193398349     0.0206130   -0.0944367    -0.0000131    0.0002238    -0.0000093   -0.0001607     0.0004964   -0.0006187 
   0.193498374     0.0210640   -0.0926895    -0.0003237    0.0001551    -0.0001354    0.0000428     0.0005315   -0.0005644 
   0.193598399     0.0203186   -0.0934658     0.0000959   -0.0000963    -0.0000774   -0.0001378     0.0002475   -0.0004159 
   0.193698424     0.0203654   -0.0931587     0.0001028   -0.0002188    -0.0001269   -0.0000368     0.0006735   -0.0000768 
   0.193798449     0.0209264   -0.0932683     0.0001560   -0.0001981     0.0000796    0.0000196     0.0007728   -0.0008279 
   0.193898474     0.0206523   -0.0937509    -0.0002439   -0.0001779     0.0000376   -0.0001473     0.0007283   -0.0004675 
   0.193998499     0.0209004   -0.0933002    -0.0000324    0.0000125     0.0000639   -0.0000225     0.0003074   -0.0001586 
   0.194098524     0.0205447   -0.0938424    -0.0002090    0.0000708     0.0001220   -0.0001789     0.0001980   -0.0003271 
   0.194198549     0.0201558   -0.0931364     0.0002699    0.0001222    -0.0000839   -0.0001523     0.0007220   -0.0001762 
   0.194298574     0.0200599   -0.0929377     0.0001121   -0.0000342    -0.0000551    0.0000034     0.0003315   -0.0005388 
   0.194398599     0.0201969   -0.0920341     0.0000141   -0.0000120     0.0001730   -0.0001842     0.0007410   -0.0006787 
   0.194498624     0.0201624   -0.0919496    -0.0001280    0.0000000    -0.0000540   -0.0000866     0.0004772   -0.0001322 
   0.194598649     0.0200329   -0.0924421    -0.0000908   -0.0000257     0.0000062    0.0000828     0.0004873   -0.0001353 
   0.194698674     0.0205330   -0.0922765     0.0000274   -0.0000355     0.0000080   -0.0000868     0.0006278   -0.0001583 
   0.194798699     0.0201433   -0.0925052    -0.0001060   -0.0001774     0.0000258   -0.0002367     0.0006433   -0.0000568 
   0.194898724     0.0208299   -0.0922576     0.0000709   -0.0001678     0.0000840    0.0000835     0.0003891   -0.0008076 
   0.194998749     0.0196718   -0.0921267     0.0001215   -0.0001510    -0.0001832   -0.0002460     0.0007132    0.0001559 
   0.195098774     0.0203184   -0.0917419     0.0001242    0.0000204     0.0000531   -0.0000668     0.0009853   -0.0002916 
   0.195198799     0.0211612   -0.0920792    -0.0001249    0.0000074     0.0000207    0.0000390     0.0009220   -0.0001667 
   0.195298824     0.0206469   -0.0916361     0.0001545   -0.0002968     0.0000393    0.0001172     0.0009338    0.0002534 
   0.195398849     0.0204365   -0.0914805     0.0001009    0.0001394     0.0000597    0.0000723     0.0004003   -0.0003536 
   0.195498874     0.0202748   -0.0920373     0.0001583   -0.0000029    -0.0000643    0.0001109     0.0005019   -0.0006414 
   0.195598899     0.0206664   -0.0913813     0.0001291    0.0000529     0.0000097   -0.0000036     0.0007365   -0.0006131 
   0.195698924     0.0203246   -0.0918244     0.0001315    0.0000784    -0.0000478    0.0000088     0.0006579   -0.0004871 
   0.195798949     0.0206897   -0.0921191    -0.0000224    0.0000733    -0.0000785   -0.0001142     0.0011092   -0.0002980 
   0.195898974     0.0206078   -0.0912048     0.0000142    0.0000295     0.0001278    0.0001973     0.0005074   -0.0001781 
   0.195998999     0.0212578   -0.0912358     0.0000757    0.0002840    -0.0002120    0.0002969     0.0009334   -0.0001357 
   0.196099025     0.0205602   -0.0912308     0.0001970    0.0002273     0.0000499   -0.0000658     0.0002496   -0.0002676 
   0.196199050     0.0207330   -0.0907679    -0.0002111   -0.0000630     0.0000249    0.0001846     0.0003699   -0.0005826 
   0.196299075     0.0210131   -0.0901641    -0.0000966   -0.0000169     0.0001011    0.0002128     0.0007464   -0.0006719 
   0.196399100     0.0206989   -0.0914705    -0.0000758   -0.0000994    -0.0000716   -0.0000171     0.0011644   -0.0001375 
   0.196499125     0.0211358   -0.0908885     0.0001137    0.0002745     0.0001462    0.0000587     0.0010696   -0.0004191 
   0.196599150     0.0210960   -0.0913683     0.0001084    0.0000828    -0.0000231   -0.0000835     0.0003748   -0.0000648 
   0.196699175     0.0209503   -0.0908386    -0.0001528   -0.0000431     0.0001165    0.0001319     0.0005890   -0.0003908 
   0.196799200     0.0214670   -0.0904383     0.0000017    0.0002646     0.0001194    0.0001280     0.0007719    0.0001827 
   0.196899225     0.0205175   -0.0903499     0.0001932   -0.0000308     0.0002232    0.0001618     0.0006555   -0.0001287 
   0.196999250     0.0216543   -0.0901845    -0.0000610    0.0000398     0.0000136    0.0001456     0.0006493   -0.0004129 
   0.197099275     0.0216013   -0.0902202     0.0000922    0.0002059     0.0000133    0.0000880     0.0008714   -0.0003616 
   0.197199300     0.0204495   -0.0901192     0.0000423    0.0002712    -0.0000051    0.0002249     0.0007943   -0.0003942 
   0.197299325     0.0211536   -0.0905608     0.0002077   -0.0000695     0.0000569   -0.0000571     0.0005918   -0.0004583 
   0.197399350     0.0202232   -0.0898577    -0.0002224   -0.0001801    -0.0001185   -0.0000088     0.0004727   -0.0002887 
   0.197499375     0.0212758   -0.0896391    -0.0000021   -0.0000555    -0.0000915    0.0000222     0.0002616    0.0000773 
   0.197599400     0.0211551   -0.0901359    -0.0000463    0.0001788     0.0000491   -0.0000926     0.0003722   -0.0006946 
   0.197699425     0.0206905   -0.0898198     0.0001791   -0.0004770    -0.0002284   -0.0001879     0.0012427   -0.0002721 
   0.197799450     0.0211949   -0.0897998    -0.0001388   -0.0001722    -0.0000983   -0.0000595     0.0003351   -0.0001809 
   0.197899475     0.0209734   -0.0892126     0.0002778   -0.0000967    -0.0000883    0.0000570     0.0001686   -0.0002034 
   0.197999500     0.0212887   -0.0899369    -0.0000291    0.0002822     0.0000697    0.0000057     0.0006765   -0.0000197 
   0.198099525     0.0212702   -0.0897585     0.0001435    0.0000617    -0.0000102    0.0000129     0.0011420   -0.0001663 
   0.198199550     0.0209599   -0.0896634     0.0000485   -0.0000182    -0.0001045    0.0001177     0.0007871   -0.0003704 
   0.198299575     0.0218845   -0.0887039    -0.0000480    0.0001816     0.0001939   -0.0000783     0.0005967   -0.0001625 
   0.198399600     0.0213150   -0.0890993     0.0002047   -0.0000876     0.0000804    0.0001393     0.0003862   -0.0006369 
   0.198499625     0.0211497   -0.0890473    -0.0001510   -0.0001177     0.0000454    0.0000952     0.0001757   -0.0001577 
   0.198599650     0.0209372   -0.0877653     0.0001157    0.0000201    -0.0001019   -0.0001435     0.0007639   -0.0001788 
   0.198699675     0.0205955   -0.0884440     0.0000009   -0.0001666    -0.0000818   -0.0000465     0.0004017   -0.0004509 
   0.198799700     0.0210626   -0.0879882    -0.0000361   -0.0001704     0.0000787    0.0000151     0.0004125   -0.0001623 
   0.198899725     0.0213239   -0.0890423     0.0002330   -0.0000186    -0.0001502   -0.0000845     0.0011883   -0.0005540 
   0.198999750     0.0212213   -0.0879136     0.0000322   -0.0001011    -0.0000746   -0.0000407     0.0007129   -0.0002592 
   0.199099775     0.0213514   -0.0884325     0.0000212   -0.0002893    -0.0001546   -0.0001312     0.0006351   -0.0002090 
   0.199199800     0.0210549   -0.0884438    -0.0001971    0.0000680    -0.0001002   -0.0001139     0.0007104   -0.0005033 
   0.199299825     0.0210149   -0.0882513     0.0001569    0.0001130    -0.0000214    0.0001199    -0.0001250   -0.0002548 
   0.199399850     0.0213077   -0.0869808    -0.0000921    0.0001154     0.0000160   -0.0000400     0.0005273   -0.0005747 
   0.199499875     0.0216727   -0.0875081     0.0000478   -0.0001657    -0.0003096    0.0000318     0.0008901   -0.0004096 
   0.199599900     0.0214078   -0.0879857     0.0001547   -0.0001744    -0.0000283   -0.0001406     0.0010021   -0.0001303 
   0.199699925     0.0222682   -0.0877513    -0.0002336   -0.0000143     0.0000855   -0.0000609     0.0001837    0.0000200 
   0.199799950     0.0215267   -0.0880887    -0.0000580   -0.0000681    -0.0000242   -0.0000608     0.0006140   -0.0001795 
   0.199899975     0.0209582   -0.0873870     0.0001163   -0.0000772     0.0001262   -0.0000136     0.0008105   -0.0001962 
   0.200000000     0.0216309   -0.0870350     0.0001385   -0.0000436    -0.0000563    0.0000312     0.0006708    0.0004677 
