! 12-May-26 12:31:00 PM
! E:\REC_VNA_20260512\T1T1E5_LONGOPEN.S2P
! CHANNEL.1
! TR.MEASUREMENT
! CORRECTED.DATA
# GHZ S RI R 50.0
! FREQ.GHZ         S11RE         S11IM         S21RE         S21IM         S12RE         S12IM         S22RE         S22IM         
!; PortSelection: Port_12
   0.000050000     0.4396886    0.0051761     0.1485415   -0.4157059    -0.0002657    0.0000266    -0.0254865    0.0391497 
   0.000150025     0.0636491   -0.0547057     0.3857361    0.0690507     0.0002992    0.0016651    -0.0027292   -0.0018656 
   0.000250050     0.0919105   -0.5448222    -0.4363073   -0.5918679    -0.0002267    0.0001178    -0.0009473   -0.0063334 
   0.000350075     1.0343970    0.0026457    -0.0039880   -0.0083421     0.0004763   -0.0006591    -0.0007305   -0.0002308 
   0.000450100     1.0555070   -0.0645650    -0.0012204   -0.0100375     0.0005801   -0.0000108    -0.0001141   -0.0003269 
   0.000550125     1.0150320    0.0367905    -0.0077426   -0.0082108     0.0002563   -0.0004653     0.0012111   -0.0005305 
   0.000650150     0.9505625   -0.0110053    -0.0053769   -0.0069904    -0.0003646   -0.0000909     0.0023448   -0.0004792 
   0.000750175     0.9623557   -0.0428620    -0.0071779   -0.0096235    -0.0011341   -0.0003084     0.0008697    0.0006963 
   0.000850200     0.9660220   -0.0999249    -0.0062440   -0.0107971    -0.0002111   -0.0007164     0.0009516   -0.0003421 
   0.000950225     1.0221610   -0.0663929    -0.0090517   -0.0091146    -0.0004333    0.0003512     0.0009505    0.0011510 
   0.001050250     0.9710795   -0.0081391    -0.0135896   -0.0076508    -0.0002302    0.0006344     0.0013853    0.0009605 
   0.001150275     0.9916304   -0.0862969    -0.0076042   -0.0050695     0.0002769   -0.0000770     0.0012441    0.0006835 
   0.001250300     0.9782946   -0.0209556    -0.0086494   -0.0034027    -0.0014808    0.0004000     0.0009387    0.0009795 
   0.001350325     1.0277320   -0.0957238    -0.0060311   -0.0045735     0.0015789    0.0005373    -0.0007719   -0.0003857 
   0.001450350     0.9831662   -0.0740414    -0.0049546   -0.0026541     0.0003516   -0.0002201     0.0013213   -0.0001486 
   0.001550375     0.9133657   -0.0276626    -0.0060082   -0.0024868     0.0007710   -0.0010503     0.0023063   -0.0007344 
   0.001650400     1.0093810   -0.0351053    -0.0055564   -0.0012761     0.0002646   -0.0002153    -0.0003884    0.0008289 
   0.001750425     0.9970695   -0.0795734    -0.0074376   -0.0011511     0.0000804    0.0001634     0.0015984   -0.0006289 
   0.001850450     0.9836774   -0.0672910    -0.0063588   -0.0014040     0.0007617    0.0000576     0.0011597    0.0001485 
   0.001950475     1.0059020   -0.0646804    -0.0071824    0.0001470    -0.0001695    0.0000971     0.0022595   -0.0010186 
   0.002050500     0.9815364   -0.0716553    -0.0046526    0.0017714    -0.0001140   -0.0006149     0.0017280   -0.0000640 
   0.002150525     1.0252340   -0.0833646    -0.0079073    0.0003408    -0.0003164    0.0003964     0.0008360    0.0005530 
   0.002250550     0.9943504   -0.0612043    -0.0070993   -0.0012474    -0.0001399    0.0000296     0.0003356   -0.0005538 
   0.002350575     0.9596982   -0.1330416    -0.0071042    0.0036755    -0.0007081    0.0013514     0.0012414   -0.0004459 
   0.002450600     0.9753889   -0.0488471    -0.0053535    0.0036277     0.0003161    0.0004327     0.0015087    0.0000737 
   0.002550625     0.9857779   -0.0952653    -0.0049153    0.0033471     0.0002259    0.0007869    -0.0000038    0.0006081 
   0.002650650     1.0238400   -0.0420978    -0.0082250    0.0040854    -0.0006116    0.0002820     0.0007208    0.0005671 
   0.002750675     0.9835851   -0.0409209    -0.0024443    0.0021711    -0.0001334    0.0002041     0.0004982    0.0006992 
   0.002850700     1.0057720   -0.1476191    -0.0031058    0.0011326    -0.0001962   -0.0009427     0.0005147   -0.0003776 
   0.002950725     0.9526377   -0.0877573    -0.0020582    0.0031956     0.0000799   -0.0000360     0.0015240    0.0002750 
   0.003050750     1.0086410   -0.0873666    -0.0021558    0.0057647     0.0001094   -0.0007134     0.0008703   -0.0014787 
   0.003150775     0.9583096   -0.1289660    -0.0021671    0.0001349     0.0001503    0.0005541     0.0009404    0.0006468 
   0.003250800     0.9904938   -0.0918602     0.0007858    0.0018560     0.0003567    0.0004622     0.0016479    0.0005692 
   0.003350825     0.9918934   -0.0979735    -0.0033668    0.0007401    -0.0000418   -0.0001621     0.0002251    0.0007305 
   0.003450850     0.9196680   -0.1305804    -0.0014371    0.0007842     0.0002312   -0.0000044     0.0011135   -0.0006631 
   0.003550875     0.9357762   -0.1105653    -0.0017225    0.0047942     0.0001705    0.0000375     0.0008811   -0.0000295 
   0.003650900     0.9522318   -0.1050942     0.0002234    0.0011882    -0.0002290   -0.0000935     0.0010921   -0.0003815 
   0.003750925     0.9556403   -0.1315364    -0.0019822    0.0006163     0.0002849   -0.0008760     0.0013375   -0.0003950 
   0.003850950     0.9732910   -0.1463315    -0.0020509    0.0016616     0.0003195   -0.0002752     0.0007514    0.0003509 
   0.003950975     0.9901499   -0.1083728    -0.0017318    0.0023614     0.0002377    0.0005484     0.0002799   -0.0006611 
   0.004051001     0.9751895   -0.1403696    -0.0016666    0.0025110    -0.0002175   -0.0003259     0.0006411   -0.0003306 
   0.004151026     1.0140410   -0.1673652     0.0003834    0.0034110     0.0001845    0.0002904     0.0000784   -0.0003946 
   0.004251051     1.0244760   -0.1351611     0.0007376    0.0021360     0.0002197   -0.0005492     0.0001428   -0.0003892 
   0.004351076     0.9598871   -0.1227714    -0.0023543    0.0017377     0.0000084    0.0003001     0.0011804    0.0006550 
   0.004451101     0.9916038   -0.1409856    -0.0003867    0.0007862     0.0002906    0.0003095     0.0012507   -0.0007894 
   0.004551126     0.9891059   -0.1365426    -0.0016631    0.0027006    -0.0003738   -0.0000699    -0.0002841   -0.0001747 
   0.004651151     0.9530305   -0.1748462    -0.0020266   -0.0001140     0.0004103    0.0002979     0.0002866   -0.0001726 
   0.004751176     0.9523431   -0.1956355     0.0001491   -0.0004055    -0.0006765    0.0000659     0.0008728    0.0005060 
   0.004851201     0.9488378   -0.1362588    -0.0023437    0.0005584     0.0002055    0.0001303     0.0012318    0.0000180 
   0.004951226     0.9721150   -0.1599547    -0.0002820    0.0007898     0.0001376   -0.0000778     0.0013003    0.0001256 
   0.005051251     1.0061910   -0.1595266    -0.0007442    0.0003367     0.0003943   -0.0001717     0.0012286   -0.0003022 
   0.005151276     0.9426519   -0.1501072     0.0001843    0.0008274     0.0007926   -0.0004013     0.0007942    0.0001820 
   0.005251301     0.9605455   -0.1706081    -0.0000252    0.0005224    -0.0006233   -0.0003247     0.0013685    0.0010226 
   0.005351326     0.9503776   -0.1591942     0.0000603    0.0001632     0.0004498   -0.0004141     0.0009535    0.0003316 
   0.005451351     0.9919882   -0.1478876    -0.0003493    0.0015868     0.0001338    0.0000173     0.0007944    0.0000098 
   0.005551376     0.9767565   -0.1921662     0.0002598    0.0008520    -0.0001713    0.0001292     0.0007640   -0.0000911 
   0.005651401     0.9276654   -0.1599490    -0.0007095   -0.0022217     0.0000712   -0.0003185     0.0007440   -0.0007447 
   0.005751426     0.9484593   -0.1503616    -0.0006905    0.0001201    -0.0003337    0.0000432     0.0007618    0.0000587 
   0.005851451     0.9730829   -0.1974417     0.0002677    0.0010566     0.0003995   -0.0003788     0.0005104   -0.0000089 
   0.005951476     0.9608599   -0.1766967     0.0007494    0.0014475    -0.0000987   -0.0001527     0.0012248    0.0001459 
   0.006051501     0.9715240   -0.1788645    -0.0006608    0.0003263     0.0007769    0.0005655     0.0002319    0.0004343 
   0.006151526     0.9527273   -0.2057150     0.0005492   -0.0010316     0.0003069    0.0000479     0.0010555   -0.0003487 
   0.006251551     0.9603220   -0.1988353    -0.0004514    0.0015301     0.0004282   -0.0003961     0.0009704    0.0004844 
   0.006351576     0.9560862   -0.2038227     0.0005547   -0.0010292     0.0000459   -0.0003104     0.0012022    0.0001366 
   0.006451601     0.9683308   -0.2041551     0.0008702    0.0013311     0.0000357    0.0000439     0.0006615    0.0002821 
   0.006551626     0.9590251   -0.2065400     0.0005670   -0.0001480    -0.0003078    0.0003406     0.0000413    0.0001063 
   0.006651651     0.9594880   -0.2028168     0.0009208   -0.0001163     0.0001798    0.0002861     0.0007845    0.0000637 
   0.006751676     0.9520310   -0.2224138    -0.0013956    0.0018436     0.0000155    0.0001853     0.0012396    0.0000162 
   0.006851701     0.9594890   -0.2327826    -0.0005574   -0.0004640    -0.0002077   -0.0001726     0.0006227    0.0002750 
   0.006951726     0.9295274   -0.2429215     0.0011400    0.0001632     0.0001306    0.0002787     0.0015133    0.0007095 
   0.007051751     0.9568759   -0.2175928     0.0007379    0.0006771    -0.0006861   -0.0000131     0.0005163   -0.0003368 
   0.007151776     0.9498495   -0.2286709     0.0007416   -0.0016921    -0.0005476   -0.0000324     0.0009846    0.0002454 
   0.007251801     0.9864281   -0.2304336     0.0001355   -0.0026489    -0.0001758    0.0001804     0.0003693   -0.0003161 
   0.007351826     0.9376381   -0.2318009    -0.0000452   -0.0007155    -0.0002734   -0.0000479     0.0016649    0.0004538 
   0.007451851     0.9508858   -0.2494194     0.0004854    0.0007346    -0.0003063   -0.0003468     0.0010474   -0.0001232 
   0.007551876     0.9566932   -0.2502159     0.0001499    0.0016628     0.0006118    0.0001639     0.0007620   -0.0001679 
   0.007651901     0.9450722   -0.2563979    -0.0009936    0.0012627    -0.0003802    0.0002485     0.0007725    0.0000602 
   0.007751926     0.9470433   -0.2372613     0.0007184    0.0010461     0.0004264   -0.0003928     0.0005008   -0.0008187 
   0.007851951     0.9353737   -0.2470388    -0.0011361    0.0013090     0.0007388   -0.0002087     0.0008450    0.0000424 
   0.007951976     0.9629756   -0.2799611    -0.0008551    0.0006599    -0.0003132   -0.0004893     0.0008981    0.0005558 
   0.008052001     0.9634286   -0.2666994     0.0008082    0.0001967     0.0000345   -0.0002894     0.0008806    0.0001396 
   0.008152026     0.9401568   -0.2697729     0.0006253    0.0007522     0.0001534    0.0001971     0.0010818    0.0003202 
   0.008252051     0.9138149   -0.2373196     0.0004222    0.0004328    -0.0000826   -0.0000001     0.0010927    0.0005523 
   0.008352076     0.9354270   -0.2763156    -0.0007854    0.0012784    -0.0000373   -0.0000719     0.0014406   -0.0003310 
   0.008452101     0.9562947   -0.2624747     0.0000635   -0.0000815     0.0002068   -0.0004849     0.0003893   -0.0001255 
   0.008552126     0.9438916   -0.2754903     0.0007500   -0.0001201     0.0003752   -0.0000131     0.0012709    0.0004744 
   0.008652151     0.9339430   -0.2776370     0.0007022    0.0004194     0.0002020    0.0005674     0.0008190    0.0003792 
   0.008752176     0.9439220   -0.2605465     0.0006139   -0.0001740    -0.0002469    0.0001034     0.0006272   -0.0002453 
   0.008852201     0.9414300   -0.2743220    -0.0000928   -0.0006147     0.0001903    0.0003667     0.0007050   -0.0000877 
   0.008952226     0.9428697   -0.2845771     0.0007483    0.0007167    -0.0000140    0.0002708     0.0008395   -0.0004640 
   0.009052251     0.9473225   -0.2900262     0.0018973    0.0011961    -0.0001108   -0.0008329     0.0008544   -0.0002629 
   0.009152276     0.9410413   -0.2836134    -0.0008535   -0.0008172    -0.0000537   -0.0004658     0.0011722    0.0003849 
   0.009252301     0.9321876   -0.3009034     0.0002272    0.0009240    -0.0003922   -0.0005665     0.0008494    0.0001014 
   0.009352326     0.9530027   -0.2949133    -0.0007928   -0.0019402    -0.0001519    0.0000893     0.0006917   -0.0001030 
   0.009452351     0.9348572   -0.3121828    -0.0011550   -0.0001556    -0.0004430   -0.0000212     0.0008209   -0.0000416 
   0.009552376     0.9335811   -0.3283751     0.0017720   -0.0006236    -0.0001760    0.0000512     0.0008950    0.0003164 
   0.009652401     0.9197206   -0.3049076     0.0001173    0.0010659     0.0005996    0.0000737     0.0005608    0.0006851 
   0.009752426     0.9205816   -0.3179954     0.0009009   -0.0013623    -0.0000366   -0.0000236     0.0008362    0.0006221 
   0.009852451     0.9185045   -0.3384109    -0.0003197    0.0005634     0.0003288   -0.0000086     0.0004950    0.0000701 
   0.009952476     0.9172397   -0.3306598     0.0005236   -0.0007884    -0.0001009   -0.0004515     0.0006783    0.0003324 
   0.010052501     0.9141580   -0.3264606    -0.0005376   -0.0001264     0.0000352    0.0001189     0.0003184    0.0000058 
   0.010152526     0.9079484   -0.3403598    -0.0008574    0.0000255     0.0003852    0.0000742     0.0007217    0.0004115 
   0.010252551     0.9141985   -0.3462375     0.0010979    0.0002771     0.0003413    0.0003142     0.0010865    0.0000419 
   0.010352576     0.9334977   -0.3536338    -0.0009074   -0.0004784    -0.0003521    0.0000547     0.0005770    0.0003338 
   0.010452601     0.9078178   -0.3310397    -0.0000425   -0.0000015    -0.0002107   -0.0001871     0.0012276    0.0000786 
   0.010552626     0.9096687   -0.3574641    -0.0000228    0.0001403    -0.0002307   -0.0001717     0.0007034    0.0001876 
   0.010652651     0.9145641   -0.3677290    -0.0010606    0.0000331    -0.0001571    0.0000328     0.0007363    0.0002284 
   0.010752676     0.9160829   -0.3710774     0.0014295    0.0005460     0.0001073   -0.0002375     0.0006591   -0.0002550 
   0.010852701     0.9046956   -0.3398830    -0.0022283   -0.0007732     0.0002020   -0.0002623     0.0005523    0.0003569 
   0.010952726     0.8978543   -0.3652542     0.0002080   -0.0007172    -0.0001327    0.0000218     0.0005640   -0.0000430 
   0.011052751     0.9076409   -0.3704278     0.0011024    0.0002822     0.0000028   -0.0000868     0.0013179    0.0005835 
   0.011152776     0.8979052   -0.3675805    -0.0002225   -0.0005287     0.0001806    0.0000945     0.0006035    0.0005119 
   0.011252801     0.8965377   -0.3880606     0.0001279   -0.0000117    -0.0000105   -0.0000420     0.0003520    0.0004978 
   0.011352826     0.9040980   -0.3943869    -0.0003016    0.0012101     0.0001028    0.0000505     0.0008773    0.0002553 
   0.011452851     0.8921831   -0.3856400     0.0004783    0.0001010     0.0000673   -0.0000506     0.0004759    0.0002415 
   0.011552876     0.8846342   -0.3873904     0.0006060    0.0000434    -0.0002561    0.0001354     0.0007806   -0.0000150 
   0.011652901     0.8759854   -0.4088644     0.0000751   -0.0012501     0.0001930    0.0001602     0.0006025    0.0003629 
   0.011752926     0.8761922   -0.4053428    -0.0006596    0.0004656    -0.0000074   -0.0001781     0.0011169    0.0004788 
   0.011852951     0.8836567   -0.4249891    -0.0010944    0.0008249     0.0003205   -0.0000672     0.0006683    0.0000697 
   0.011952976     0.8766199   -0.3973899     0.0006499   -0.0007026     0.0000732    0.0000109     0.0007525    0.0009399 
   0.012053002     0.8699457   -0.4260724    -0.0000915   -0.0005929     0.0002717    0.0003326     0.0005938    0.0005731 
   0.012153027     0.8666441   -0.4334810    -0.0001556    0.0001178     0.0002381    0.0001238     0.0009685   -0.0002125 
   0.012253052     0.8565167   -0.4238836     0.0003613    0.0002779    -0.0002374   -0.0001819     0.0010697    0.0003717 
   0.012353077     0.8798546   -0.4263938    -0.0004469    0.0002874    -0.0004151   -0.0000331     0.0005130    0.0003883 
   0.012453102     0.8666499   -0.4421258     0.0000150   -0.0000668     0.0003019    0.0003194     0.0011829   -0.0001379 
   0.012553127     0.8536194   -0.4529950    -0.0005760   -0.0003697     0.0000187    0.0001036     0.0007281   -0.0002965 
   0.012653152     0.8660327   -0.4462784    -0.0006781   -0.0000635    -0.0002691   -0.0001081     0.0002628   -0.0000844 
   0.012753177     0.8530101   -0.4412830    -0.0011021    0.0003591    -0.0001362    0.0002336     0.0002024    0.0003069 
   0.012853202     0.8522589   -0.4327518     0.0004832    0.0017395     0.0001335   -0.0001236     0.0008678    0.0006558 
   0.012953227     0.8389534   -0.4411794     0.0003137    0.0003830    -0.0001634    0.0002768     0.0009568    0.0006694 
   0.013053252     0.8367770   -0.4774017    -0.0002265    0.0005840     0.0001877    0.0001809     0.0007724    0.0005787 
   0.013153277     0.8463821   -0.4681111     0.0008399    0.0004936     0.0000896    0.0000633     0.0004746    0.0004623 
   0.013253302     0.8346735   -0.4683676    -0.0006390   -0.0007837     0.0002194    0.0003229     0.0009800    0.0002373 
   0.013353327     0.8311205   -0.4730391    -0.0004906    0.0008492     0.0000532   -0.0001239     0.0008100    0.0001878 
   0.013453352     0.8350443   -0.4673172    -0.0000500   -0.0001835    -0.0000255    0.0001388     0.0010595    0.0005984 
   0.013553377     0.8167958   -0.4889286    -0.0004616    0.0008064     0.0002192    0.0002987     0.0005121    0.0000395 
   0.013653402     0.8202934   -0.4979972     0.0004151    0.0002909    -0.0001130   -0.0000885     0.0011217    0.0003779 
   0.013753427     0.8311039   -0.5036933     0.0013333    0.0001082     0.0001757    0.0000946     0.0008646    0.0006066 
   0.013853452     0.8061866   -0.5251333    -0.0000099   -0.0006428     0.0000384    0.0001463     0.0007440    0.0005853 
   0.013953477     0.7987601   -0.4957507     0.0002916   -0.0002266     0.0000806   -0.0001801     0.0009287    0.0003151 
   0.014053502     0.8134837   -0.5314788    -0.0000815   -0.0000449    -0.0001007   -0.0002799     0.0004594    0.0003937 
   0.014153527     0.7965642   -0.5316383     0.0004018    0.0000114    -0.0001577   -0.0000466     0.0008526    0.0006159 
   0.014253552     0.7944373   -0.5465232    -0.0003367   -0.0002268     0.0001433   -0.0003335     0.0012839   -0.0000284 
   0.014353577     0.7740464   -0.5418775     0.0000464    0.0003818     0.0000979   -0.0001606     0.0012848    0.0001071 
   0.014453602     0.7530735   -0.5504953     0.0003873   -0.0002380     0.0002324    0.0000149     0.0006852    0.0003201 
   0.014553627     0.7752795   -0.5450091     0.0004745    0.0003094    -0.0001703   -0.0000415     0.0007950    0.0001027 
   0.014653652     0.7613962   -0.5672153    -0.0001956   -0.0002823    -0.0001072   -0.0000958     0.0007950    0.0001748 
   0.014753677     0.7416319   -0.5679647    -0.0007250   -0.0003908     0.0000912    0.0000770     0.0006632    0.0001869 
   0.014853702     0.7594000   -0.5717947    -0.0002085    0.0007441     0.0000216   -0.0002381     0.0008287    0.0003191 
   0.014953727     0.7256199   -0.5898544    -0.0002059   -0.0003787    -0.0000964    0.0000602     0.0007812    0.0003786 
   0.015053752     0.7210439   -0.5921236    -0.0005752    0.0005622    -0.0001090    0.0000205     0.0010152    0.0004299 
   0.015153777     0.7117307   -0.6141414    -0.0001933    0.0001454     0.0001549   -0.0002757     0.0010649    0.0003362 
   0.015253802     0.6917601   -0.6060804    -0.0001383    0.0001269    -0.0000307    0.0000116     0.0010648    0.0002653 
   0.015353827     0.6851854   -0.6176740    -0.0000906    0.0003257     0.0001547    0.0001982     0.0011054    0.0003907 
   0.015453852     0.6880364   -0.6264111    -0.0004090   -0.0002041    -0.0001293   -0.0000150     0.0009639    0.0006642 
   0.015553877     0.6589166   -0.6427956    -0.0003850   -0.0000357     0.0001346   -0.0001065     0.0008422   -0.0000065 
   0.015653902     0.6450406   -0.6500612    -0.0002883    0.0003349     0.0000423    0.0000032     0.0003199    0.0003528 
   0.015753927     0.6292076   -0.6506761     0.0003135    0.0002781    -0.0000447   -0.0000661     0.0004199    0.0005468 
   0.015853952     0.6074455   -0.6694435     0.0005340    0.0001584     0.0000600    0.0000036     0.0005984    0.0009500 
   0.015953977     0.5954161   -0.6759759     0.0001607    0.0007139     0.0000780    0.0000313     0.0007313    0.0007197 
   0.016054002     0.5673758   -0.6696582     0.0000147    0.0004107     0.0001937    0.0000198     0.0012470    0.0004278 
   0.016154027     0.5448844   -0.6983305     0.0000267   -0.0004853    -0.0000282   -0.0000247     0.0003366    0.0001976 
   0.016254052     0.5127901   -0.6986153     0.0000243    0.0002814    -0.0000161    0.0000077     0.0005688    0.0003058 
   0.016354077     0.4759170   -0.6956064     0.0000551    0.0000868     0.0001622    0.0000785     0.0011331    0.0005458 
   0.016454102     0.4570267   -0.7108330     0.0003565   -0.0002294     0.0000086   -0.0001412     0.0006874    0.0003260 
   0.016554127     0.4161613   -0.7066936     0.0001217    0.0002741     0.0001394   -0.0000952     0.0001596    0.0004695 
   0.016654152     0.3816953   -0.7079517     0.0002721   -0.0001596    -0.0001385   -0.0000552     0.0010338    0.0003284 
   0.016754177     0.3331586   -0.7066132     0.0002260   -0.0002382    -0.0000043   -0.0000531     0.0009099    0.0003801 
   0.016854202     0.2814236   -0.6948099     0.0003521   -0.0000549     0.0001054   -0.0000332     0.0006848    0.0003873 
   0.016954227     0.2309967   -0.6945487     0.0001637    0.0001756     0.0000265   -0.0000698     0.0011340    0.0003553 
   0.017054252     0.1686733   -0.6612856    -0.0001026    0.0002769    -0.0000605    0.0000799     0.0007563   -0.0000142 
   0.017154277     0.1147889   -0.6234978     0.0000308   -0.0002801    -0.0000521   -0.0000419     0.0007689    0.0005163 
   0.017254302     0.0504633   -0.5782450     0.0003497    0.0000620     0.0000525   -0.0000439     0.0009427    0.0001985 
   0.017354327    -0.0071684   -0.5175743    -0.0001088    0.0001048    -0.0001286    0.0000020     0.0008871   -0.0001414 
   0.017454352    -0.0609905   -0.4305967     0.0004641    0.0005454     0.0000128   -0.0000011     0.0010774    0.0001100 
   0.017554377    -0.1001488   -0.3381467    -0.0002077    0.0001937    -0.0000547   -0.0000978     0.0006741    0.0002519 
   0.017654402    -0.1120656   -0.2267582     0.0001023    0.0001365    -0.0001663    0.0000778     0.0005798    0.0006153 
   0.017754427    -0.1034412   -0.1114479    -0.0006438    0.0001923    -0.0000808    0.0003222     0.0001143    0.0001088 
   0.017854452    -0.0685546   -0.0000713    -0.0000090   -0.0004420    -0.0000223   -0.0001541     0.0010649   -0.0001139 
   0.017954477    -0.0060201    0.1028783    -0.0004805    0.0008170    -0.0000747    0.0000134     0.0007825    0.0003169 
   0.018054502     0.0767035    0.1886366     0.0001121   -0.0000617     0.0003038    0.0003146     0.0006696    0.0000769 
   0.018154527     0.1694084    0.2442586     0.0006872    0.0004148    -0.0001107   -0.0004156     0.0005455    0.0001130 
   0.018254552     0.2656198    0.2848487    -0.0005634   -0.0006349    -0.0001635    0.0003610     0.0004924    0.0004590 
   0.018354577     0.3586491    0.2942613    -0.0007345   -0.0013374     0.0001357   -0.0002249     0.0006428    0.0004915 
   0.018454602     0.4424919    0.2902108     0.0002392   -0.0005542     0.0001516    0.0001761     0.0008640    0.0004573 
   0.018554627     0.5187697    0.2777715    -0.0010193    0.0005268    -0.0001172    0.0000461     0.0003103   -0.0000570 
   0.018654652     0.5930579    0.2523233    -0.0004002    0.0000134     0.0000937   -0.0002476     0.0004190    0.0004641 
   0.018754677     0.6398601    0.2250586    -0.0003385   -0.0000809    -0.0000958   -0.0001246     0.0005427    0.0006605 
   0.018854702     0.6853620    0.1927647     0.0003562    0.0006566     0.0002053    0.0002063     0.0011151    0.0003901 
   0.018954727     0.7254244    0.1656448    -0.0006253    0.0004315     0.0001556    0.0000678     0.0004667    0.0003249 
   0.019054752     0.7539657    0.1300706     0.0012333    0.0003891     0.0001426    0.0003493     0.0002754    0.0006232 
   0.019154777     0.7865859    0.1018519     0.0008838   -0.0001901    -0.0000584    0.0001851     0.0006380    0.0005697 
   0.019254802     0.8032985    0.0701797    -0.0003002    0.0002582     0.0000228    0.0002197     0.0007686    0.0004476 
   0.019354827     0.8189250    0.0339522     0.0002051   -0.0000409    -0.0000539   -0.0000578     0.0005526    0.0005412 
   0.019454852     0.8336361    0.0131176     0.0000053   -0.0001072    -0.0000862    0.0000561     0.0004567    0.0003230 
   0.019554877     0.8412004   -0.0161703    -0.0002520   -0.0005121    -0.0000598   -0.0001919     0.0006440    0.0000938 
   0.019654902     0.8620772   -0.0294182     0.0002885    0.0004224    -0.0000155   -0.0001151     0.0009242    0.0004563 
   0.019754927     0.8573517   -0.0597630    -0.0000942    0.0009500     0.0000383   -0.0001368     0.0004805    0.0007254 
   0.019854952     0.8674136   -0.0789574     0.0002259    0.0000800    -0.0000643   -0.0001021     0.0007763    0.0007537 
   0.019954977     0.8762580   -0.0975073    -0.0013969    0.0000139     0.0001214   -0.0001650     0.0005643    0.0003238 
   0.020055003     0.8814513   -0.1121758    -0.0008912    0.0008688     0.0001468   -0.0000947     0.0001625    0.0002585 
   0.020155028     0.8881345   -0.1370149     0.0002127   -0.0002963    -0.0000202   -0.0002796     0.0002143    0.0004470 
   0.020255053     0.8773226   -0.1476114     0.0001148    0.0007558     0.0001781   -0.0000294     0.0005769    0.0003887 
   0.020355078     0.8842822   -0.1630075     0.0001592   -0.0008222    -0.0000846    0.0002642     0.0000011    0.0003794 
   0.020455103     0.8900023   -0.1743907    -0.0002396    0.0007052    -0.0001030    0.0000368     0.0004144    0.0006846 
   0.020555128     0.8902450   -0.1997843    -0.0000440   -0.0001231     0.0001518    0.0001539     0.0009288    0.0003358 
   0.020655153     0.8869616   -0.2090049     0.0002534   -0.0002434     0.0000234   -0.0000699     0.0004384    0.0000875 
   0.020755178     0.8781577   -0.2331613     0.0002553   -0.0001633    -0.0002870   -0.0000161     0.0002757    0.0001424 
   0.020855203     0.8794140   -0.2243544    -0.0010002    0.0001222    -0.0000111    0.0000689     0.0005462    0.0003253 
   0.020955228     0.8756255   -0.2406294    -0.0005134   -0.0001367    -0.0000298    0.0001083     0.0006090    0.0000312 
   0.021055253     0.8707760   -0.2680458    -0.0004176    0.0007715    -0.0003466    0.0002410     0.0007688    0.0003714 
   0.021155278     0.8834856   -0.2727607    -0.0001831    0.0005107     0.0002566    0.0001841     0.0006943    0.0002393 
   0.021255303     0.8767139   -0.2783137    -0.0006274    0.0005289    -0.0002134   -0.0000453     0.0006032    0.0003981 
   0.021355328     0.8871445   -0.2844442    -0.0002103   -0.0006027    -0.0000971   -0.0001314     0.0007800    0.0011046 
   0.021455353     0.8666198   -0.3115687     0.0000885    0.0000902     0.0001653    0.0000009     0.0007237    0.0006232 
   0.021555378     0.8738087   -0.3102958     0.0000451    0.0004530    -0.0000199    0.0000313     0.0004715    0.0002749 
   0.021655403     0.8693503   -0.3227113     0.0002608    0.0001847    -0.0000902    0.0000406     0.0008583    0.0006339 
   0.021755428     0.8675511   -0.3258887     0.0002000    0.0002251     0.0000265    0.0000545     0.0011523   -0.0000474 
   0.021855453     0.8696434   -0.3407846    -0.0000485    0.0002061    -0.0000879    0.0000939     0.0010422    0.0006622 
   0.021955478     0.8583382   -0.3469434    -0.0007790   -0.0004570     0.0000226    0.0001877     0.0006515    0.0004914 
   0.022055503     0.8690520   -0.3537739    -0.0005707    0.0001495    -0.0000880    0.0001514     0.0006233    0.0003659 
   0.022155528     0.8666472   -0.3596046     0.0002410    0.0004516    -0.0000165   -0.0000550     0.0002706    0.0002287 
   0.022255553     0.8517643   -0.3699822     0.0001365   -0.0001268    -0.0000866   -0.0001495     0.0006566    0.0003769 
   0.022355578     0.8476751   -0.3677906     0.0003301    0.0000580    -0.0000763    0.0001893     0.0003372    0.0005107 
   0.022455603     0.8483396   -0.3953162     0.0004097   -0.0001391    -0.0000791    0.0001287    -0.0000501    0.0000741 
   0.022555628     0.8534150   -0.3916111     0.0001020   -0.0001907     0.0002291    0.0000994     0.0003485    0.0007073 
   0.022655653     0.8549423   -0.3914512     0.0007682   -0.0006133     0.0002143   -0.0000439     0.0003157    0.0002119 
   0.022755678     0.8333920   -0.4087495    -0.0002234   -0.0005949    -0.0000972    0.0000497     0.0002672    0.0003841 
   0.022855703     0.8394973   -0.4123956    -0.0000781    0.0000844    -0.0000088   -0.0001107     0.0006500    0.0006152 
   0.022955728     0.8349220   -0.4066209    -0.0004794   -0.0001893     0.0000192    0.0000516     0.0007695    0.0007100 
   0.023055753     0.8366938   -0.4228318     0.0001266   -0.0003248     0.0001219    0.0000046     0.0007044    0.0001730 
   0.023155778     0.8367304   -0.4313093     0.0004237    0.0001361     0.0001132   -0.0001484     0.0004775    0.0000580 
   0.023255803     0.8231795   -0.4359292    -0.0001375    0.0003475     0.0000348    0.0000471     0.0007895    0.0005657 
   0.023355828     0.8201528   -0.4395167    -0.0004153   -0.0001788    -0.0000488    0.0001330     0.0005335    0.0000647 
   0.023455853     0.8210132   -0.4487691    -0.0003805    0.0001382    -0.0000238   -0.0001674     0.0007798    0.0004537 
   0.023555878     0.8162298   -0.4557168    -0.0006541   -0.0000513    -0.0000842   -0.0001142     0.0002630    0.0006691 
   0.023655903     0.8091385   -0.4602810     0.0002053    0.0001230     0.0000643   -0.0000218     0.0007828    0.0007190 
   0.023755928     0.8120005   -0.4647184     0.0000837   -0.0002416     0.0002242   -0.0000470     0.0003893    0.0005892 
   0.023855953     0.8029535   -0.4676132     0.0001173    0.0001792    -0.0000388   -0.0000523     0.0003434    0.0004445 
   0.023955978     0.8049043   -0.4775963    -0.0001867    0.0004357    -0.0000557    0.0000039     0.0006248    0.0008644 
   0.024056003     0.8109275   -0.4792694     0.0002666    0.0001615     0.0000717    0.0000123     0.0005722    0.0007624 
   0.024156028     0.7989301   -0.4867537     0.0001815    0.0001352    -0.0000223   -0.0000704     0.0005799    0.0009240 
   0.024256053     0.7982126   -0.4910486    -0.0003178    0.0000286    -0.0000591    0.0000404     0.0002341    0.0000470 
   0.024356078     0.7892007   -0.4975783    -0.0003188   -0.0000192     0.0001922    0.0000601     0.0005752    0.0002876 
   0.024456103     0.7807583   -0.4941010    -0.0001652   -0.0003255    -0.0000597   -0.0001809     0.0006233    0.0006824 
   0.024556128     0.7988246   -0.5046292     0.0000305    0.0005653     0.0000149   -0.0000377     0.0005952    0.0001496 
   0.024656153     0.7852072   -0.5109708    -0.0001575    0.0001390     0.0000598    0.0000665     0.0005054    0.0009812 
   0.024756178     0.7848228   -0.5153670     0.0003726    0.0002108    -0.0000923    0.0002133     0.0007437    0.0005870 
   0.024856203     0.7833510   -0.5215282     0.0004820   -0.0004503    -0.0001254    0.0001950     0.0008213   -0.0000248 
   0.024956228     0.7801781   -0.5177785     0.0000323   -0.0005538    -0.0000615   -0.0000265     0.0006302    0.0006169 
   0.025056253     0.7658116   -0.5287411    -0.0001559   -0.0000110     0.0000875   -0.0000935     0.0004156    0.0005697 
   0.025156278     0.7725671   -0.5306574     0.0003294   -0.0000754    -0.0000674   -0.0000282     0.0007678    0.0004836 
   0.025256303     0.7614503   -0.5305462    -0.0002822   -0.0001817     0.0000213   -0.0000520     0.0004314    0.0008362 
   0.025356328     0.7697326   -0.5444047    -0.0002757   -0.0005134     0.0001453   -0.0001945     0.0010189    0.0002519 
   0.025456353     0.7592746   -0.5479313     0.0004633    0.0001240    -0.0000386    0.0000888     0.0005770    0.0004653 
   0.025556378     0.7534107   -0.5562604    -0.0006998    0.0003638    -0.0000407   -0.0000233     0.0008161    0.0005374 
   0.025656403     0.7538400   -0.5594333    -0.0000232   -0.0000053    -0.0001083   -0.0000278     0.0004223    0.0006374 
   0.025756428     0.7513367   -0.5675009     0.0000530   -0.0000877     0.0000974    0.0000078    -0.0000344    0.0004249 
   0.025856453     0.7472631   -0.5662178     0.0000287   -0.0001657    -0.0002523    0.0001334     0.0005341    0.0008936 
   0.025956478     0.7434481   -0.5681266    -0.0000099   -0.0002664     0.0001275   -0.0000503     0.0006281    0.0006670 
   0.026056503     0.7315056   -0.5705669     0.0002423    0.0000452     0.0000663   -0.0000024     0.0006252    0.0007336 
   0.026156528     0.7270868   -0.5783285    -0.0000058   -0.0004897     0.0000075   -0.0000305     0.0005739    0.0003683 
   0.026256553     0.7312342   -0.5795653     0.0002090    0.0002146    -0.0001269   -0.0000406    -0.0000015    0.0005825 
   0.026356578     0.7283649   -0.5936034     0.0002686   -0.0003326     0.0000029    0.0000591     0.0002220    0.0001776 
   0.026456603     0.7139012   -0.5976661     0.0000900   -0.0001227    -0.0000095   -0.0000742     0.0002080    0.0003165 
   0.026556628     0.7154946   -0.5984570     0.0001516    0.0001145     0.0001268    0.0000402     0.0000698    0.0006985 
   0.026656653     0.7075868   -0.6025295    -0.0002662    0.0003154    -0.0000003    0.0000186     0.0004696    0.0003880 
   0.026756678     0.7051198   -0.6057994     0.0001511    0.0001185    -0.0000283    0.0000333     0.0008218    0.0000390 
   0.026856703     0.7023374   -0.6150299    -0.0002618   -0.0001023     0.0000497   -0.0000422     0.0004860    0.0004429 
   0.026956728     0.7011478   -0.6121424     0.0003677    0.0000017     0.0000108   -0.0000580     0.0005819    0.0006433 
   0.027056753     0.6946144   -0.6215736    -0.0002656    0.0000347    -0.0000807    0.0000428     0.0002170    0.0010539 
   0.027156778     0.6871713   -0.6234421     0.0001088   -0.0000948     0.0000436   -0.0000505     0.0004192    0.0006615 
   0.027256803     0.6832779   -0.6192561     0.0001433    0.0000166    -0.0000696   -0.0000311     0.0003283    0.0001665 
   0.027356828     0.6828672   -0.6316153     0.0004121   -0.0001558     0.0000650   -0.0000380     0.0004951    0.0004018 
   0.027456853     0.6695341   -0.6427535     0.0000243    0.0000333     0.0000057    0.0000207     0.0007444    0.0002333 
   0.027556878     0.6698189   -0.6365595     0.0002239    0.0003112     0.0000751   -0.0000246     0.0007180    0.0001886 
   0.027656903     0.6714277   -0.6467326     0.0002075    0.0000746    -0.0000316   -0.0000332     0.0004812    0.0004386 
   0.027756928     0.6597357   -0.6463858     0.0000500   -0.0002748     0.0000175    0.0000760     0.0005071    0.0002740 
   0.027856953     0.6555254   -0.6538442     0.0001770    0.0003451    -0.0000248    0.0000374     0.0006585    0.0002298 
   0.027956978     0.6503477   -0.6520816    -0.0000110    0.0000703     0.0000660   -0.0000016     0.0002634    0.0002450 
   0.028057004     0.6443146   -0.6552129     0.0002001   -0.0004150     0.0000091    0.0000616     0.0005911    0.0007206 
   0.028157029     0.6375324   -0.6668826    -0.0000812    0.0000687    -0.0000696    0.0000635     0.0002541    0.0003390 
   0.028257054     0.6310341   -0.6671062     0.0001874    0.0001939     0.0000748    0.0001087     0.0006425    0.0003254 
   0.028357079     0.6217332   -0.6690520     0.0001000    0.0002315     0.0000406    0.0000070     0.0000271    0.0004683 
   0.028457104     0.6203541   -0.6753925     0.0001562   -0.0000529     0.0000424   -0.0000381     0.0003791    0.0006985 
   0.028557129     0.6139912   -0.6846057    -0.0001447    0.0001760    -0.0000416    0.0000168     0.0011378    0.0003122 
   0.028657154     0.6172764   -0.6831330    -0.0000660   -0.0001233    -0.0000331    0.0000040     0.0002727    0.0007887 
   0.028757179     0.6107499   -0.6862082    -0.0000261   -0.0001658     0.0000755    0.0000345     0.0007927    0.0007564 
   0.028857204     0.6025561   -0.6912189    -0.0002747    0.0000680     0.0000075    0.0000559     0.0004880    0.0003001 
   0.028957229     0.5891685   -0.6942396     0.0003461    0.0002158    -0.0001149    0.0000378     0.0001027    0.0002516 
   0.029057254     0.5925210   -0.7037634    -0.0003251    0.0000319     0.0000097   -0.0000220     0.0003988    0.0008535 
   0.029157279     0.5797168   -0.7054217     0.0001543   -0.0000055     0.0000436    0.0000328     0.0004270    0.0005400 
   0.029257304     0.5723234   -0.7138574     0.0001087    0.0000769     0.0000128    0.0000073     0.0005809    0.0011338 
   0.029357329     0.5630705   -0.7087100    -0.0000409    0.0001068    -0.0000475   -0.0000847     0.0004253    0.0005654 
   0.029457354     0.5626401   -0.7166868     0.0000220   -0.0001066    -0.0000025   -0.0000093     0.0001739    0.0005985 
   0.029557379     0.5494854   -0.7251052     0.0000793   -0.0000037    -0.0000082    0.0001221     0.0000951    0.0002216 
   0.029657404     0.5469446   -0.7273173     0.0001733    0.0002037    -0.0000086    0.0000099     0.0006906    0.0002858 
   0.029757429     0.5373238   -0.7310579    -0.0000972   -0.0002403    -0.0000928    0.0001368     0.0001935    0.0009159 
   0.029857454     0.5246077   -0.7306383     0.0002028   -0.0002097    -0.0000246    0.0000782     0.0005368    0.0004554 
   0.029957479     0.5272198   -0.7315750     0.0000979    0.0000078    -0.0000943    0.0000086     0.0001032    0.0004550 
   0.030057504     0.5145626   -0.7399970     0.0002155    0.0001604    -0.0000625   -0.0001088     0.0003861    0.0005182 
   0.030157529     0.5112988   -0.7378277    -0.0000697    0.0000846     0.0000715   -0.0001092     0.0001475   -0.0000458 
   0.030257554     0.5020218   -0.7400057     0.0000572    0.0002498     0.0000110   -0.0000961     0.0003538    0.0005767 
   0.030357579     0.4988123   -0.7418032     0.0002229   -0.0000849    -0.0000033    0.0000181    -0.0001438    0.0008482 
   0.030457604     0.4884574   -0.7540412    -0.0000455   -0.0000229     0.0000459    0.0000375     0.0008436    0.0008074 
   0.030557629     0.4773707   -0.7538884     0.0001982   -0.0002546     0.0000422   -0.0001310     0.0003394    0.0005222 
   0.030657654     0.4666950   -0.7598004     0.0000378   -0.0001718     0.0000681    0.0000607     0.0006946    0.0002341 
   0.030757679     0.4574261   -0.7614560     0.0001197   -0.0000318    -0.0000034    0.0001125     0.0004671    0.0001943 
   0.030857704     0.4496419   -0.7645539    -0.0000609   -0.0003406     0.0000167    0.0000321     0.0004121    0.0004319 
   0.030957729     0.4459549   -0.7739602    -0.0000030    0.0002422     0.0000189    0.0000402     0.0003755    0.0006636 
   0.031057754     0.4309530   -0.7717603     0.0000811   -0.0001511    -0.0000007   -0.0001217     0.0007581    0.0008914 
   0.031157779     0.4249900   -0.7827188    -0.0003824    0.0001602     0.0000942   -0.0000137     0.0001239    0.0007647 
   0.031257804     0.4078413   -0.7782235     0.0000245   -0.0005844    -0.0001030   -0.0000829     0.0009792    0.0006785 
   0.031357829     0.4042163   -0.7850531    -0.0002694   -0.0001332     0.0000631   -0.0000313     0.0000126    0.0008341 
   0.031457854     0.3882991   -0.7789816     0.0000504    0.0001497     0.0000975   -0.0000209     0.0005112    0.0003681 
   0.031557879     0.3782750   -0.7885919     0.0000865   -0.0000076    -0.0001570   -0.0000661     0.0003159    0.0005864 
   0.031657904     0.3638137   -0.7855678    -0.0003530    0.0003978    -0.0000284   -0.0000226     0.0005759    0.0006543 
   0.031757929     0.3564520   -0.7913395    -0.0000884    0.0004077    -0.0000462    0.0000200     0.0001945    0.0008909 
   0.031857954     0.3379876   -0.7933599     0.0001034   -0.0001971    -0.0000278    0.0000526     0.0004265    0.0004304 
   0.031957979     0.3343747   -0.7960554     0.0000612   -0.0000611     0.0000412   -0.0000167     0.0004658    0.0006455 
   0.032058004     0.3262734   -0.7973309     0.0000614    0.0001347    -0.0000466   -0.0001249     0.0003205   -0.0003782 
   0.032158029     0.3059675   -0.8006543    -0.0001258    0.0001185    -0.0000176    0.0000454     0.0007602    0.0002551 
   0.032258054     0.2946289   -0.8029029     0.0002037    0.0002257    -0.0000031   -0.0000016     0.0003883    0.0003869 
   0.032358079     0.2807163   -0.7982736    -0.0000098    0.0003866     0.0001539   -0.0000918     0.0002194    0.0006067 
   0.032458104     0.2664087   -0.8068850    -0.0001380   -0.0001417     0.0000978   -0.0001965     0.0002949   -0.0001541 
   0.032558129     0.2515591   -0.7944757     0.0001885    0.0002478     0.0000444    0.0000071     0.0003065    0.0002101 
   0.032658154     0.2306419   -0.8007345     0.0002991    0.0001505     0.0000487    0.0000639     0.0002410    0.0007303 
   0.032758179     0.2166555   -0.8043976     0.0001797    0.0000140     0.0000059    0.0001090     0.0008182    0.0006038 
   0.032858204     0.2016010   -0.7996185     0.0004949   -0.0001574    -0.0000174   -0.0000666     0.0003518    0.0002454 
   0.032958229     0.1878830   -0.8017420     0.0003760   -0.0001108     0.0000865   -0.0000242    -0.0000056    0.0006712 
   0.033058254     0.1671663   -0.7984904    -0.0006879    0.0002890    -0.0000820   -0.0000960     0.0000262    0.0003378 
   0.033158279     0.1434924   -0.7925724    -0.0000262    0.0001869     0.0000281   -0.0001538     0.0006216    0.0007622 
   0.033258304     0.1274848   -0.7918214     0.0002024   -0.0005575    -0.0000584   -0.0001261     0.0001866    0.0005012 
   0.033358329     0.1082888   -0.7868686     0.0003187   -0.0002420    -0.0000280   -0.0000843     0.0005086    0.0006277 
   0.033458354     0.0898375   -0.7814763    -0.0002376    0.0003544    -0.0000924   -0.0001951     0.0005481    0.0008698 
   0.033558379     0.0627623   -0.7829432     0.0002941   -0.0002383    -0.0000282    0.0000163     0.0005510    0.0007197 
   0.033658404     0.0443610   -0.7708511     0.0001500    0.0003521    -0.0000079   -0.0000231     0.0004580    0.0006953 
   0.033758429     0.0229822   -0.7665868     0.0000783   -0.0000969    -0.0000584    0.0000984     0.0001675    0.0004428 
   0.033858454     0.0002294   -0.7582775    -0.0000410   -0.0001730    -0.0001215   -0.0000432     0.0006295    0.0007726 
   0.033958479    -0.0217239   -0.7528735    -0.0003489   -0.0004824    -0.0000996    0.0000110     0.0005230    0.0005197 
   0.034058504    -0.0359593   -0.7350981    -0.0001897    0.0001315     0.0001233    0.0000784    -0.0000048    0.0000940 
   0.034158529    -0.0684628   -0.7268414    -0.0000480   -0.0000175    -0.0000353    0.0000436     0.0008488    0.0005257 
   0.034258554    -0.0918010   -0.7092833    -0.0002314   -0.0000238    -0.0000542    0.0000010     0.0004575    0.0003877 
   0.034358579    -0.1153074   -0.6928353    -0.0003780   -0.0000278     0.0000409   -0.0000374     0.0005018    0.0002603 
   0.034458604    -0.1408133   -0.6867478     0.0004063    0.0003526    -0.0001352    0.0001931     0.0007675    0.0003211 
   0.034558629    -0.1623083   -0.6637887    -0.0002210    0.0001144    -0.0000726    0.0000213     0.0002520    0.0008012 
   0.034658654    -0.1888630   -0.6425405     0.0005326    0.0004611    -0.0000979   -0.0000471     0.0005413    0.0005231 
   0.034758679    -0.2149345   -0.6215085    -0.0005503   -0.0000201    -0.0000990    0.0000749     0.0003544    0.0007777 
   0.034858704    -0.2402605   -0.5918172    -0.0003115    0.0000614     0.0000031    0.0001148     0.0003934    0.0005934 
   0.034958729    -0.2526658   -0.5625171    -0.0000962    0.0002996     0.0001179    0.0000464     0.0008542    0.0002168 
   0.035058754    -0.2881112   -0.5324016    -0.0002292   -0.0000039    -0.0001258    0.0001352     0.0006494    0.0002224 
   0.035158779    -0.3034452   -0.5048157     0.0009540    0.0005314    -0.0001880   -0.0000302     0.0000725    0.0006745 
   0.035258804    -0.3305246   -0.4598675    -0.0000340   -0.0001248    -0.0002932    0.0000993     0.0002682    0.0003611 
   0.035358829    -0.3466787   -0.4177612     0.0002289    0.0005041    -0.0000557    0.0001564     0.0001619    0.0009840 
   0.035458854    -0.3646317   -0.3753185    -0.0000425    0.0007086    -0.0000622    0.0000640    -0.0000869    0.0000241 
   0.035558879    -0.3754590   -0.3352821    -0.0000832    0.0007142    -0.0001369    0.0001767     0.0006746    0.0003148 
   0.035658904    -0.3899882   -0.2766409     0.0003786    0.0003600     0.0000604    0.0000990     0.0001523    0.0009615 
   0.035758929    -0.4004239   -0.2236959     0.0007187    0.0009877    -0.0001011    0.0003842     0.0007131    0.0003513 
   0.035858954    -0.4040599   -0.1743460     0.0006420    0.0003800     0.0000502    0.0000061     0.0005120    0.0004644 
   0.035958979    -0.3949656   -0.1145378     0.0004012   -0.0006782    -0.0000511   -0.0000794     0.0003817    0.0000204 
   0.036059005    -0.3888478   -0.0594275     0.0008039    0.0000324     0.0001168   -0.0000695     0.0001513    0.0004658 
   0.036159030    -0.3784546    0.0049870     0.0000849   -0.0001244     0.0000478    0.0000998    -0.0002562    0.0003027 
   0.036259055    -0.3567337    0.0588211    -0.0004217   -0.0011555    -0.0000368   -0.0001211     0.0004292   -0.0001989 
   0.036359080    -0.3248015    0.1171356    -0.0007136   -0.0005074     0.0000475    0.0000537     0.0009001    0.0004913 
   0.036459105    -0.2906235    0.1752566    -0.0001414   -0.0003234     0.0002684   -0.0002355     0.0000957    0.0005991 
   0.036559130    -0.2556951    0.2259091    -0.0006660   -0.0001056     0.0000961   -0.0000258     0.0000640    0.0006664 
   0.036659155    -0.2083623    0.2776214     0.0009955    0.0006308    -0.0000630    0.0001517     0.0000563    0.0007671 
   0.036759180    -0.1583104    0.3183807    -0.0000093    0.0003499    -0.0001120   -0.0001656     0.0005762    0.0002333 
   0.036859205    -0.1009104    0.3539920     0.0000950   -0.0006009     0.0004516   -0.0002392    -0.0003343    0.0001419 
   0.036959230    -0.0446711    0.3894937    -0.0003366   -0.0007737    -0.0001844   -0.0000072     0.0000566    0.0001491 
   0.037059255     0.0156026    0.4108131    -0.0001677   -0.0005276     0.0003053   -0.0000380     0.0005156   -0.0000510 
   0.037159280     0.0694446    0.4330853    -0.0001217    0.0002905    -0.0001972   -0.0001829     0.0008452    0.0007437 
   0.037259305     0.1326101    0.4369903    -0.0007989   -0.0000717    -0.0000851   -0.0002009     0.0004283    0.0002160 
   0.037359330     0.1934893    0.4488783    -0.0005843    0.0007906     0.0002195    0.0001616     0.0000734    0.0002068 
   0.037459355     0.2541250    0.4494832    -0.0000321    0.0006947     0.0000735    0.0000713     0.0006104    0.0004361 
   0.037559380     0.3099199    0.4384064     0.0006267    0.0000644     0.0003229   -0.0000628     0.0003016    0.0004526 
   0.037659405     0.3602251    0.4313479    -0.0002791    0.0001467     0.0001675    0.0001453    -0.0000157    0.0001753 
   0.037759430     0.4083826    0.4111726     0.0004687   -0.0000649     0.0000022    0.0001236     0.0007896    0.0003707 
   0.037859455     0.4630974    0.4002273    -0.0000452   -0.0001280    -0.0001013    0.0000698     0.0003185    0.0004086 
   0.037959480     0.5052512    0.3729637     0.0005682    0.0001773    -0.0000095    0.0001034    -0.0000090    0.0006336 
   0.038059505     0.5456778    0.3568744    -0.0001365   -0.0000813    -0.0000382    0.0000561     0.0004071    0.0002847 
   0.038159530     0.5848821    0.3262074    -0.0000081    0.0001621     0.0000864   -0.0001026    -0.0000388    0.0001999 
   0.038259555     0.6163817    0.3006562     0.0003156   -0.0001454     0.0001662    0.0000788     0.0008247    0.0007017 
   0.038359580     0.6469682    0.2748047     0.0000445   -0.0000939     0.0001030   -0.0000718     0.0006708    0.0005290 
   0.038459605     0.6738634    0.2443566    -0.0002443    0.0000121     0.0001203   -0.0000275     0.0004737    0.0004455 
   0.038559630     0.7010369    0.2182247     0.0001007   -0.0004179     0.0000398    0.0000400    -0.0003208    0.0002495 
   0.038659655     0.7214374    0.1877497     0.0001432    0.0003074     0.0000402   -0.0000354     0.0005331    0.0001735 
   0.038759680     0.7410006    0.1617270     0.0003173    0.0000403    -0.0000865   -0.0000979     0.0005598    0.0001564 
   0.038859705     0.7561176    0.1285927    -0.0002037   -0.0005875     0.0000363   -0.0001294     0.0004341    0.0005324 
   0.038959730     0.7754210    0.1015048     0.0004064    0.0000609    -0.0000932    0.0001396     0.0002239    0.0004559 
   0.039059755     0.7884535    0.0780181    -0.0003246    0.0001138    -0.0000677   -0.0000083     0.0007702    0.0005273 
   0.039159780     0.7963849    0.0500029     0.0001592    0.0004765    -0.0000152   -0.0000983     0.0000539    0.0003585 
   0.039259805     0.8038143    0.0238550     0.0000842   -0.0001730    -0.0000624   -0.0000559     0.0007704   -0.0000115 
   0.039359830     0.8133106   -0.0045480     0.0000759   -0.0000911    -0.0000681   -0.0000651     0.0003821    0.0003718 
   0.039459855     0.8157810   -0.0273940    -0.0000337    0.0001084     0.0000345    0.0000370     0.0005773    0.0003057 
   0.039559880     0.8236449   -0.0532177     0.0001258   -0.0000805     0.0000167    0.0000165     0.0004644    0.0003429 
   0.039659905     0.8289112   -0.0743291     0.0002854   -0.0000358     0.0001059    0.0001148    -0.0002258    0.0003991 
   0.039759930     0.8323357   -0.0976988     0.0001148    0.0002075     0.0000440    0.0000709     0.0001761    0.0001046 
   0.039859955     0.8339943   -0.1175932    -0.0000323    0.0000278    -0.0000191   -0.0000108     0.0005040    0.0000620 
   0.039959980     0.8347121   -0.1420565    -0.0000094    0.0000836    -0.0000049   -0.0000518     0.0003799    0.0001748 
   0.040060005     0.8369069   -0.1582602    -0.0002824   -0.0000999    -0.0000567    0.0001076     0.0005929    0.0003267 
   0.040160030     0.8355659   -0.1800217    -0.0002190   -0.0001209     0.0000342   -0.0000020     0.0004611    0.0005124 
   0.040260055     0.8368191   -0.1958737    -0.0001866    0.0000577    -0.0000574   -0.0000610     0.0005542    0.0008916 
   0.040360080     0.8308366   -0.2186858    -0.0002311   -0.0000353    -0.0000711   -0.0000873     0.0000541    0.0008319 
   0.040460105     0.8304902   -0.2358847    -0.0000923    0.0002605    -0.0000279   -0.0000583     0.0001587    0.0007005 
   0.040560130     0.8319373   -0.2520259     0.0000891    0.0002055     0.0000874    0.0000086     0.0004233    0.0002509 
   0.040660155     0.8324620   -0.2666229     0.0000279    0.0001003    -0.0000086   -0.0000104     0.0003754    0.0002740 
   0.040760180     0.8214183   -0.2845817    -0.0000336    0.0000484     0.0000791   -0.0000266     0.0002751    0.0004667 
   0.040860205     0.8167545   -0.3003983    -0.0001257    0.0001345    -0.0000444   -0.0000331     0.0003297    0.0008247 
   0.040960230     0.8197946   -0.3171825    -0.0000838    0.0003044    -0.0000234   -0.0000248     0.0007587    0.0006245 
   0.041060255     0.8162513   -0.3288526    -0.0001913    0.0001831    -0.0000508    0.0000948     0.0001366    0.0002930 
   0.041160280     0.8105382   -0.3456616     0.0001871   -0.0000040    -0.0000670   -0.0000033    -0.0003123    0.0006991 
   0.041260305     0.8080502   -0.3532467    -0.0001521    0.0004243    -0.0000386   -0.0000625     0.0002971    0.0005291 
   0.041360330     0.8030570   -0.3714395    -0.0002527    0.0002108    -0.0000142    0.0000549     0.0005220    0.0001610 
   0.041460355     0.7948979   -0.3809066     0.0001306    0.0000471     0.0000667   -0.0000306     0.0003455    0.0004182 
   0.041560380     0.7894322   -0.3919435     0.0000329    0.0003151     0.0000764   -0.0000057     0.0006890    0.0001827 
   0.041660405     0.7870975   -0.4082861    -0.0000536   -0.0003941    -0.0000968   -0.0000149     0.0001422    0.0003880 
   0.041760430     0.7824683   -0.4188284     0.0000303   -0.0000445     0.0000196    0.0000120     0.0005112    0.0005889 
   0.041860455     0.7771177   -0.4350114     0.0001956    0.0003130    -0.0000405   -0.0000830     0.0002689    0.0000227 
   0.041960480     0.7736583   -0.4433039     0.0000496   -0.0004784    -0.0000734    0.0000167     0.0001425    0.0002839 
   0.042060505     0.7672191   -0.4517778     0.0002929    0.0001985     0.0001072    0.0000801     0.0001499    0.0006704 
   0.042160530     0.7590367   -0.4602708     0.0003180    0.0003247    -0.0000109   -0.0000552     0.0002212    0.0002972 
   0.042260555     0.7542332   -0.4787707     0.0000938    0.0004060    -0.0000851   -0.0001355    -0.0000048    0.0010172 
   0.042360580     0.7463188   -0.4818817     0.0005167    0.0001088    -0.0000317   -0.0000580     0.0003651   -0.0000802 
   0.042460605     0.7460457   -0.4931420    -0.0003294   -0.0000170    -0.0000957    0.0000035    -0.0000227    0.0005699 
   0.042560630     0.7368168   -0.5004176     0.0002407    0.0000977    -0.0000050   -0.0000740     0.0001731    0.0009206 
   0.042660655     0.7320140   -0.5059602    -0.0000304   -0.0000664     0.0000391   -0.0000314     0.0004097    0.0001276 
   0.042760680     0.7227570   -0.5126239    -0.0001280    0.0003551     0.0000319   -0.0000469     0.0003158    0.0003740 
   0.042860705     0.7180154   -0.5327250    -0.0000822   -0.0000445    -0.0000387    0.0001565     0.0004874    0.0002679 
   0.042960730     0.7096424   -0.5358487     0.0000959   -0.0002730    -0.0000902   -0.0001995     0.0001844    0.0007509 
   0.043060755     0.7110022   -0.5445716    -0.0003262    0.0003886    -0.0001833    0.0000430     0.0000148    0.0002390 
   0.043160780     0.6979212   -0.5524308     0.0002069   -0.0001422    -0.0000098   -0.0001145     0.0003655    0.0004644 
   0.043260805     0.6988161   -0.5645591     0.0003933    0.0000534     0.0001653    0.0000793     0.0000234    0.0003714 
   0.043360830     0.6898113   -0.5694920     0.0002266   -0.0001768    -0.0000127    0.0000168     0.0002143    0.0005309 
   0.043460855     0.6827283   -0.5730085     0.0001429    0.0001133    -0.0000105   -0.0000393     0.0004518   -0.0001428 
   0.043560880     0.6822349   -0.5829872     0.0002881   -0.0002476     0.0001078   -0.0000276     0.0001794    0.0007448 
   0.043660905     0.6712502   -0.5862258     0.0004215   -0.0006228     0.0000927   -0.0000264     0.0003501    0.0005110 
   0.043760930     0.6630054   -0.6021584     0.0002470   -0.0001097     0.0001576    0.0000286     0.0002998    0.0002461 
   0.043860955     0.6578947   -0.6018009     0.0000370    0.0001371     0.0001349   -0.0001737    -0.0004445    0.0000494 
   0.043960980     0.6477287   -0.6067588    -0.0001918    0.0004446    -0.0000145    0.0002225     0.0001568    0.0002746 
   0.044061006     0.6459396   -0.6094854    -0.0003959    0.0003842     0.0000419   -0.0000515     0.0010541    0.0000891 
   0.044161031     0.6362205   -0.6304116     0.0001867    0.0003511    -0.0000264    0.0001982    -0.0000632    0.0004783 
   0.044261056     0.6345482   -0.6302090    -0.0000425   -0.0001335     0.0000097    0.0001734    -0.0003548   -0.0001634 
   0.044361081     0.6249853   -0.6283419    -0.0004420    0.0001900     0.0000879    0.0000529     0.0003923    0.0005013 
   0.044461106     0.6180898   -0.6384140    -0.0000769   -0.0002938    -0.0001019   -0.0000229     0.0004652    0.0006671 
   0.044561131     0.6122215   -0.6448572     0.0000306    0.0005475    -0.0000921   -0.0000428     0.0006036    0.0005004 
   0.044661156     0.6029780   -0.6561176     0.0003942   -0.0005733     0.0001498    0.0000004     0.0003081    0.0005347 
   0.044761181     0.5999377   -0.6588060    -0.0003395   -0.0001689     0.0000710   -0.0000662     0.0004350   -0.0000182 
   0.044861206     0.5922694   -0.6621421    -0.0000621    0.0002678     0.0000909    0.0000009     0.0003905    0.0006102 
   0.044961231     0.5795496   -0.6714734     0.0002579   -0.0001157    -0.0002750   -0.0000738    -0.0001486    0.0003620 
   0.045061256     0.5744635   -0.6770251     0.0000285    0.0001258     0.0000646   -0.0000081    -0.0000304    0.0005836 
   0.045161281     0.5685375   -0.6725832     0.0002252   -0.0001888     0.0001782   -0.0001317     0.0005540    0.0004927 
   0.045261306     0.5563555   -0.6751043     0.0003495    0.0001940     0.0000101   -0.0000933     0.0003813   -0.0001998 
   0.045361331     0.5525474   -0.6916478    -0.0001597    0.0001692     0.0000310   -0.0000257     0.0005021    0.0007698 
   0.045461356     0.5412418   -0.6867576    -0.0008512   -0.0004561     0.0000087    0.0002212     0.0007337   -0.0002715 
   0.045561381     0.5463367   -0.7007557    -0.0004743    0.0002066     0.0002888   -0.0001692    -0.0001208    0.0005286 
   0.045661406     0.5297558   -0.7039078    -0.0002861   -0.0005893    -0.0001510    0.0000313     0.0005042    0.0006084 
   0.045761431     0.5325260   -0.7123480     0.0000650    0.0005379    -0.0000719    0.0000685     0.0002496    0.0001457 
   0.045861456     0.5164884   -0.7069897     0.0004967    0.0001330     0.0000290   -0.0000994     0.0000913    0.0005738 
   0.045961481     0.5034732   -0.7171850    -0.0001420   -0.0001555     0.0000035    0.0000163     0.0001136    0.0007274 
   0.046061506     0.5016243   -0.7215969    -0.0000899   -0.0000876     0.0000720    0.0000523     0.0005239   -0.0000468 
   0.046161531     0.4932508   -0.7290651     0.0002247    0.0004879     0.0001983    0.0001619     0.0000568   -0.0000560 
   0.046261556     0.4844548   -0.7325992    -0.0003264   -0.0003247     0.0001031    0.0000505    -0.0003784    0.0001671 
   0.046361581     0.4804295   -0.7309087     0.0005195    0.0003081    -0.0001497   -0.0001100     0.0003342    0.0001852 
   0.046461606     0.4686728   -0.7465013     0.0003951    0.0000466     0.0002189    0.0000328     0.0004891    0.0004556 
   0.046561631     0.4521679   -0.7378433     0.0007025    0.0001842     0.0000254   -0.0000872    -0.0002423    0.0004614 
   0.046661656     0.4482359   -0.7494515    -0.0005486   -0.0003308    -0.0000289   -0.0001134     0.0002920    0.0003764 
   0.046761681     0.4450345   -0.7475618    -0.0010242    0.0001295    -0.0001345    0.0002252    -0.0002600    0.0002832 
   0.046861706     0.4345800   -0.7525484    -0.0000483   -0.0001444    -0.0000259   -0.0000195     0.0004548    0.0001030 
   0.046961731     0.4342797   -0.7515275     0.0000912    0.0010466     0.0002453   -0.0001830     0.0004183    0.0004084 
   0.047061756     0.4269422   -0.7580076     0.0000113    0.0003645    -0.0002605   -0.0001855     0.0001721    0.0006886 
   0.047161781     0.4182299   -0.7685542    -0.0000165    0.0000641     0.0002139    0.0000636     0.0004908    0.0002907 
   0.047261806     0.4010600   -0.7642022     0.0001419    0.0001320     0.0002968    0.0001224    -0.0000842    0.0001833 
   0.047361831     0.3994544   -0.7675561     0.0000291   -0.0002063     0.0000206    0.0002092     0.0003642    0.0003231 
   0.047461856     0.3885875   -0.7612161     0.0000043    0.0003957    -0.0000610    0.0000027     0.0001569    0.0000693 
   0.047561881     0.3847166   -0.7795284     0.0001899   -0.0004440     0.0000049    0.0001438     0.0002001    0.0001636 
   0.047661906     0.3714726   -0.7729955    -0.0000964   -0.0005014    -0.0002335   -0.0002015     0.0006888    0.0002962 
   0.047761931     0.3569551   -0.7771979     0.0000526    0.0002339     0.0000096    0.0001148     0.0007750    0.0006557 
   0.047861956     0.3614661   -0.7849122     0.0003637    0.0002693    -0.0001033    0.0001463     0.0001421    0.0006074 
   0.047961981     0.3305903   -0.7804040     0.0006251    0.0005633    -0.0000424    0.0000019     0.0004011    0.0003140 
   0.048062006     0.3260687   -0.7912632     0.0006846   -0.0009849     0.0000531    0.0001805     0.0003645    0.0000320 
   0.048162031     0.3252181   -0.7804673    -0.0001979    0.0006152     0.0001136    0.0000550     0.0001687    0.0003881 
   0.048262056     0.3101173   -0.7941968    -0.0000404    0.0011585     0.0000265   -0.0001525     0.0001792    0.0001840 
   0.048362081     0.2982675   -0.7903653    -0.0005990   -0.0005786     0.0000955    0.0000144     0.0001003    0.0003354 
   0.048462106     0.2935626   -0.7905185    -0.0001075   -0.0000915     0.0001153    0.0001475     0.0006084    0.0006646 
   0.048562131     0.2853804   -0.7991005    -0.0000325    0.0003474     0.0000216    0.0001523    -0.0000472   -0.0001528 
   0.048662156     0.2752292   -0.7981129    -0.0006321   -0.0007810     0.0001542    0.0001202     0.0005155    0.0001643 
   0.048762181     0.2668021   -0.8005614     0.0011209    0.0000265    -0.0002478    0.0001207     0.0003770    0.0004733 
   0.048862206     0.2590102   -0.8091800    -0.0003188    0.0001803    -0.0002124   -0.0001944    -0.0001047   -0.0001745 
   0.048962231     0.2460547   -0.8022488     0.0005414    0.0000062    -0.0000634   -0.0002877    -0.0002042   -0.0002339 
   0.049062256     0.2264921   -0.8076027     0.0004592    0.0005243    -0.0000423   -0.0000399     0.0003421    0.0002402 
   0.049162281     0.2150830   -0.8015077    -0.0007586    0.0002955     0.0002164    0.0001216    -0.0001057    0.0000991 
   0.049262306     0.2176113   -0.8087308     0.0004339    0.0003171    -0.0003962   -0.0002612     0.0001296    0.0001073 
   0.049362331     0.1965255   -0.8019523     0.0003393    0.0006764     0.0002933    0.0000255     0.0006217    0.0004875 
   0.049462356     0.1912375   -0.7966087     0.0008356   -0.0003139     0.0000496    0.0000520     0.0001001    0.0004574 
   0.049562381     0.1835443   -0.8024854     0.0001625    0.0004743     0.0000900    0.0000930     0.0004518    0.0000142 
   0.049662406     0.1660900   -0.8087610    -0.0000649    0.0000693    -0.0000395   -0.0000534     0.0000614    0.0002982 
   0.049762431     0.1532031   -0.8095366    -0.0002266   -0.0005028     0.0002622   -0.0000655    -0.0001143    0.0004926 
   0.049862456     0.1433332   -0.8008498    -0.0000885   -0.0010240     0.0000377   -0.0001714    -0.0000859   -0.0000568 
   0.049962481     0.1339603   -0.8086262    -0.0000588   -0.0006218    -0.0000812    0.0003032     0.0003924    0.0004127 
   0.050062506     0.1213356   -0.8062394     0.0008534    0.0003108     0.0000597    0.0002124     0.0003756    0.0002014 
   0.050162531     0.1096550   -0.7927998    -0.0000498   -0.0001171     0.0000085    0.0001164     0.0000863    0.0004629 
   0.050262556     0.0920638   -0.7949605    -0.0004013   -0.0004805    -0.0003977    0.0000648     0.0006487    0.0008601 
   0.050362581     0.0747834   -0.8019184     0.0005863    0.0001671    -0.0000716    0.0000740     0.0002698   -0.0001239 
   0.050462606     0.0704981   -0.7953487     0.0008372   -0.0006486     0.0000604   -0.0000773     0.0003735    0.0005056 
   0.050562631     0.0583637   -0.7822309     0.0001943    0.0003508    -0.0001022    0.0000975     0.0001039    0.0001916 
   0.050662656     0.0491366   -0.7979178     0.0002032   -0.0010069    -0.0004614    0.0001373     0.0005207    0.0000580 
   0.050762681     0.0314201   -0.7825364    -0.0000765    0.0006032    -0.0001496   -0.0001554     0.0004205    0.0000502 
   0.050862706     0.0137875   -0.7870357     0.0001621   -0.0000704     0.0000413    0.0000369     0.0002955    0.0003389 
   0.050962731    -0.0066598   -0.7846748     0.0006957    0.0001890     0.0000216   -0.0000553     0.0003316    0.0002917 
   0.051062756    -0.0118776   -0.7806761     0.0002134    0.0007199     0.0004189   -0.0000943    -0.0000675    0.0001037 
   0.051162781    -0.0282387   -0.7694786     0.0005029   -0.0004870     0.0000214   -0.0000476     0.0006360    0.0003109 
   0.051262806    -0.0430006   -0.7758375     0.0000663   -0.0002155     0.0001471   -0.0001839     0.0001278   -0.0003215 
   0.051362831    -0.0622946   -0.7666394    -0.0000274   -0.0001647    -0.0001185   -0.0000780     0.0005422   -0.0000910 
   0.051462856    -0.0807249   -0.7589352    -0.0001778    0.0007129    -0.0001906   -0.0000442     0.0003740    0.0000507 
   0.051562881    -0.0864882   -0.7521554    -0.0007321    0.0000393     0.0000403    0.0001430     0.0000474    0.0002842 
   0.051662906    -0.0986452   -0.7492496    -0.0005444    0.0002547     0.0001736   -0.0001074     0.0001309    0.0003018 
   0.051762931    -0.1138061   -0.7419092     0.0003808    0.0001184     0.0001165   -0.0001973    -0.0001443    0.0001675 
   0.051862956    -0.1362534   -0.7261482     0.0003055   -0.0003316    -0.0001561    0.0001269     0.0003725    0.0000178 
   0.051962981    -0.1531103   -0.7205822     0.0003689   -0.0000748     0.0001734    0.0002660     0.0006502   -0.0000005 
   0.052063007    -0.1647199   -0.7045758     0.0001189    0.0001778     0.0000462   -0.0000544     0.0000621   -0.0000984 
   0.052163032    -0.1737595   -0.7127609     0.0004910   -0.0004977     0.0000507    0.0002197     0.0007832    0.0004480 
   0.052263057    -0.2009189   -0.6922421    -0.0001738   -0.0000030    -0.0001010   -0.0000891     0.0006437    0.0000233 
   0.052363082    -0.2138149   -0.6799341    -0.0007972   -0.0001203    -0.0000632   -0.0002630     0.0000377    0.0002266 
   0.052463107    -0.2316108   -0.6629809    -0.0002548   -0.0002751     0.0001147   -0.0002516     0.0005339   -0.0000068 
   0.052563132    -0.2442040   -0.6427242     0.0003683   -0.0001981     0.0000914    0.0001133     0.0004525    0.0000268 
   0.052663157    -0.2581066   -0.6367411    -0.0008469   -0.0001901    -0.0000049    0.0000301     0.0003146   -0.0001685 
   0.052763182    -0.2818670   -0.6244436    -0.0002026   -0.0000965     0.0001996    0.0000812     0.0003906    0.0000740 
   0.052863207    -0.3001470   -0.6126881    -0.0004608    0.0006113     0.0000045   -0.0000233     0.0003736    0.0002251 
   0.052963232    -0.3144413   -0.5898392    -0.0002329   -0.0001192    -0.0002601    0.0002715     0.0003934    0.0005123 
   0.053063257    -0.3325183   -0.5698487     0.0001913   -0.0000972    -0.0000932    0.0001951     0.0004802    0.0004961 
   0.053163282    -0.3435193   -0.5577129     0.0008230    0.0004767    -0.0001656   -0.0000733     0.0002456    0.0000267 
   0.053263307    -0.3658561   -0.5368838     0.0005962    0.0002208    -0.0000792   -0.0000467     0.0000632    0.0002396 
   0.053363332    -0.3671117   -0.5178850     0.0002458   -0.0001755    -0.0001512   -0.0001041     0.0001878    0.0004648 
   0.053463357    -0.3776551   -0.4968050    -0.0000056    0.0005317     0.0003179   -0.0001760     0.0004269    0.0002397 
   0.053563382    -0.3973212   -0.4728029     0.0007312    0.0005081    -0.0002795    0.0000245    -0.0000432   -0.0001572 
   0.053663407    -0.4031402   -0.4412824     0.0002226    0.0006310    -0.0000423   -0.0001266     0.0001632   -0.0000627 
   0.053763432    -0.4192886   -0.4152289    -0.0001350    0.0003074    -0.0001758   -0.0001633     0.0005755    0.0003288 
   0.053863457    -0.4433464   -0.3824280    -0.0003564   -0.0002104     0.0000769   -0.0001025    -0.0002761    0.0001828 
   0.053963482    -0.4372617   -0.3558209    -0.0008425    0.0002843     0.0002332   -0.0001226     0.0005835    0.0002360 
   0.054063507    -0.4619390   -0.3268207    -0.0000360    0.0000848     0.0001310    0.0002809     0.0005932    0.0003901 
   0.054163532    -0.4535291   -0.3000508    -0.0003878    0.0003467    -0.0000992    0.0002269     0.0006303    0.0003628 
   0.054263557    -0.4741612   -0.2602720     0.0004459   -0.0002370     0.0003527   -0.0000698    -0.0001727    0.0008130 
   0.054363582    -0.4701493   -0.2317373    -0.0001056    0.0005386    -0.0001531   -0.0000751     0.0002717    0.0003271 
   0.054463607    -0.4713321   -0.1958579     0.0001877    0.0008059     0.0001464    0.0002466     0.0004269   -0.0004458 
   0.054563632    -0.4789988   -0.1636319    -0.0008692    0.0004985    -0.0002182   -0.0001993     0.0003099    0.0002605 
   0.054663657    -0.4791904   -0.1257671     0.0001635   -0.0000194     0.0000847   -0.0000253     0.0003916   -0.0000102 
   0.054763682    -0.4779663   -0.0783614     0.0001904    0.0001444    -0.0001760    0.0001593    -0.0000149   -0.0000609 
   0.054863707    -0.4772464   -0.0459825    -0.0000236   -0.0000245     0.0000353    0.0000177     0.0004870    0.0000014 
   0.054963732    -0.4641649   -0.0037720     0.0004682   -0.0011705     0.0001040   -0.0000629     0.0002362    0.0000904 
   0.055063757    -0.4480609    0.0354295     0.0002191   -0.0004580    -0.0003578    0.0000283     0.0004410    0.0000952 
   0.055163782    -0.4404636    0.0727954    -0.0002834   -0.0001045    -0.0000546    0.0000323     0.0001647   -0.0000861 
   0.055263807    -0.4205603    0.1126241    -0.0008545   -0.0002112     0.0001687    0.0001926     0.0004267    0.0004450 
   0.055363832    -0.4027528    0.1525035    -0.0005210    0.0000627    -0.0000870   -0.0003043     0.0000515    0.0002088 
   0.055463857    -0.3799038    0.1993334     0.0000939    0.0004683    -0.0000050   -0.0002838     0.0001554    0.0000370 
   0.055563882    -0.3516520    0.2247888    -0.0000699    0.0004411    -0.0000295    0.0000390     0.0003812    0.0010040 
   0.055663907    -0.3280528    0.2596522     0.0005857    0.0003792     0.0000317   -0.0001813     0.0003913    0.0005037 
   0.055763932    -0.2997031    0.2938549     0.0000185    0.0007003     0.0001520   -0.0002530     0.0002476   -0.0002934 
   0.055863957    -0.2589195    0.3259768    -0.0001117   -0.0003072     0.0000221    0.0002167     0.0004410    0.0001883 
   0.055963982    -0.2263110    0.3630300     0.0002682    0.0000860     0.0001707    0.0001168     0.0001241    0.0002503 
   0.056064007    -0.1931860    0.3876780     0.0006277   -0.0003999     0.0000928   -0.0000535     0.0003951    0.0002769 
   0.056164032    -0.1475812    0.4082090     0.0002732    0.0002020     0.0000041   -0.0000344     0.0003897    0.0002163 
   0.056264057    -0.1032200    0.4330750     0.0001232   -0.0002236     0.0000546    0.0002023    -0.0002136    0.0006699 
   0.056364082    -0.0591637    0.4467537    -0.0001800   -0.0006789     0.0000140    0.0000370     0.0002285   -0.0000673 
   0.056464107    -0.0166437    0.4635584     0.0001192    0.0003209     0.0001040    0.0000414     0.0002489    0.0000483 
   0.056564132     0.0248059    0.4753605     0.0001199   -0.0002712     0.0001366    0.0000622     0.0006867    0.0004594 
   0.056664157     0.0778080    0.4777746    -0.0004698    0.0002515    -0.0001094   -0.0001945     0.0000874    0.0001938 
   0.056764182     0.1223149    0.4890368     0.0002680    0.0002245     0.0001039   -0.0000713     0.0003354    0.0005225 
   0.056864207     0.1676238    0.4895931    -0.0000551   -0.0000652    -0.0000491   -0.0000485     0.0000424    0.0004170 
   0.056964232     0.2158324    0.4911846    -0.0003242    0.0004710     0.0001331    0.0000067    -0.0001181    0.0000804 
   0.057064257     0.2561170    0.4856253     0.0001839   -0.0006082    -0.0000195   -0.0000191     0.0002342    0.0002909 
   0.057164282     0.3007203    0.4745831    -0.0002460   -0.0000521     0.0000883   -0.0001249    -0.0001552   -0.0000404 
   0.057264307     0.3445879    0.4602363    -0.0001623   -0.0002308    -0.0000644   -0.0001053     0.0002686    0.0001833 
   0.057364332     0.3859151    0.4483569    -0.0004765    0.0000181    -0.0000866   -0.0000918    -0.0000720   -0.0004941 
   0.057464357     0.4199362    0.4368336    -0.0001249   -0.0004257     0.0000466    0.0000418     0.0002826   -0.0002623 
   0.057564382     0.4578449    0.4160707     0.0000058   -0.0001759    -0.0000181   -0.0001276     0.0004011   -0.0000098 
   0.057664407     0.4927712    0.3996444     0.0000065   -0.0000283     0.0000655    0.0000494     0.0004767    0.0002712 
   0.057764432     0.5248246    0.3788668    -0.0001273   -0.0002428    -0.0000548    0.0001079    -0.0001973    0.0000765 
   0.057864457     0.5574341    0.3569489     0.0002883   -0.0000779    -0.0000309   -0.0001498     0.0002662    0.0001533 
   0.057964482     0.5832373    0.3283977     0.0002787   -0.0001770    -0.0000474    0.0000703    -0.0003474    0.0001997 
   0.058064507     0.6136400    0.3072762     0.0002877   -0.0000939     0.0000352    0.0000478     0.0000324    0.0001661 
   0.058164532     0.6371763    0.2782163    -0.0003704   -0.0001244    -0.0000277   -0.0001753    -0.0001216    0.0000996 
   0.058264557     0.6580995    0.2532014    -0.0001173   -0.0003702     0.0000403    0.0000298    -0.0005720    0.0002316 
   0.058364582     0.6755145    0.2291465     0.0003152   -0.0001512     0.0000091   -0.0000131     0.0005795    0.0001193 
   0.058464607     0.6955196    0.2008060    -0.0001567   -0.0000391     0.0001142   -0.0000286     0.0005220    0.0002598 
   0.058564632     0.7177020    0.1731579     0.0003997   -0.0000247     0.0000729   -0.0000188     0.0003330    0.0000010 
   0.058664657     0.7327011    0.1480616    -0.0004119    0.0004116    -0.0001217    0.0001893     0.0003212    0.0003728 
   0.058764682     0.7445472    0.1219663     0.0004981    0.0004600     0.0000237   -0.0001828     0.0003352    0.0003105 
   0.058864707     0.7549861    0.0919552     0.0005738   -0.0001147    -0.0004298   -0.0000365     0.0006753    0.0001521 
   0.058964732     0.7696743    0.0698500     0.0003532    0.0000520    -0.0000785    0.0000249     0.0006491   -0.0002237 
   0.059064757     0.7752342    0.0409951     0.0002877    0.0001864     0.0000232    0.0001076     0.0005384   -0.0001169 
   0.059164782     0.7801417    0.0204361     0.0005190   -0.0009304    -0.0000105   -0.0000881     0.0000473    0.0002791 
   0.059264807     0.7863492   -0.0057453     0.0003483   -0.0002859     0.0000138   -0.0000305     0.0001891    0.0000533 
   0.059364832     0.7896346   -0.0278929     0.0006904   -0.0000924    -0.0000172    0.0001294     0.0004446   -0.0001273 
   0.059464857     0.7933301   -0.0510965     0.0002918   -0.0003271    -0.0000546    0.0000383     0.0001790    0.0002660 
   0.059564882     0.8047307   -0.0870955    -0.0002456   -0.0001366     0.0000626   -0.0001265     0.0003196    0.0001643 
   0.059664907     0.8014545   -0.1037970     0.0002623   -0.0002848    -0.0002241   -0.0001753    -0.0001943    0.0003173 
   0.059764932     0.8049067   -0.1279277     0.0002037   -0.0005184     0.0000680    0.0001030     0.0001477   -0.0002727 
   0.059864957     0.8036689   -0.1430067     0.0001871    0.0000691    -0.0001892    0.0000023     0.0004632    0.0003692 
   0.059964982     0.8020270   -0.1697314    -0.0002778   -0.0004755     0.0001255    0.0000592     0.0003423   -0.0001560 
   0.060065008     0.8009617   -0.1976365    -0.0001388   -0.0006882    -0.0000251    0.0002038    -0.0004210   -0.0000530 
   0.060165033     0.8003926   -0.2167341     0.0002729    0.0003807    -0.0001024    0.0002551     0.0002800   -0.0000740 
   0.060265058     0.7902272   -0.2353773     0.0001305    0.0003407     0.0000312   -0.0001313     0.0001348    0.0003322 
   0.060365083     0.7931382   -0.2581073     0.0001690    0.0002304     0.0002041   -0.0000423     0.0001226   -0.0000501 
   0.060465108     0.7995489   -0.2737544     0.0003924   -0.0003914     0.0000105    0.0000710     0.0004252   -0.0002433 
   0.060565133     0.7843843   -0.2919523    -0.0003410   -0.0003831    -0.0001484    0.0002009    -0.0001563   -0.0000090 
   0.060665158     0.7870957   -0.3131727     0.0001376    0.0002324     0.0000380   -0.0000864     0.0001164   -0.0000034 
   0.060765183     0.7802144   -0.3254459    -0.0005530   -0.0001730     0.0001001   -0.0001183     0.0003637   -0.0002804 
   0.060865208     0.7769540   -0.3390392    -0.0000681   -0.0000604     0.0000901   -0.0000288     0.0005552   -0.0000230 
   0.060965233     0.7637542   -0.3618720     0.0001649    0.0002616     0.0001584   -0.0001211     0.0004287   -0.0001082 
   0.061065258     0.7577414   -0.3743618     0.0003478   -0.0001963    -0.0001102   -0.0002399     0.0004460    0.0002237 
   0.061165283     0.7494943   -0.3881215     0.0003215   -0.0003841    -0.0001798   -0.0000163     0.0003159    0.0002575 
   0.061265308     0.7433626   -0.4050010    -0.0003130    0.0001520    -0.0001859    0.0000794     0.0002606    0.0000879 
   0.061365333     0.7481236   -0.4186575    -0.0003679    0.0003590     0.0001190    0.0001434     0.0003762    0.0000322 
   0.061465358     0.7342447   -0.4357832     0.0003070    0.0001010    -0.0003050    0.0000363     0.0005273    0.0000063 
   0.061565383     0.7314333   -0.4350508     0.0003151    0.0001293     0.0000661    0.0001115     0.0002492    0.0002030 
   0.061665408     0.7229413   -0.4610025    -0.0001284    0.0003117    -0.0000279    0.0000645     0.0003117    0.0001312 
   0.061765433     0.7171592   -0.4744249     0.0003849    0.0004777    -0.0000073    0.0002087     0.0001385   -0.0000454 
   0.061865458     0.7057070   -0.4909381     0.0007012   -0.0004843     0.0002034    0.0002002     0.0001317    0.0000989 
   0.061965483     0.6978375   -0.4963376     0.0000131   -0.0006823    -0.0003241   -0.0003590     0.0007401    0.0004217 
   0.062065508     0.6816872   -0.5074415     0.0001659    0.0000169    -0.0000109    0.0001599     0.0004206    0.0002815 
   0.062165533     0.6811199   -0.5155466     0.0007485   -0.0000510     0.0000237    0.0004567     0.0001014    0.0003040 
   0.062265558     0.6735804   -0.5321248    -0.0003907   -0.0010497    -0.0002295   -0.0001432     0.0006287    0.0001828 
   0.062365583     0.6630399   -0.5400118     0.0007702    0.0001446     0.0001826   -0.0002698     0.0000853    0.0000076 
   0.062465608     0.6664729   -0.5509976     0.0001713   -0.0002573     0.0001189   -0.0005006     0.0003395   -0.0000621 
   0.062565633     0.6503949   -0.5637797     0.0002379   -0.0005094    -0.0001872   -0.0002026     0.0001932   -0.0000034 
   0.062665658     0.6448016   -0.5627996     0.0003145    0.0002029    -0.0001467    0.0000882     0.0000243   -0.0001861 
   0.062765683     0.6358631   -0.5777300     0.0001071    0.0003376    -0.0002500    0.0000320    -0.0003430   -0.0001043 
   0.062865708     0.6260833   -0.5966167     0.0011875    0.0000286    -0.0002080   -0.0001971     0.0002192   -0.0003159 
   0.062965733     0.6184749   -0.6045992     0.0005892   -0.0001901     0.0000768    0.0000109     0.0006080   -0.0001313 
   0.063065758     0.6042940   -0.6103209     0.0003369   -0.0006904    -0.0001840    0.0000235     0.0005886    0.0001701 
   0.063165783     0.5974193   -0.6111693    -0.0007784    0.0000678     0.0001507    0.0000523     0.0001045   -0.0001088 
   0.063265808     0.5935575   -0.6266458    -0.0002254   -0.0001058    -0.0001540   -0.0001104     0.0003335    0.0003236 
   0.063365833     0.5856439   -0.6405936     0.0001489    0.0000519    -0.0003283   -0.0002859     0.0003881    0.0001735 
   0.063465858     0.5727472   -0.6400881    -0.0002920    0.0008176     0.0001471   -0.0000356     0.0005913    0.0005835 
   0.063565883     0.5635872   -0.6498688    -0.0002102    0.0003901     0.0003353    0.0000119     0.0000390   -0.0002731 
   0.063665908     0.5508342   -0.6520006    -0.0001362    0.0003265    -0.0002732    0.0002539     0.0003308    0.0001325 
   0.063765933     0.5488222   -0.6656150     0.0004923    0.0004630    -0.0001212    0.0000743    -0.0001516    0.0000672 
   0.063865958     0.5441846   -0.6691620    -0.0000234    0.0005244     0.0000270    0.0000159     0.0002870    0.0000989 
   0.063965983     0.5190539   -0.6718603     0.0003658    0.0006858    -0.0000868    0.0001014     0.0000121    0.0003507 
   0.064066008     0.5091443   -0.6800516     0.0003631   -0.0004064     0.0000932    0.0000404     0.0006226   -0.0001646 
   0.064166033     0.5020810   -0.6924228     0.0013054    0.0001518     0.0000898   -0.0001486     0.0003717   -0.0002006 
   0.064266058     0.4994301   -0.6974260     0.0005449   -0.0009626    -0.0000915    0.0000053     0.0003240    0.0000645 
   0.064366083     0.4922847   -0.6970264     0.0004007   -0.0000325    -0.0002024   -0.0000510     0.0007396   -0.0000408 
   0.064466108     0.4878086   -0.7105598     0.0001122    0.0004860    -0.0000316   -0.0001207     0.0002194    0.0001919 
   0.064566133     0.4719087   -0.7213382    -0.0011543    0.0002844     0.0000111    0.0002040     0.0001884    0.0004387 
   0.064666158     0.4529344   -0.7211002     0.0003084   -0.0003022     0.0001425   -0.0003038     0.0005806    0.0003245 
   0.064766183     0.4529553   -0.7108675     0.0001697   -0.0000329     0.0001696    0.0001022     0.0004200    0.0000100 
   0.064866208     0.4432104   -0.7220507    -0.0004373   -0.0004282     0.0002688    0.0000622     0.0005733   -0.0000203 
   0.064966233     0.4277184   -0.7375978    -0.0001823   -0.0003065    -0.0002763    0.0000226     0.0004026    0.0002248 
   0.065066258     0.4209833   -0.7346126    -0.0007473   -0.0005786     0.0001152    0.0001465     0.0002594   -0.0001010 
   0.065166283     0.4120981   -0.7412400    -0.0005654   -0.0007115    -0.0002826   -0.0002636     0.0002497    0.0003272 
   0.065266308     0.3940336   -0.7513347     0.0003137    0.0005306    -0.0000983    0.0000923     0.0007909   -0.0000098 
   0.065366333     0.3919382   -0.7457423    -0.0003704    0.0003926     0.0000841   -0.0002106     0.0007635    0.0001010 
   0.065466358     0.3809670   -0.7460789     0.0003355    0.0006065     0.0001691   -0.0000397    -0.0000900    0.0002397 
   0.065566383     0.3597377   -0.7565095    -0.0004305    0.0001986     0.0000082    0.0001616    -0.0001704   -0.0002444 
   0.065666408     0.3594188   -0.7604558     0.0006715    0.0000702     0.0004245    0.0000901     0.0005127   -0.0005166 
   0.065766433     0.3562938   -0.7548520     0.0006086    0.0002069    -0.0000778   -0.0001771     0.0003779   -0.0002663 
   0.065866458     0.3369635   -0.7680268     0.0003293    0.0000716    -0.0000081   -0.0000618     0.0004745    0.0002653 
   0.065966483     0.3365583   -0.7650779     0.0002880    0.0007031     0.0000710    0.0001284     0.0003813    0.0003432 
   0.066066508     0.3179350   -0.7732285     0.0005760   -0.0005704     0.0003801    0.0000452     0.0005819    0.0001954 
   0.066166533     0.3141778   -0.7622042    -0.0002223   -0.0001070    -0.0001335    0.0000858     0.0003607   -0.0001562 
   0.066266558     0.2993758   -0.7815327     0.0003800    0.0005993    -0.0003630   -0.0002560     0.0008018   -0.0002858 
   0.066366583     0.2911286   -0.7680957     0.0003456   -0.0000021     0.0000037   -0.0000757     0.0002747    0.0002353 
   0.066466608     0.2860903   -0.7749961    -0.0006789   -0.0000007     0.0001827    0.0001535     0.0005112   -0.0002061 
   0.066566633     0.2604375   -0.7852356     0.0000549    0.0001864    -0.0001825   -0.0002597    -0.0001201    0.0001322 
   0.066666658     0.2666554   -0.7866241     0.0007587    0.0006869     0.0002333   -0.0001887     0.0004342   -0.0001137 
   0.066766683     0.2458035   -0.7954807    -0.0007676   -0.0008712     0.0001232   -0.0001529     0.0005215    0.0000393 
   0.066866708     0.2453709   -0.7922320    -0.0002351   -0.0001068     0.0001830    0.0002528     0.0003076    0.0001722 
   0.066966733     0.2189538   -0.7982876    -0.0005611    0.0002303    -0.0001520    0.0000949     0.0002437   -0.0001633 
   0.067066758     0.2117925   -0.7893139     0.0002766    0.0001528     0.0000104    0.0004254     0.0003364   -0.0000263 
   0.067166783     0.2088583   -0.7968737    -0.0000511   -0.0003063    -0.0000789   -0.0001835    -0.0001209    0.0001494 
   0.067266808     0.1921302   -0.7919407     0.0002469   -0.0002276     0.0003220   -0.0002861     0.0007940   -0.0000891 
   0.067366833     0.1873111   -0.7960020    -0.0000506    0.0000926    -0.0000290    0.0000650     0.0005543    0.0003725 
   0.067466858     0.1644821   -0.7944158     0.0002154   -0.0006354     0.0001891   -0.0000226     0.0004642   -0.0002274 
   0.067566883     0.1558293   -0.7957852     0.0000982    0.0003045     0.0002113   -0.0000345     0.0006393   -0.0001132 
   0.067666908     0.1554914   -0.7965114    -0.0001043    0.0005037    -0.0000361   -0.0005389     0.0004688   -0.0004986 
   0.067766933     0.1379908   -0.7949898    -0.0007237    0.0005039    -0.0000110   -0.0000479     0.0005204    0.0000029 
   0.067866958     0.1332717   -0.7952863     0.0005425   -0.0001678     0.0000940   -0.0000246     0.0006030    0.0002161 
   0.067966983     0.1117239   -0.7992120     0.0005205   -0.0000762     0.0004340   -0.0001218     0.0001039   -0.0003262 
   0.068067009     0.1002266   -0.7917078     0.0000806   -0.0005943    -0.0001594   -0.0000124     0.0001403   -0.0003152 
   0.068167034     0.0879738   -0.7952838    -0.0002512   -0.0003909    -0.0001467    0.0000326     0.0003914   -0.0000659 
   0.068267059     0.0799382   -0.7910950    -0.0002790   -0.0005646     0.0004406   -0.0000041     0.0007462    0.0000488 
   0.068367084     0.0635383   -0.7931494    -0.0008330   -0.0005650     0.0000031   -0.0001107     0.0002776    0.0000182 
   0.068467109     0.0560858   -0.7916830     0.0007499   -0.0000073     0.0001238   -0.0003729     0.0001271   -0.0002531 
   0.068567134     0.0487605   -0.7924221    -0.0012046   -0.0001272     0.0001395   -0.0000568     0.0009347   -0.0000001 
   0.068667159     0.0386735   -0.7858338    -0.0002694    0.0001006     0.0001184    0.0001210     0.0005770   -0.0001388 
   0.068767184     0.0216489   -0.7813493    -0.0001782   -0.0001940     0.0000315    0.0000291     0.0005685   -0.0002805 
   0.068867209     0.0132670   -0.7763081    -0.0000052    0.0000660     0.0001465    0.0000666     0.0003772   -0.0000719 
   0.068967234    -0.0005787   -0.7725976    -0.0000076   -0.0006415     0.0000490   -0.0002742     0.0003615    0.0000412 
   0.069067259    -0.0147776   -0.7774869     0.0000123    0.0001887     0.0000082    0.0000003     0.0002271    0.0003877 
   0.069167284    -0.0311981   -0.7758729    -0.0000375   -0.0000299    -0.0003000    0.0001994     0.0003895    0.0000335 
   0.069267309    -0.0398537   -0.7681265     0.0003505    0.0009357     0.0000116    0.0003113     0.0006994   -0.0001924 
   0.069367334    -0.0562607   -0.7684355     0.0012099    0.0004728    -0.0001158    0.0002678     0.0002540    0.0000446 
   0.069467359    -0.0688217   -0.7501266     0.0006134   -0.0002054    -0.0001909    0.0000748     0.0004574   -0.0001687 
   0.069567384    -0.0816074   -0.7649159     0.0000260    0.0006780    -0.0001031   -0.0000336     0.0004063    0.0001703 
   0.069667409    -0.0892520   -0.7488752     0.0004061    0.0005172     0.0003191    0.0001552     0.0004801    0.0003640 
   0.069767434    -0.1002588   -0.7421566    -0.0000823    0.0002228    -0.0001773    0.0002852     0.0004463    0.0002303 
   0.069867459    -0.1193542   -0.7441071     0.0000752    0.0003324     0.0000420   -0.0002961     0.0000283   -0.0003171 
   0.069967484    -0.1260737   -0.7444216    -0.0005765    0.0006202    -0.0000746    0.0000915     0.0006523   -0.0000104 
   0.070067509    -0.1404122   -0.7234600     0.0006734    0.0005152     0.0001938    0.0000349     0.0004776   -0.0002113 
   0.070167534    -0.1552858   -0.7221529    -0.0005464   -0.0002298     0.0000770   -0.0002995     0.0002330    0.0002365 
   0.070267559    -0.1653997   -0.7157024     0.0004236   -0.0004361    -0.0003615    0.0000519     0.0005377    0.0000381 
   0.070367584    -0.1745428   -0.7109916     0.0005705    0.0009419    -0.0001025   -0.0000545     0.0003255    0.0000018 
   0.070467609    -0.1923873   -0.7038779    -0.0000470   -0.0001593    -0.0001278    0.0000131     0.0005612    0.0001405 
   0.070567634    -0.2051944   -0.6923783    -0.0000821    0.0000150    -0.0001265    0.0001946     0.0008271   -0.0000020 
   0.070667659    -0.2187088   -0.6810254    -0.0005794    0.0004595     0.0000285    0.0000744     0.0002530    0.0000623 
   0.070767684    -0.2286066   -0.6785950    -0.0005109   -0.0004912     0.0000271    0.0000087     0.0003929   -0.0002276 
   0.070867709    -0.2495752   -0.6670468    -0.0002283   -0.0004546    -0.0000662    0.0001381     0.0007882   -0.0001157 
   0.070967734    -0.2589892   -0.6597348     0.0005503   -0.0004081    -0.0003224    0.0000258     0.0004616    0.0002608 
   0.071067759    -0.2744398   -0.6488472     0.0001955    0.0005428     0.0001545    0.0000457     0.0003236    0.0001455 
   0.071167784    -0.2921537   -0.6339687     0.0000452    0.0008465     0.0000787    0.0002986     0.0005289    0.0002183 
   0.071267809    -0.2884156   -0.6289783    -0.0001246    0.0004124    -0.0001880   -0.0001189     0.0004177    0.0001988 
   0.071367834    -0.3083056   -0.6087286    -0.0006049    0.0006724     0.0000733   -0.0003795     0.0009429    0.0002314 
   0.071467859    -0.3121537   -0.6024315     0.0001062    0.0003576     0.0000677   -0.0000929     0.0002239   -0.0000317 
   0.071567884    -0.3305140   -0.5838737    -0.0002247   -0.0002128    -0.0001228    0.0001084     0.0007978    0.0000856 
   0.071667909    -0.3482825   -0.5722236     0.0000476   -0.0006573     0.0001026   -0.0002204     0.0002789    0.0002824 
   0.071767934    -0.3568509   -0.5584154     0.0005960    0.0002016     0.0002213   -0.0001579    -0.0000114    0.0000195 
   0.071867959    -0.3687902   -0.5466999    -0.0000945    0.0002635    -0.0001477    0.0000010     0.0002592    0.0002299 
   0.071967984    -0.3842421   -0.5277673    -0.0003229    0.0004184    -0.0001414   -0.0004926     0.0000127    0.0005041 
   0.072068009    -0.3975267   -0.5117902    -0.0003029    0.0002861    -0.0002810   -0.0002042     0.0004271   -0.0003628 
   0.072168034    -0.4033321   -0.4912317    -0.0004882   -0.0005775     0.0001327    0.0001762     0.0006970   -0.0000414 
   0.072268059    -0.4179630   -0.4750827     0.0006217    0.0002706     0.0001845    0.0001353     0.0003399    0.0004882 
   0.072368084    -0.4277107   -0.4548394    -0.0001221    0.0003718     0.0000468   -0.0002134     0.0005295   -0.0002476 
   0.072468109    -0.4374715   -0.4355444    -0.0002246    0.0003542     0.0001077    0.0000146     0.0010110    0.0000794 
   0.072568134    -0.4466994   -0.4186198    -0.0000050    0.0004291    -0.0000181    0.0001080     0.0008637    0.0004768 
   0.072668159    -0.4531038   -0.4017022     0.0001940   -0.0001171     0.0000297    0.0000734     0.0003630    0.0003276 
   0.072768184    -0.4683582   -0.3771601     0.0004669    0.0002218     0.0000915    0.0000619     0.0000441   -0.0001342 
   0.072868209    -0.4722492   -0.3495371     0.0006123    0.0001501    -0.0000145   -0.0000045     0.0000199   -0.0003536 
   0.072968234    -0.4830406   -0.3333579    -0.0001593   -0.0003197     0.0000063    0.0000637     0.0008069   -0.0000065 
   0.073068259    -0.4904518   -0.3072457     0.0000801    0.0000848    -0.0001166   -0.0000299     0.0004314   -0.0000647 
   0.073168284    -0.4956379   -0.2814237     0.0006029    0.0002098     0.0000341    0.0001590     0.0003737    0.0002122 
   0.073268309    -0.4991945   -0.2585723     0.0003770   -0.0004297    -0.0000204   -0.0000363     0.0007889    0.0006464 
   0.073368334    -0.5030781   -0.2322841    -0.0000580    0.0000699     0.0000728    0.0000901     0.0006771    0.0000645 
   0.073468359    -0.5022705   -0.2070188     0.0000032   -0.0001646     0.0000160   -0.0000425     0.0004207    0.0002445 
   0.073568384    -0.5093334   -0.1770742    -0.0001762    0.0003864    -0.0000902   -0.0000653    -0.0003596   -0.0000686 
   0.073668409    -0.5064313   -0.1522258    -0.0001728   -0.0001474     0.0000186    0.0000640     0.0003205    0.0003545 
   0.073768434    -0.5107735   -0.1191915    -0.0001153    0.0004747    -0.0001660   -0.0000480     0.0001553    0.0002606 
   0.073868459    -0.5087178   -0.0929047    -0.0002134   -0.0001456    -0.0001503   -0.0001497     0.0001603    0.0003160 
   0.073968484    -0.5044817   -0.0617464    -0.0001366    0.0000031     0.0000604   -0.0001129     0.0007479   -0.0000821 
   0.074068509    -0.5024615   -0.0326001     0.0001960    0.0003446     0.0000094   -0.0000181     0.0000247   -0.0002784 
   0.074168534    -0.4939599   -0.0031646     0.0000974   -0.0003909     0.0001545    0.0000841     0.0004048    0.0001371 
   0.074268559    -0.4871096    0.0276541     0.0000482    0.0003441    -0.0000293    0.0001074     0.0004161    0.0001389 
   0.074368584    -0.4774506    0.0577391     0.0002230   -0.0000505     0.0001112    0.0001344     0.0006106    0.0002853 
   0.074468609    -0.4693972    0.0895212     0.0004003   -0.0001420     0.0000638    0.0000214     0.0005831    0.0001662 
   0.074568634    -0.4526799    0.1227974    -0.0000675    0.0001446    -0.0000658   -0.0000955     0.0002962    0.0003103 
   0.074668659    -0.4389145    0.1520339    -0.0000623    0.0000987     0.0000056   -0.0000035     0.0003279    0.0001373 
   0.074768684    -0.4234455    0.1822764     0.0000117   -0.0000721    -0.0000166   -0.0000840     0.0000978   -0.0000846 
   0.074868709    -0.4038194    0.2137547    -0.0000063    0.0000056     0.0001011   -0.0000723     0.0006818   -0.0000166 
   0.074968734    -0.3849793    0.2398585    -0.0003170   -0.0002886     0.0000320    0.0001133     0.0002680   -0.0002914 
   0.075068759    -0.3627170    0.2703018    -0.0003310   -0.0000276     0.0000584    0.0001305     0.0006449    0.0001405 
   0.075168784    -0.3369332    0.2967349    -0.0003914    0.0000322    -0.0000582   -0.0001340     0.0009632    0.0000566 
   0.075268809    -0.3129337    0.3234984    -0.0000587   -0.0003698    -0.0000462   -0.0000738     0.0007362   -0.0001465 
   0.075368834    -0.2842192    0.3487196     0.0000436    0.0002242    -0.0001067    0.0000324     0.0007276   -0.0000436 
   0.075468859    -0.2547110    0.3722125    -0.0002648   -0.0001737    -0.0000572   -0.0000326     0.0006091    0.0000905 
   0.075568884    -0.2221562    0.3935796     0.0001319   -0.0001423     0.0000123   -0.0000805     0.0007293   -0.0000226 
   0.075668909    -0.1905126    0.4140655    -0.0002169    0.0000895     0.0000239   -0.0001958     0.0001880    0.0007909 
   0.075768934    -0.1586708    0.4333201     0.0002651    0.0000666     0.0000078    0.0000072     0.0003102    0.0001733 
   0.075868959    -0.1222342    0.4503135     0.0000024   -0.0002406    -0.0000229   -0.0000555     0.0007247    0.0002184 
   0.075968984    -0.0880432    0.4635502     0.0000013    0.0002145    -0.0000023    0.0001423     0.0006377   -0.0000133 
   0.076069010    -0.0489413    0.4776298     0.0001603    0.0000788     0.0000151   -0.0000621     0.0006090    0.0002765 
   0.076169035    -0.0117775    0.4879231     0.0004021    0.0002084     0.0000640   -0.0000290     0.0002142   -0.0001380 
   0.076269060     0.0290780    0.4937058     0.0000944   -0.0001990    -0.0000027    0.0002478     0.0005283   -0.0001615 
   0.076369085     0.0669413    0.4986469    -0.0001626   -0.0004564     0.0000341   -0.0000124     0.0005781    0.0001410 
   0.076469110     0.1091039    0.5027853     0.0001571   -0.0003241     0.0000194    0.0000929     0.0001992    0.0001534 
   0.076569135     0.1449890    0.4995084    -0.0000325    0.0001504    -0.0000012    0.0000697     0.0003904   -0.0000490 
   0.076669160     0.1804214    0.5009181    -0.0005277   -0.0002371    -0.0000420    0.0000890     0.0003064    0.0002251 
   0.076769185     0.2223829    0.4961592    -0.0001341   -0.0000042     0.0000011    0.0000015     0.0006999    0.0002105 
   0.076869210     0.2598076    0.4916577     0.0003765    0.0001805     0.0000514    0.0001060     0.0008682    0.0000265 
   0.076969235     0.2944657    0.4788387     0.0001653   -0.0003171    -0.0002016    0.0001045     0.0008985    0.0002309 
   0.077069260     0.3285579    0.4725419     0.0011109   -0.0003756     0.0000217   -0.0001069     0.0007346   -0.0000947 
   0.077169285     0.3666469    0.4552106     0.0001029   -0.0002884     0.0000431   -0.0000259     0.0007729    0.0001653 
   0.077269310     0.3974522    0.4420251     0.0001812    0.0000065    -0.0000046    0.0002544     0.0003711   -0.0001562 
   0.077369335     0.4302279    0.4265963     0.0005189    0.0003437     0.0001275   -0.0000578     0.0007280   -0.0001521 
   0.077469360     0.4655869    0.4063044    -0.0000185    0.0002086    -0.0000770    0.0003223     0.0003525    0.0002309 
   0.077569385     0.4946938    0.3907592     0.0000959   -0.0003333     0.0001528   -0.0002619     0.0007927   -0.0001416 
   0.077669410     0.5234106    0.3702541     0.0001333    0.0005893     0.0000549    0.0000239     0.0006180    0.0000567 
   0.077769435     0.5475274    0.3494393    -0.0003420   -0.0001417     0.0001282   -0.0000875     0.0009527    0.0002873 
   0.077869460     0.5766079    0.3196414     0.0000818   -0.0000981     0.0001063    0.0000307     0.0005759   -0.0002588 
   0.077969485     0.5965499    0.3064783    -0.0004996    0.0002493    -0.0000684   -0.0000746     0.0007405    0.0000936 
   0.078069510     0.6186558    0.2799523     0.0002202    0.0002138    -0.0001538   -0.0001302     0.0003275    0.0001512 
   0.078169535     0.6355226    0.2563244    -0.0002916   -0.0002695    -0.0000022   -0.0000577     0.0005007    0.0000778 
   0.078269560     0.6627921    0.2264323     0.0004855   -0.0004062    -0.0001358    0.0001529     0.0004223    0.0001405 
   0.078369585     0.6754928    0.2076687    -0.0001231   -0.0003289     0.0002607   -0.0000414     0.0006073   -0.0001124 
   0.078469610     0.6885111    0.1786550     0.0004666   -0.0002584     0.0001048   -0.0000028     0.0005287   -0.0001246 
   0.078569635     0.6998060    0.1551848    -0.0002624   -0.0003089     0.0003291    0.0000722     0.0001739   -0.0002022 
   0.078669660     0.7092031    0.1288297     0.0000064    0.0003999     0.0002488    0.0000880     0.0002619   -0.0000981 
   0.078769685     0.7272670    0.0972124     0.0002802   -0.0002367     0.0004688   -0.0001839     0.0004636    0.0000879 
   0.078869710     0.7377678    0.0739763     0.0002932    0.0000475    -0.0000232    0.0001724     0.0006531    0.0002585 
   0.078969735     0.7434949    0.0485886    -0.0000843    0.0002798    -0.0002429    0.0001753     0.0005052    0.0004330 
   0.079069760     0.7402126    0.0234360    -0.0001253   -0.0003096     0.0000260    0.0000854     0.0007228   -0.0000072 
   0.079169785     0.7579851   -0.0089470     0.0001300    0.0001690     0.0001434    0.0000822     0.0007681    0.0003302 
   0.079269810     0.7623594   -0.0225660     0.0000168   -0.0000146    -0.0000437    0.0001408     0.0006374   -0.0002314 
   0.079369835     0.7750673   -0.0533366     0.0000970   -0.0003878     0.0002482    0.0000487     0.0004832    0.0003598 
   0.079469860     0.7747307   -0.0798704    -0.0005536    0.0004836    -0.0000726    0.0001105     0.0006423    0.0004300 
   0.079569885     0.7664092   -0.1031751     0.0000348    0.0000319    -0.0002576    0.0002760     0.0004520    0.0002505 
   0.079669910     0.7737967   -0.1259620    -0.0001541    0.0001122    -0.0001344   -0.0000985     0.0004368    0.0001263 
   0.079769935     0.7731611   -0.1452129    -0.0006439    0.0002216     0.0000951   -0.0001233     0.0007184    0.0000318 
   0.079869960     0.7761579   -0.1724741    -0.0004199   -0.0011637     0.0000998    0.0000180     0.0000910   -0.0006937 
   0.079969985     0.7778988   -0.1911281    -0.0003621    0.0005076     0.0001230    0.0000504     0.0010256   -0.0000087 
   0.080070010     0.7664341   -0.2130083    -0.0006242    0.0006998    -0.0000052   -0.0002005     0.0004482    0.0001291 
   0.080170035     0.7598813   -0.2293086     0.0002926    0.0001880     0.0001466    0.0001370     0.0009939    0.0001292 
   0.080270060     0.7614112   -0.2550753    -0.0002606    0.0001769     0.0001232    0.0001036     0.0006891    0.0000731 
   0.080370085     0.7579792   -0.2718703    -0.0002393   -0.0004530     0.0002132    0.0002863     0.0003726    0.0001985 
   0.080470110     0.7536463   -0.2958957     0.0000203   -0.0001581    -0.0000343   -0.0001818     0.0004504    0.0001231 
   0.080570135     0.7446715   -0.3207743     0.0001571   -0.0006248     0.0000337   -0.0001647     0.0003430    0.0000096 
   0.080670160     0.7419230   -0.3326264    -0.0002474   -0.0000817     0.0000039   -0.0000375     0.0004987   -0.0000549 
   0.080770185     0.7287013   -0.3553165     0.0006002    0.0002678     0.0000505   -0.0003648     0.0005309    0.0000139 
   0.080870210     0.7311163   -0.3675660     0.0005330    0.0002784     0.0001944   -0.0002479     0.0002752   -0.0002258 
   0.080970235     0.7185960   -0.3904290     0.0006968   -0.0009855     0.0001259   -0.0000449     0.0004216   -0.0001079 
   0.081070260     0.7071882   -0.3976099    -0.0002493    0.0007673    -0.0002538   -0.0001408     0.0008818    0.0001101 
   0.081170285     0.7088968   -0.4224216     0.0000496    0.0003437     0.0001448   -0.0001168     0.0004403    0.0002531 
   0.081270310     0.7015716   -0.4438677     0.0001383    0.0010561     0.0001173   -0.0002055     0.0006046    0.0001025 
   0.081370335     0.6962837   -0.4469066     0.0003052   -0.0000845    -0.0000567   -0.0000821     0.0006149    0.0002687 
   0.081470360     0.6893957   -0.4668189    -0.0000028    0.0006156    -0.0004343    0.0001078     0.0005535    0.0002146 
   0.081570385     0.6715739   -0.4841875    -0.0000826    0.0001350     0.0001396    0.0000657     0.0007083    0.0000005 
   0.081670410     0.6632802   -0.4883724    -0.0002723   -0.0001905    -0.0004122    0.0001004     0.0007661    0.0001978 
   0.081770435     0.6594201   -0.5068690     0.0001062   -0.0003350     0.0001115    0.0001087     0.0005820    0.0002831 
   0.081870460     0.6475843   -0.5140685    -0.0002611    0.0002013    -0.0000738   -0.0001945     0.0008467   -0.0000983 
   0.081970485     0.6336482   -0.5254819     0.0004229    0.0004335    -0.0000529    0.0002651     0.0001979    0.0004765 
   0.082070510     0.6285107   -0.5490580    -0.0003594    0.0004739    -0.0000248   -0.0000019     0.0006866    0.0000112 
   0.082170535     0.6151296   -0.5628275    -0.0002252   -0.0004668     0.0001279    0.0001775     0.0007285    0.0001321 
   0.082270560     0.6098188   -0.5601947     0.0000430   -0.0002617     0.0000981    0.0000604     0.0009108   -0.0002414 
   0.082370585     0.6025927   -0.5817775    -0.0000780   -0.0002348     0.0000803    0.0001661     0.0007426    0.0001904 
   0.082470610     0.5800242   -0.5886315    -0.0000586   -0.0003290    -0.0000318   -0.0000481     0.0008881    0.0002736 
   0.082570635     0.5733918   -0.5974226    -0.0000338    0.0002107     0.0000785   -0.0000481     0.0006790   -0.0000641 
   0.082670660     0.5627428   -0.6049868     0.0004096    0.0004316    -0.0000888   -0.0000747     0.0002579   -0.0002657 
   0.082770685     0.5546777   -0.6178436     0.0002313   -0.0003655     0.0001790   -0.0000564     0.0005626    0.0004126 
   0.082870710     0.5335363   -0.6282994    -0.0004892    0.0005475    -0.0002834    0.0001683     0.0008968   -0.0003572 
   0.082970735     0.5369785   -0.6304991    -0.0006047   -0.0002944     0.0000451    0.0001420     0.0010110   -0.0002975 
   0.083070760     0.5270494   -0.6458139     0.0004840   -0.0001342     0.0002533   -0.0000252     0.0002027    0.0004113 
   0.083170785     0.5147058   -0.6498427     0.0003106   -0.0001627    -0.0000960    0.0000171     0.0007555    0.0001853 
   0.083270810     0.5048872   -0.6590980    -0.0001124    0.0001811     0.0000177    0.0002248     0.0008930    0.0005341 
   0.083370835     0.4913024   -0.6696957    -0.0002112    0.0002901    -0.0000864    0.0001130     0.0006648    0.0004809 
   0.083470860     0.4809197   -0.6692285     0.0004136    0.0005474     0.0001329   -0.0001392     0.0004735    0.0002138 
   0.083570885     0.4756360   -0.6778921     0.0004806    0.0002159    -0.0000983    0.0000938     0.0002339    0.0001788 
   0.083670910     0.4559682   -0.6900700     0.0002238   -0.0006817     0.0002529   -0.0001519     0.0005635    0.0003112 
   0.083770935     0.4415118   -0.6872786     0.0000170   -0.0004899     0.0002777   -0.0002160     0.0006385   -0.0000253 
   0.083870960     0.4332953   -0.7024221     0.0005907   -0.0000709     0.0000334   -0.0000697     0.0002353    0.0003969 
   0.083970985     0.4253383   -0.7029854    -0.0004078    0.0004642    -0.0000910    0.0002128     0.0002641    0.0002906 
   0.084071011     0.4140071   -0.7193689    -0.0005362    0.0004604     0.0003919    0.0000641     0.0006387    0.0000125 
   0.084171036     0.4011964   -0.7165289    -0.0004949    0.0005226    -0.0002213   -0.0000530     0.0006812    0.0001008 
   0.084271061     0.3913063   -0.7278427     0.0002055   -0.0004280    -0.0002768    0.0002840     0.0005390    0.0005593 
   0.084371086     0.3768772   -0.7300734     0.0001923   -0.0007886     0.0000411   -0.0000249     0.0010311    0.0002632 
   0.084471111     0.3738761   -0.7317978    -0.0002517    0.0000812     0.0002764    0.0000365     0.0007096    0.0001360 
   0.084571136     0.3596607   -0.7449005    -0.0004065    0.0001341    -0.0001853    0.0000425     0.0008895    0.0001862 
   0.084671161     0.3413486   -0.7404333     0.0001774   -0.0002351    -0.0001252    0.0000338     0.0005236    0.0001172 
   0.084771186     0.3336136   -0.7525759    -0.0001435   -0.0003827     0.0000845   -0.0002595     0.0005156    0.0004348 
   0.084871211     0.3112445   -0.7548011     0.0001116   -0.0004514    -0.0000217   -0.0000804     0.0007742    0.0003165 
   0.084971236     0.3138615   -0.7504063    -0.0002735    0.0000876     0.0003046   -0.0000505     0.0007576    0.0001235 
   0.085071261     0.2999030   -0.7566813    -0.0001292   -0.0000354    -0.0003268   -0.0000369     0.0005940    0.0001916 
   0.085171286     0.2834842   -0.7576014    -0.0003703    0.0001270     0.0000628    0.0000539     0.0003640   -0.0000323 
   0.085271311     0.2852282   -0.7631599     0.0002801   -0.0002319     0.0001649    0.0004957     0.0005671   -0.0000655 
   0.085371336     0.2683659   -0.7651114     0.0002535   -0.0000244     0.0001353   -0.0001339     0.0010014    0.0003375 
   0.085471361     0.2587070   -0.7619311     0.0001419   -0.0001734     0.0000970   -0.0000375     0.0002403   -0.0000325 
   0.085571386     0.2386839   -0.7720601    -0.0000128    0.0002491    -0.0002833   -0.0000260     0.0006670    0.0001719 
   0.085671411     0.2255143   -0.7681224     0.0003558   -0.0001080     0.0000709    0.0000604     0.0006541   -0.0000246 
   0.085771436     0.2204879   -0.7717208    -0.0001067    0.0004943    -0.0000405    0.0002179     0.0005412   -0.0000971 
   0.085871461     0.2043760   -0.7767378    -0.0002062   -0.0001094    -0.0001241   -0.0000910     0.0011887    0.0000329 
   0.085971486     0.1908193   -0.7800833    -0.0005669   -0.0001739     0.0000246    0.0000764     0.0007895    0.0001512 
   0.086071511     0.1727395   -0.7782819    -0.0000648    0.0002066     0.0000218    0.0000000     0.0008940    0.0003656 
   0.086171536     0.1742831   -0.7751366    -0.0000838   -0.0003857     0.0001217    0.0001410     0.0010413    0.0001356 
   0.086271561     0.1551499   -0.7775668     0.0000985    0.0000783     0.0000553    0.0000433     0.0003397    0.0004670 
   0.086371586     0.1462192   -0.7741854     0.0002074    0.0003378    -0.0002002    0.0001229     0.0009298    0.0003248 
   0.086471611     0.1325130   -0.7779112     0.0004484    0.0001812     0.0003016   -0.0001732     0.0005761    0.0002482 
   0.086571636     0.1247359   -0.7849671     0.0002078   -0.0004464    -0.0000116   -0.0000106     0.0003401    0.0002211 
   0.086671661     0.1118243   -0.7788540     0.0002386   -0.0001700     0.0000603    0.0000336     0.0006392    0.0001133 
   0.086771686     0.1002196   -0.7796177    -0.0001475    0.0000815     0.0001046    0.0000702     0.0005219    0.0000484 
   0.086871711     0.0894358   -0.7821066     0.0000631    0.0001146    -0.0000665    0.0000493     0.0004509   -0.0002840 
   0.086971736     0.0734357   -0.7770464     0.0002908   -0.0006619     0.0000952    0.0000459     0.0008167   -0.0006061 
   0.087071761     0.0695013   -0.7765543     0.0000175    0.0000349    -0.0000643    0.0003017     0.0004889   -0.0001894 
   0.087171786     0.0463115   -0.7804781    -0.0004163    0.0000422     0.0000393    0.0001830     0.0004673    0.0003832 
   0.087271811     0.0447342   -0.7778752     0.0000897    0.0002240     0.0001761    0.0001742     0.0007192   -0.0002500 
   0.087371836     0.0257001   -0.7707873     0.0001582   -0.0000189     0.0000570    0.0000560     0.0004401    0.0001477 
   0.087471861     0.0138290   -0.7741391    -0.0005780   -0.0001073     0.0002166   -0.0000988     0.0003214   -0.0002891 
   0.087571886     0.0049752   -0.7743410     0.0002511    0.0002950    -0.0000361   -0.0000794     0.0004524    0.0001077 
   0.087671911    -0.0043129   -0.7692562     0.0001350   -0.0000451     0.0000791   -0.0000157     0.0006376    0.0000342 
   0.087771936    -0.0203449   -0.7598059    -0.0002535   -0.0001070     0.0000772    0.0000989     0.0008329    0.0002650 
   0.087871961    -0.0351453   -0.7663273     0.0005077    0.0000297     0.0002086   -0.0002311     0.0010589    0.0001976 
   0.087971986    -0.0443390   -0.7578584     0.0002684    0.0001076     0.0002336   -0.0001431     0.0005517    0.0005282 
   0.088072011    -0.0567407   -0.7522921     0.0003733    0.0000702     0.0000561    0.0000374     0.0003053   -0.0003435 
   0.088172036    -0.0684565   -0.7519639    -0.0003592   -0.0002093     0.0000181   -0.0000165     0.0008340    0.0004251 
   0.088272061    -0.0784961   -0.7472384     0.0003319    0.0001051    -0.0000430   -0.0000881     0.0010211    0.0000825 
   0.088372086    -0.0942306   -0.7403123     0.0003228   -0.0001577     0.0000476   -0.0001740     0.0003592   -0.0005043 
   0.088472111    -0.1035841   -0.7386766     0.0006503    0.0001366    -0.0000347   -0.0001519     0.0006269    0.0000992 
   0.088572136    -0.1154218   -0.7368081    -0.0001923    0.0002929     0.0000862   -0.0000522     0.0005173    0.0000292 
   0.088672161    -0.1292909   -0.7290194     0.0001440    0.0003874    -0.0000523    0.0000308     0.0006139    0.0005635 
   0.088772186    -0.1419689   -0.7254723     0.0004766    0.0001727    -0.0000663    0.0000287     0.0008000    0.0005654 
   0.088872211    -0.1519398   -0.7166969     0.0002845    0.0003067     0.0000614    0.0000437     0.0009928    0.0002198 
   0.088972236    -0.1649956   -0.7105699     0.0000241    0.0000508     0.0000561    0.0000592     0.0010879    0.0002138 
   0.089072261    -0.1730387   -0.7016678     0.0000648    0.0002893    -0.0002212    0.0002030     0.0003780    0.0002684 
   0.089172286    -0.1901108   -0.7015146     0.0000678   -0.0000578    -0.0000045    0.0000852     0.0007679   -0.0003099 
   0.089272311    -0.2017117   -0.6935263    -0.0000259   -0.0003989     0.0000313    0.0000069     0.0005484   -0.0002890 
   0.089372336    -0.2122086   -0.6850062    -0.0002635   -0.0001674    -0.0000747   -0.0000470     0.0006467   -0.0003527 
   0.089472361    -0.2222768   -0.6802594    -0.0000448    0.0000503     0.0000496    0.0001219     0.0010329   -0.0002791 
   0.089572386    -0.2410316   -0.6725981    -0.0001292   -0.0000543    -0.0000950   -0.0000139     0.0005404    0.0003591 
   0.089672411    -0.2526363   -0.6616196    -0.0001942   -0.0000872    -0.0000637   -0.0000250     0.0008331    0.0003639 
   0.089772436    -0.2630830   -0.6542562    -0.0002487    0.0000456    -0.0001054   -0.0001070     0.0007124    0.0002920 
   0.089872461    -0.2727298   -0.6465626    -0.0000436   -0.0002916    -0.0001026    0.0000793     0.0009115    0.0004856 
   0.089972486    -0.2830888   -0.6421350    -0.0000545   -0.0003071    -0.0000919   -0.0000491     0.0012273   -0.0001871 
   0.090072511    -0.2957923   -0.6302178     0.0001943   -0.0002982    -0.0000917    0.0000602     0.0006268   -0.0001812 
   0.090172536    -0.3084925   -0.6201622     0.0000574   -0.0001779     0.0000515   -0.0000588     0.0009675    0.0003313 
   0.090272561    -0.3199843   -0.6102306     0.0001172   -0.0002495    -0.0000561   -0.0000824     0.0009303   -0.0001882 
   0.090372586    -0.3315095   -0.5979108    -0.0003031   -0.0000935     0.0000307    0.0001760     0.0001325    0.0001975 
   0.090472611    -0.3423582   -0.5861531    -0.0001372   -0.0000603    -0.0001120   -0.0000105     0.0006950    0.0001435 
   0.090572636    -0.3543037   -0.5752963     0.0001048   -0.0000939    -0.0000667    0.0000329     0.0008928   -0.0002425 
   0.090672661    -0.3629750   -0.5642461     0.0000738   -0.0000813    -0.0001446    0.0000710     0.0010394    0.0004331 
   0.090772686    -0.3758718   -0.5516179    -0.0002210    0.0002027    -0.0000252   -0.0000380     0.0008709    0.0006870 
   0.090872711    -0.3834549   -0.5391970    -0.0000576    0.0001030    -0.0000766   -0.0001480     0.0007259   -0.0001926 
   0.090972736    -0.3947952   -0.5253397    -0.0000221   -0.0002744    -0.0000363   -0.0000190     0.0009079    0.0000945 
   0.091072761    -0.4041861   -0.5132266    -0.0001740    0.0000060     0.0000412   -0.0000060     0.0005024    0.0004058 
   0.091172786    -0.4133048   -0.4985207    -0.0001040    0.0000318     0.0000096   -0.0000067     0.0005532   -0.0001849 
   0.091272811    -0.4244429   -0.4855651     0.0001197   -0.0001151    -0.0001308    0.0000328     0.0005269   -0.0000797 
   0.091372836    -0.4324993   -0.4689306     0.0001546   -0.0001821    -0.0000420   -0.0000059     0.0004688    0.0003525 
   0.091472861    -0.4425667   -0.4514058    -0.0002204   -0.0002896     0.0000806   -0.0000622     0.0010464   -0.0001818 
   0.091572886    -0.4514086   -0.4376862     0.0002062   -0.0000328    -0.0001328    0.0000282     0.0007241    0.0000477 
   0.091672911    -0.4612162   -0.4183061     0.0001996   -0.0000200     0.0001238   -0.0000229     0.0005115    0.0002538 
   0.091772936    -0.4690730   -0.4028015    -0.0000388    0.0000646    -0.0000813    0.0000250     0.0007297   -0.0001722 
   0.091872961    -0.4795478   -0.3853833     0.0001885    0.0003123     0.0000218    0.0000828     0.0010099   -0.0003630 
   0.091972986    -0.4833004   -0.3711832     0.0000859   -0.0000606     0.0000667   -0.0000591     0.0007020   -0.0003930 
   0.092073012    -0.4897801   -0.3496424     0.0000907    0.0000019    -0.0000578   -0.0000554     0.0007570    0.0001306 
   0.092173037    -0.4965135   -0.3295980     0.0003179   -0.0000084     0.0000642    0.0000571     0.0005077    0.0001910 
   0.092273062    -0.5046110   -0.3107134    -0.0000482   -0.0002511    -0.0000357   -0.0000057     0.0011174    0.0001723 
   0.092373087    -0.5073665   -0.2915571    -0.0000464    0.0003844     0.0000957    0.0001420     0.0002650    0.0002139 
   0.092473112    -0.5127600   -0.2672421    -0.0000283   -0.0001731    -0.0000362   -0.0000249     0.0011058    0.0004220 
   0.092573137    -0.5166952   -0.2493614    -0.0001399   -0.0000349     0.0001282   -0.0000880     0.0008175   -0.0002044 
   0.092673162    -0.5217349   -0.2258174     0.0001369    0.0000446    -0.0000465    0.0000452     0.0004524    0.0000904 
   0.092773187    -0.5253329   -0.2021589     0.0002873    0.0001614     0.0000063   -0.0000440     0.0008631    0.0001656 
   0.092873212    -0.5266275   -0.1813690    -0.0001221    0.0002036     0.0000955    0.0000327     0.0010219    0.0001175 
   0.092973237    -0.5277646   -0.1587995     0.0001567    0.0001791    -0.0000098    0.0000440     0.0004436    0.0001916 
   0.093073262    -0.5272229   -0.1343502     0.0000341   -0.0001155    -0.0001263   -0.0000740     0.0002067    0.0005176 
   0.093173287    -0.5263112   -0.1091865    -0.0001348   -0.0000645     0.0000112    0.0000442     0.0004209    0.0009345 
   0.093273312    -0.5256088   -0.0872006    -0.0003046   -0.0000133    -0.0000408    0.0000647     0.0007512    0.0004866 
   0.093373337    -0.5206669   -0.0602207    -0.0002794   -0.0003901     0.0000999   -0.0000235     0.0006597    0.0000045 
   0.093473362    -0.5185590   -0.0363227    -0.0001532   -0.0001471    -0.0001313    0.0000109     0.0007373    0.0000508 
   0.093573387    -0.5149731   -0.0105420    -0.0000669    0.0001345     0.0001674   -0.0000924     0.0009339   -0.0001450 
   0.093673412    -0.5076100    0.0164391    -0.0000857    0.0000961     0.0001297    0.0000593     0.0006454    0.0002710 
   0.093773437    -0.5016381    0.0375140    -0.0002365   -0.0000570     0.0000069    0.0001253     0.0002164    0.0002489 
   0.093873462    -0.4941457    0.0644286     0.0000289    0.0000272     0.0001436    0.0000145     0.0003463    0.0002188 
   0.093973487    -0.4860092    0.0914754     0.0002314    0.0000927     0.0001054    0.0001407     0.0003063    0.0001692 
   0.094073512    -0.4768128    0.1176820    -0.0000254    0.0000115     0.0001266    0.0000419     0.0007028    0.0002653 
   0.094173537    -0.4643589    0.1437348     0.0003274   -0.0002278    -0.0000689    0.0000175     0.0002937    0.0003439 
   0.094273562    -0.4513941    0.1677434    -0.0000804   -0.0003592     0.0002581    0.0000642     0.0008805    0.0000969 
   0.094373587    -0.4360434    0.1925779    -0.0000884   -0.0003348     0.0000401    0.0001472     0.0010246    0.0005335 
   0.094473612    -0.4201626    0.2201608     0.0001398    0.0002561    -0.0001804    0.0000197     0.0005836    0.0003329 
   0.094573637    -0.4040094    0.2440140    -0.0001279   -0.0002114     0.0000126    0.0000655     0.0006289    0.0001350 
   0.094673662    -0.3854173    0.2662905     0.0002714    0.0000801    -0.0000668    0.0000676     0.0007623    0.0000601 
   0.094773687    -0.3652302    0.2897139    -0.0000859   -0.0002875     0.0001459   -0.0001987     0.0003285    0.0000865 
   0.094873712    -0.3421776    0.3141506     0.0000022   -0.0001268     0.0000389   -0.0000931     0.0006007    0.0002242 
   0.094973737    -0.3209611    0.3342486     0.0004490    0.0001079    -0.0000551    0.0000701     0.0007047    0.0004836 
   0.095073762    -0.2956213    0.3564351     0.0002531   -0.0000511     0.0000905   -0.0000213     0.0011997    0.0009461 
   0.095173787    -0.2712730    0.3752873     0.0004628   -0.0000143     0.0000715   -0.0000919     0.0009866    0.0004034 
   0.095273812    -0.2442515    0.3964001     0.0001346   -0.0001262    -0.0000122   -0.0001623     0.0009797   -0.0000627 
   0.095373837    -0.2174167    0.4144614     0.0003703   -0.0000933    -0.0001201    0.0000766     0.0004858    0.0001883 
   0.095473862    -0.1906781    0.4286474    -0.0002000   -0.0002969     0.0002493   -0.0000920     0.0008582    0.0003057 
   0.095573887    -0.1594860    0.4453677     0.0000823    0.0004134     0.0002099   -0.0001830     0.0006959   -0.0000607 
   0.095673912    -0.1263249    0.4595880     0.0000651   -0.0003613     0.0001005    0.0000883     0.0007926    0.0002025 
   0.095773937    -0.0948293    0.4694130     0.0001438    0.0000018     0.0000189   -0.0001395     0.0007376    0.0000391 
   0.095873962    -0.0614966    0.4783433    -0.0002835    0.0002543    -0.0000314   -0.0001179     0.0009318    0.0004020 
   0.095973987    -0.0292568    0.4881621    -0.0001506    0.0000550     0.0003373    0.0000431     0.0007334    0.0005342 
   0.096074012     0.0030779    0.4923906     0.0006291   -0.0000297     0.0002033    0.0001460     0.0009017    0.0002652 
   0.096174037     0.0380406    0.4976207    -0.0001496    0.0004733     0.0001346   -0.0002096     0.0006170    0.0002420 
   0.096274062     0.0721103    0.5017070     0.0000703   -0.0003415    -0.0000745    0.0000784     0.0008527    0.0005817 
   0.096374087     0.1073114    0.5004137    -0.0000492    0.0003294     0.0001270    0.0000139     0.0009185   -0.0001139 
   0.096474112     0.1425733    0.5027532    -0.0000439   -0.0000916     0.0003513    0.0002001     0.0009562    0.0006142 
   0.096574137     0.1738975    0.5030051     0.0006130    0.0003575     0.0001758    0.0001653     0.0005823    0.0003036 
   0.096674162     0.2074708    0.4939488    -0.0002316   -0.0001889    -0.0001756   -0.0001675     0.0008217    0.0005030 
   0.096774187     0.2418410    0.4922961    -0.0008200   -0.0006840    -0.0001713    0.0001006     0.0003726    0.0002890 
   0.096874212     0.2778222    0.4796303    -0.0002544   -0.0000437    -0.0000145    0.0000379     0.0008742    0.0003294 
   0.096974237     0.3127355    0.4694854     0.0004994    0.0000549     0.0001477    0.0000582     0.0010738    0.0004409 
   0.097074262     0.3440938    0.4579971    -0.0001466   -0.0004554    -0.0002268    0.0001854     0.0008728    0.0003447 
   0.097174287     0.3742247    0.4452572    -0.0000022   -0.0001899    -0.0001184    0.0001209     0.0005024   -0.0000053 
   0.097274312     0.4001845    0.4314146     0.0003039    0.0001897     0.0002672    0.0000039     0.0006320    0.0004697 
   0.097374337     0.4312029    0.4185310     0.0001304    0.0001542    -0.0001075    0.0002110     0.0009036    0.0000696 
   0.097474362     0.4603247    0.3981465    -0.0001110    0.0001027    -0.0000822    0.0000428     0.0006390    0.0002303 
   0.097574387     0.4840505    0.3823780     0.0002011    0.0002661     0.0000673    0.0000639     0.0006567    0.0003253 
   0.097674412     0.5160437    0.3613910     0.0001989    0.0000600     0.0002463    0.0002803     0.0003470    0.0006995 
   0.097774437     0.5350434    0.3461976    -0.0000573   -0.0003510    -0.0002503   -0.0000541     0.0007691    0.0006209 
   0.097874462     0.5547117    0.3172235     0.0004943   -0.0005775    -0.0000247   -0.0000893     0.0009080    0.0004300 
   0.097974487     0.5816349    0.3024885     0.0002802   -0.0001301     0.0001312    0.0000079     0.0007522    0.0002468 
   0.098074512     0.5972295    0.2739639     0.0004553   -0.0001148    -0.0001642    0.0002551     0.0005846    0.0004007 
   0.098174537     0.6179923    0.2483511    -0.0004074    0.0010674     0.0001960    0.0001072     0.0007103    0.0007261 
   0.098274562     0.6334682    0.2249952    -0.0001053   -0.0003163    -0.0003524    0.0003544     0.0007899    0.0006286 
   0.098374587     0.6466812    0.2037910    -0.0002200   -0.0000469    -0.0000554   -0.0003532     0.0006520   -0.0000417 
   0.098474612     0.6637120    0.1770901    -0.0001450   -0.0004472    -0.0001213    0.0001931     0.0011097    0.0003093 
   0.098574637     0.6816421    0.1462330    -0.0002461   -0.0001882     0.0001283   -0.0000383     0.0010086    0.0003206 
   0.098674662     0.6925763    0.1238987     0.0001379   -0.0002583     0.0000901   -0.0001854     0.0007652   -0.0004448 
   0.098774687     0.6990346    0.0932972     0.0000863    0.0000194    -0.0000436    0.0002293     0.0008122    0.0001461 
   0.098874712     0.7087663    0.0680133     0.0006440   -0.0004756    -0.0001466    0.0000985     0.0013578    0.0001210 
   0.098974737     0.7185813    0.0440137     0.0004067   -0.0002910    -0.0000434   -0.0001299     0.0010073    0.0009631 
   0.099074762     0.7238199    0.0168741    -0.0001585    0.0000455    -0.0001121    0.0001344     0.0009152    0.0001130 
   0.099174787     0.7311428   -0.0060252     0.0002285   -0.0001674     0.0001054    0.0001007     0.0011368    0.0002662 
   0.099274812     0.7382467   -0.0294889     0.0000532   -0.0000240    -0.0000251    0.0000605     0.0009475    0.0003848 
   0.099374837     0.7384271   -0.0554341     0.0001753    0.0001299    -0.0001178   -0.0000745     0.0010236    0.0004908 
   0.099474862     0.7453344   -0.0815506    -0.0001099   -0.0001586     0.0000131   -0.0003858     0.0006469    0.0003279 
   0.099574887     0.7406565   -0.1042587     0.0004285    0.0002211    -0.0000033    0.0000790     0.0011207    0.0007035 
   0.099674912     0.7402514   -0.1302644     0.0000749   -0.0000250     0.0000171    0.0001022     0.0009413    0.0004099 
   0.099774937     0.7459092   -0.1552697     0.0002969   -0.0001224     0.0001963    0.0000700     0.0009106    0.0001867 
   0.099874962     0.7425369   -0.1763178    -0.0002177   -0.0002540     0.0002255    0.0003146     0.0007322    0.0001619 
   0.099974987     0.7396072   -0.2023157    -0.0000534    0.0000953    -0.0002216    0.0000521     0.0006619    0.0001317 
   0.100075013     0.7408298   -0.2208989     0.0001990    0.0002475    -0.0000478    0.0000523     0.0005953    0.0002393 
   0.100175038     0.7321112   -0.2412001    -0.0002801    0.0002522     0.0000080   -0.0001178     0.0007329    0.0000393 
   0.100275063     0.7298372   -0.2693776    -0.0001027    0.0001951     0.0001422    0.0001116     0.0004913    0.0004692 
   0.100375088     0.7256512   -0.2883383    -0.0000928   -0.0002668     0.0000841   -0.0000024     0.0009511    0.0001668 
   0.100475113     0.7172781   -0.3099876     0.0001611    0.0001653     0.0000695    0.0000781     0.0003969    0.0007296 
   0.100575138     0.7154186   -0.3231078     0.0000586    0.0000678    -0.0000879    0.0000129     0.0008726    0.0004126 
   0.100675163     0.7083192   -0.3459306    -0.0001247    0.0000379    -0.0002855    0.0001303     0.0006373    0.0006016 
   0.100775188     0.6990136   -0.3660956    -0.0001336   -0.0001791     0.0001646   -0.0002194     0.0006524    0.0002694 
   0.100875213     0.6943182   -0.3853736    -0.0002173    0.0001906    -0.0000846    0.0001576     0.0009412    0.0004737 
   0.100975238     0.6821061   -0.3995719     0.0001260    0.0000233    -0.0000402    0.0001837     0.0003171   -0.0001169 
   0.101075263     0.6741866   -0.4201654     0.0001417    0.0006810     0.0001237    0.0001313     0.0006444   -0.0000788 
   0.101175288     0.6665642   -0.4333982    -0.0001249    0.0004967     0.0000575   -0.0000874     0.0010376    0.0001631 
   0.101275313     0.6543243   -0.4502411     0.0002238    0.0001072    -0.0000751   -0.0000074     0.0003657    0.0005824 
   0.101375338     0.6476852   -0.4657412     0.0003620   -0.0001731     0.0000984   -0.0002021     0.0008030    0.0002266 
   0.101475363     0.6373798   -0.4838063     0.0000768    0.0000626     0.0001250   -0.0001695     0.0005398    0.0002881 
   0.101575388     0.6266248   -0.5005530     0.0002029    0.0001349     0.0000246   -0.0000150     0.0006527    0.0004605 
   0.101675413     0.6204648   -0.5115231    -0.0004126   -0.0000749     0.0001826   -0.0000131     0.0011220    0.0004256 
   0.101775438     0.6072631   -0.5251212     0.0002139    0.0000893    -0.0002032   -0.0001068     0.0005542    0.0001792 
   0.101875463     0.5993072   -0.5346107    -0.0000937    0.0000271    -0.0000347    0.0000097     0.0008485    0.0005375 
   0.101975488     0.5809165   -0.5499325     0.0002915   -0.0001433    -0.0000181   -0.0001320     0.0006283    0.0002221 
   0.102075513     0.5734136   -0.5661787     0.0001257   -0.0000175    -0.0000329    0.0001709     0.0006029    0.0008992 
   0.102175538     0.5577793   -0.5796373     0.0002160   -0.0004399    -0.0000311   -0.0000823     0.0011821    0.0001109 
   0.102275563     0.5480278   -0.5890057     0.0001315    0.0000418    -0.0000893    0.0000563     0.0006814    0.0007452 
   0.102375588     0.5379038   -0.5998483    -0.0000654    0.0004220    -0.0000074   -0.0003163     0.0009811    0.0002394 
   0.102475613     0.5275337   -0.6048839    -0.0000421    0.0000131    -0.0000554   -0.0000206     0.0008611    0.0003424 
   0.102575638     0.5190381   -0.6160287     0.0000724   -0.0000929    -0.0000518    0.0001455     0.0006001    0.0003300 
   0.102675663     0.5036691   -0.6298198     0.0001938    0.0000235    -0.0000620   -0.0000266     0.0006928    0.0000961 
   0.102775688     0.4932349   -0.6420799     0.0000069   -0.0001531    -0.0000179    0.0000765     0.0007486    0.0004428 
   0.102875713     0.4859033   -0.6444748    -0.0000856    0.0003009     0.0000148    0.0000745     0.0009101    0.0006363 
   0.102975738     0.4703046   -0.6585578    -0.0000671   -0.0001675     0.0000751    0.0000356     0.0009563    0.0004028 
   0.103075763     0.4530936   -0.6719967    -0.0002165   -0.0000457    -0.0000923   -0.0001649     0.0007420    0.0005468 
   0.103175788     0.4410253   -0.6734502     0.0000698   -0.0001536     0.0000391   -0.0000162     0.0004126    0.0001319 
   0.103275813     0.4283036   -0.6783749     0.0000749    0.0000600     0.0001705   -0.0000676     0.0007308    0.0009120 
   0.103375838     0.4202770   -0.6894869     0.0001853   -0.0000072    -0.0000897    0.0000714     0.0006003    0.0006073 
   0.103475863     0.4043403   -0.6925265     0.0001515    0.0000611     0.0000519    0.0001235     0.0005424    0.0004674 
   0.103575888     0.3916241   -0.7021044    -0.0000549   -0.0002667    -0.0000104    0.0000194     0.0006082    0.0007414 
   0.103675913     0.3801669   -0.7081218    -0.0001248   -0.0001556    -0.0000974    0.0001298     0.0011630    0.0003420 
   0.103775938     0.3683890   -0.7162386     0.0002023    0.0000174    -0.0000078   -0.0000721     0.0009508    0.0002347 
   0.103875963     0.3568985   -0.7143328    -0.0002303   -0.0000333    -0.0000484    0.0000507     0.0007372    0.0001248 
   0.103975988     0.3429033   -0.7264840     0.0001283   -0.0001854     0.0001245   -0.0001983     0.0002644    0.0003903 
   0.104076013     0.3319230   -0.7290978    -0.0000573   -0.0000619     0.0000249   -0.0001264     0.0007479    0.0004441 
   0.104176038     0.3196286   -0.7347413    -0.0001321    0.0000372     0.0000289    0.0000461     0.0008959    0.0002322 
   0.104276063     0.3016635   -0.7390947     0.0000952    0.0000092     0.0000559    0.0001260     0.0007853    0.0002605 
   0.104376088     0.2894412   -0.7391315    -0.0000528   -0.0000078    -0.0000669    0.0000255     0.0004564    0.0002932 
   0.104476113     0.2756485   -0.7449724    -0.0001849   -0.0001413     0.0000197   -0.0001070     0.0004366    0.0005518 
   0.104576138     0.2633253   -0.7474245    -0.0000694   -0.0000199    -0.0001040    0.0000603     0.0006204    0.0004857 
   0.104676163     0.2479805   -0.7495781    -0.0000115   -0.0002188     0.0000084   -0.0000196     0.0005712    0.0005921 
   0.104776188     0.2378607   -0.7567649    -0.0001203    0.0000145     0.0000962    0.0000336     0.0005756    0.0005804 
   0.104876213     0.2216056   -0.7588231     0.0000489   -0.0000536     0.0000647    0.0000134     0.0014603    0.0007153 
   0.104976238     0.2134099   -0.7585727     0.0000263    0.0000683     0.0001060   -0.0000569     0.0008060    0.0001956 
   0.105076263     0.1988935   -0.7632086    -0.0001016   -0.0000314     0.0000008    0.0000995     0.0007573    0.0006292 
   0.105176288     0.1888284   -0.7632632    -0.0002874    0.0000239    -0.0000585    0.0001154     0.0009994    0.0000042 
   0.105276313     0.1731045   -0.7654955     0.0000451    0.0000148     0.0001473    0.0000603     0.0004958    0.0001838 
   0.105376338     0.1622374   -0.7673150    -0.0000404    0.0000040    -0.0000026    0.0001331     0.0006785    0.0007605 
   0.105476363     0.1462517   -0.7688851     0.0000481    0.0001283     0.0000546    0.0001232     0.0010879    0.0005230 
   0.105576388     0.1371881   -0.7679777     0.0001088   -0.0000290     0.0000216    0.0000593     0.0009540    0.0008614 
   0.105676413     0.1275140   -0.7716476    -0.0000664    0.0000032    -0.0000265    0.0000245     0.0009842    0.0004887 
   0.105776438     0.1108913   -0.7680876    -0.0001876    0.0001625     0.0000772   -0.0000996     0.0003100    0.0008278 
   0.105876463     0.0939904   -0.7698839    -0.0000905    0.0000111     0.0000132   -0.0000442     0.0007467    0.0009598 
   0.105976488     0.0805953   -0.7681636     0.0000923    0.0000165     0.0000271   -0.0000138     0.0006781    0.0005956 
   0.106076513     0.0690348   -0.7689972    -0.0000994   -0.0000871     0.0000466   -0.0000285     0.0008132    0.0004875 
   0.106176538     0.0556406   -0.7713301     0.0001373   -0.0000919     0.0000133    0.0000374     0.0005690    0.0005760 
   0.106276563     0.0466904   -0.7680051     0.0000953   -0.0000169     0.0000394   -0.0000252     0.0006908    0.0005384 
   0.106376588     0.0341283   -0.7647391    -0.0000100    0.0000309     0.0000906   -0.0000610     0.0005346    0.0008903 
   0.106476613     0.0210550   -0.7659534    -0.0001529   -0.0000522     0.0000726   -0.0000116     0.0008857    0.0004535 
   0.106576638     0.0091612   -0.7627348     0.0002201   -0.0000702    -0.0000822   -0.0000246     0.0006157    0.0008405 
   0.106676663    -0.0009868   -0.7621152     0.0000183   -0.0001884     0.0000028   -0.0000496     0.0007516    0.0005319 
   0.106776688    -0.0180386   -0.7594000    -0.0001425   -0.0000933    -0.0000636    0.0000248     0.0004930    0.0003902 
   0.106876713    -0.0303917   -0.7571724    -0.0000581   -0.0000383     0.0000494    0.0000253     0.0002294    0.0004248 
   0.106976738    -0.0407412   -0.7545000    -0.0000048   -0.0000399     0.0000510   -0.0000149     0.0013265    0.0001212 
   0.107076763    -0.0558654   -0.7515996    -0.0001073   -0.0002530    -0.0000439   -0.0000571     0.0006590    0.0005627 
   0.107176788    -0.0667687   -0.7459833    -0.0003241   -0.0002024     0.0000850   -0.0000045     0.0008768    0.0007043 
   0.107276813    -0.0770681   -0.7455695    -0.0000972   -0.0001427    -0.0000024    0.0000014     0.0005423    0.0004910 
   0.107376838    -0.0903741   -0.7386903     0.0000585   -0.0000246     0.0000238   -0.0001138     0.0004150    0.0005515 
   0.107476863    -0.1056378   -0.7348082     0.0001670   -0.0001849    -0.0000753    0.0000474     0.0008334    0.0002692 
   0.107576888    -0.1118891   -0.7330846     0.0001463   -0.0001421     0.0000692    0.0000878     0.0007518    0.0002189 
   0.107676913    -0.1285856   -0.7287589     0.0001561   -0.0000217     0.0000218   -0.0000286     0.0007440    0.0009738 
   0.107776938    -0.1414904   -0.7218329     0.0003232    0.0000182    -0.0001251    0.0000375     0.0007525    0.0001500 
   0.107876963    -0.1523954   -0.7152651    -0.0000534    0.0001001    -0.0000739    0.0000251     0.0006944    0.0004833 
   0.107976988    -0.1620840   -0.7103442    -0.0001239    0.0001536    -0.0001399    0.0000317     0.0007835    0.0004080 
   0.108077014    -0.1764728   -0.7085832     0.0001420    0.0001723    -0.0000135   -0.0000025     0.0005713    0.0008648 
   0.108177039    -0.1873399   -0.6988848    -0.0000514    0.0000100     0.0000547   -0.0001011     0.0006817    0.0006083 
   0.108277064    -0.1992742   -0.6947349     0.0001179   -0.0001586     0.0000623   -0.0000369     0.0010348    0.0006982 
   0.108377089    -0.2095886   -0.6839239    -0.0000478    0.0000156    -0.0001630    0.0000301     0.0006268    0.0005374 
   0.108477114    -0.2260230   -0.6782783    -0.0003943    0.0000110     0.0000589   -0.0000023     0.0004409    0.0007988 
   0.108577139    -0.2351127   -0.6721689    -0.0001110    0.0002186     0.0000682   -0.0000115     0.0005516    0.0000459 
   0.108677164    -0.2451132   -0.6654869     0.0002469   -0.0001851     0.0000587    0.0000384     0.0004353    0.0003328 
   0.108777189    -0.2561097   -0.6582564     0.0000486   -0.0001406    -0.0000109   -0.0000193     0.0006135    0.0006468 
   0.108877214    -0.2691892   -0.6536332    -0.0001138   -0.0001177    -0.0000131   -0.0000349     0.0007587    0.0002532 
   0.108977239    -0.2802660   -0.6446924    -0.0001686   -0.0000092    -0.0000906   -0.0000829     0.0011046    0.0008286 
   0.109077264    -0.2883683   -0.6338992    -0.0001802   -0.0000190     0.0001051   -0.0000790     0.0010188    0.0007923 
   0.109177289    -0.3024155   -0.6245196    -0.0000657   -0.0002747    -0.0001077    0.0001174     0.0006719    0.0003499 
   0.109277314    -0.3132795   -0.6180673     0.0002305   -0.0001518     0.0000174    0.0001283     0.0010476    0.0005745 
   0.109377339    -0.3234214   -0.6059008    -0.0000597   -0.0000367    -0.0000115   -0.0000228     0.0005971    0.0001467 
   0.109477364    -0.3322553   -0.5995446     0.0001055    0.0001855    -0.0000216   -0.0000411     0.0006552    0.0002297 
   0.109577389    -0.3458515   -0.5891957    -0.0000123   -0.0000366     0.0000422   -0.0000735     0.0004077    0.0001330 
   0.109677414    -0.3551091   -0.5798634     0.0000093    0.0000434     0.0001090   -0.0000973     0.0008637    0.0004264 
   0.109777439    -0.3653069   -0.5673611     0.0000050    0.0002655     0.0000037   -0.0000598     0.0006642    0.0010456 
   0.109877464    -0.3749540   -0.5560450     0.0000918   -0.0000026    -0.0000725   -0.0000302     0.0005254    0.0002950 
   0.109977489    -0.3873495   -0.5461099     0.0002315   -0.0002650     0.0001037   -0.0000127     0.0009642    0.0003421 
   0.110077514    -0.3926415   -0.5301011    -0.0000834    0.0000188     0.0001231    0.0000821     0.0006150    0.0000954 
   0.110177539    -0.4044143   -0.5193079    -0.0000674   -0.0001314    -0.0000348    0.0000105     0.0007334    0.0006757 
   0.110277564    -0.4133223   -0.5074331    -0.0002285   -0.0002928     0.0000810   -0.0000662     0.0007503    0.0006083 
   0.110377589    -0.4233522   -0.4944264    -0.0001734   -0.0000913     0.0000079   -0.0000294     0.0004267    0.0007622 
   0.110477614    -0.4330008   -0.4831408    -0.0000304    0.0000166    -0.0000240   -0.0000388     0.0009520    0.0007432 
   0.110577639    -0.4384775   -0.4692010     0.0002070   -0.0000195     0.0000046   -0.0001195     0.0004962    0.0007219 
   0.110677664    -0.4483108   -0.4541745     0.0001126   -0.0000177     0.0000583   -0.0000327     0.0004091    0.0010730 
   0.110777689    -0.4589742   -0.4416189    -0.0000603   -0.0002230     0.0000192    0.0001429     0.0005424    0.0007156 
   0.110877714    -0.4607259   -0.4279457     0.0000226   -0.0000169    -0.0001058    0.0000758     0.0006028    0.0007288 
   0.110977739    -0.4742599   -0.4142810    -0.0003154    0.0002308    -0.0000876   -0.0000798     0.0010567    0.0006370 
   0.111077764    -0.4805983   -0.3981661    -0.0000834    0.0001058     0.0000452    0.0000451     0.0003941    0.0000831 
   0.111177789    -0.4863436   -0.3809255     0.0000886    0.0001569    -0.0001204   -0.0000032     0.0000320    0.0008071 
   0.111277814    -0.4912386   -0.3692158    -0.0002826   -0.0001607    -0.0000805    0.0000459     0.0007242    0.0009842 
   0.111377839    -0.4988869   -0.3496989    -0.0002952    0.0000486    -0.0000082    0.0001020     0.0003885    0.0001006 
   0.111477864    -0.5044522   -0.3328018    -0.0001717    0.0002647     0.0001261   -0.0001271     0.0008470    0.0007838 
   0.111577889    -0.5110679   -0.3170976     0.0005472   -0.0001612    -0.0002513   -0.0000336     0.0005335    0.0009467 
   0.111677914    -0.5153998   -0.2992058     0.0001663    0.0000114     0.0000047   -0.0002281     0.0006692    0.0006658 
   0.111777939    -0.5186812   -0.2807898    -0.0001128    0.0000781     0.0001502   -0.0002602     0.0006833    0.0004655 
   0.111877964    -0.5303453   -0.2631986     0.0001260   -0.0000208     0.0001107    0.0000263     0.0003872    0.0006361 
   0.111977989    -0.5277909   -0.2448102     0.0001320   -0.0004058     0.0000402   -0.0000072     0.0007034    0.0009368 
   0.112078014    -0.5334025   -0.2232444     0.0001697    0.0001171    -0.0000008   -0.0000991     0.0008638    0.0008365 
   0.112178039    -0.5344241   -0.2060907    -0.0002125   -0.0004559     0.0000439    0.0001762     0.0004783    0.0006972 
   0.112278064    -0.5381722   -0.1859387    -0.0003076    0.0001906    -0.0000962   -0.0001264     0.0012105    0.0006569 
   0.112378089    -0.5367555   -0.1681640    -0.0000487   -0.0000812     0.0001586    0.0000949     0.0001363    0.0003122 
   0.112478114    -0.5390191   -0.1465782    -0.0000650   -0.0002568    -0.0001346   -0.0002622     0.0003303    0.0003176 
   0.112578139    -0.5373484   -0.1250261    -0.0000549   -0.0000320     0.0000628   -0.0001686     0.0006389    0.0009128 
   0.112678164    -0.5392093   -0.1067985    -0.0002399   -0.0002801    -0.0000428   -0.0001980     0.0004642    0.0002875 
   0.112778189    -0.5402964   -0.0830615    -0.0000573   -0.0001132    -0.0002241    0.0001494     0.0006314    0.0012087 
   0.112878214    -0.5344906   -0.0618324    -0.0000713    0.0002092    -0.0000639    0.0000098     0.0005197    0.0005040 
   0.112978239    -0.5330455   -0.0433663     0.0000758   -0.0000596     0.0002009   -0.0000504     0.0011655    0.0006256 
   0.113078264    -0.5302158   -0.0184109    -0.0001749    0.0003680    -0.0001635   -0.0003184     0.0006418    0.0005344 
   0.113178289    -0.5247111    0.0035418     0.0000935   -0.0004589     0.0000531    0.0002052     0.0007114    0.0004543 
   0.113278314    -0.5205995    0.0235734    -0.0001522   -0.0000798     0.0000744   -0.0000009     0.0005976    0.0005289 
   0.113378339    -0.5154292    0.0473810     0.0003132   -0.0002814     0.0000977    0.0000900     0.0008099    0.0007934 
   0.113478364    -0.5094123    0.0687673     0.0002778    0.0003736     0.0001953    0.0001354     0.0006808    0.0006200 
   0.113578389    -0.5011058    0.0923507    -0.0002327   -0.0002793    -0.0002894    0.0000198     0.0005610    0.0008614 
   0.113678414    -0.4890976    0.1142760    -0.0001966   -0.0004387    -0.0001025    0.0001007     0.0005342    0.0004994 
   0.113778439    -0.4775860    0.1366799     0.0000266    0.0002329    -0.0000438    0.0000511     0.0007598    0.0007160 
   0.113878464    -0.4694541    0.1609850     0.0001926    0.0003169    -0.0000921    0.0002162     0.0005209    0.0008156 
   0.113978489    -0.4606304    0.1805463     0.0000119   -0.0008194    -0.0002428    0.0000408     0.0007255    0.0006645 
   0.114078514    -0.4441951    0.2030453    -0.0002399    0.0004057     0.0000701   -0.0001988     0.0011381    0.0010175 
   0.114178539    -0.4325843    0.2243523     0.0002846   -0.0001202    -0.0001220    0.0002560     0.0005960    0.0007883 
   0.114278564    -0.4183461    0.2441386     0.0001156   -0.0003278     0.0000916   -0.0000675     0.0005538    0.0008099 
   0.114378589    -0.4011585    0.2649165    -0.0003614   -0.0002293    -0.0000746    0.0002667     0.0006182    0.0004836 
   0.114478614    -0.3847223    0.2860256     0.0000913   -0.0001829    -0.0000711    0.0000162     0.0003181    0.0005455 
   0.114578639    -0.3648264    0.3048298    -0.0000229   -0.0001932     0.0000872    0.0000802     0.0002855    0.0004071 
   0.114678664    -0.3477495    0.3268874     0.0000925    0.0000107     0.0000984   -0.0000499     0.0007479    0.0004196 
   0.114778689    -0.3271328    0.3458799     0.0001321   -0.0001261     0.0001271    0.0000882     0.0001731    0.0004111 
   0.114878714    -0.3053236    0.3645895     0.0002525   -0.0003916     0.0001173   -0.0000787     0.0002524    0.0003849 
   0.114978739    -0.2824468    0.3793548    -0.0001954    0.0000591     0.0001556   -0.0002246     0.0003309    0.0008283 
   0.115078764    -0.2589661    0.3982247     0.0002685    0.0003279    -0.0000275   -0.0001407     0.0009307    0.0009499 
   0.115178789    -0.2349518    0.4120121    -0.0002878    0.0002746     0.0000171    0.0000332     0.0004655    0.0002880 
   0.115278814    -0.2104345    0.4264149    -0.0001036   -0.0001987    -0.0000618    0.0002676     0.0006933    0.0008756 
   0.115378839    -0.1805089    0.4399948     0.0007152    0.0005885    -0.0003816   -0.0001673     0.0006332    0.0011265 
   0.115478864    -0.1527103    0.4496988    -0.0000677   -0.0003652     0.0000057   -0.0000970     0.0009424    0.0005430 
   0.115578889    -0.1315187    0.4638117     0.0002360    0.0002180     0.0001347   -0.0001014    -0.0000355    0.0008211 
   0.115678914    -0.0998154    0.4722421     0.0001910   -0.0004489    -0.0001278    0.0000406     0.0008891    0.0004148 
   0.115778939    -0.0720368    0.4829318     0.0003785   -0.0001522     0.0000683   -0.0002708     0.0003034    0.0010525 
   0.115878964    -0.0400977    0.4869237    -0.0000952   -0.0001162     0.0002473   -0.0001660     0.0004364    0.0003698 
   0.115978989    -0.0115170    0.4934710     0.0001953   -0.0003351    -0.0000288    0.0001349     0.0010745    0.0007125 
   0.116079015     0.0171784    0.4970416    -0.0001443   -0.0005671     0.0001937   -0.0001211     0.0006887    0.0001374 
   0.116179040     0.0509934    0.5003681    -0.0003673   -0.0005403    -0.0000969    0.0000113     0.0002093    0.0002511 
   0.116279065     0.0814214    0.5000923     0.0001164    0.0000684    -0.0001289    0.0001167     0.0009607    0.0009645 
   0.116379090     0.1113256    0.5000643     0.0004144    0.0000316     0.0000156    0.0001423     0.0008399    0.0006973 
   0.116479115     0.1422758    0.5010378    -0.0001448    0.0000530     0.0001856   -0.0000972     0.0010062    0.0004600 
   0.116579140     0.1720439    0.4960938     0.0001468   -0.0002852     0.0002156   -0.0000412     0.0007178    0.0009817 
   0.116679165     0.2064645    0.4921343    -0.0002909   -0.0002533     0.0002130   -0.0001327     0.0000475    0.0003143 
   0.116779190     0.2364935    0.4879794     0.0003640    0.0003602    -0.0001041    0.0000460     0.0003562    0.0002323 
   0.116879215     0.2650431    0.4757194    -0.0002198   -0.0004094     0.0001297    0.0001870     0.0004891    0.0008076 
   0.116979240     0.2953082    0.4665537    -0.0001906    0.0002543    -0.0000040   -0.0000865     0.0004972    0.0009950 
   0.117079265     0.3230422    0.4587266     0.0001323   -0.0000813    -0.0001454    0.0001426     0.0007275    0.0005481 
   0.117179290     0.3531588    0.4440138     0.0001558   -0.0001079    -0.0001421   -0.0000191     0.0003612    0.0004413 
   0.117279315     0.3832890    0.4286944     0.0001065   -0.0001490    -0.0002862   -0.0001888     0.0011134    0.0008947 
   0.117379340     0.4085520    0.4141330    -0.0001012   -0.0000936     0.0001891    0.0001146     0.0006880    0.0011474 
   0.117479365     0.4387825    0.3972362     0.0001171   -0.0006143    -0.0000508    0.0000657     0.0007245    0.0005784 
   0.117579390     0.4601665    0.3774552    -0.0000166   -0.0002062    -0.0001439   -0.0001294     0.0008188    0.0007002 
   0.117679415     0.4840539    0.3619999    -0.0000497    0.0000867    -0.0000775    0.0000408     0.0002507    0.0008410 
   0.117779440     0.5047002    0.3433740     0.0000586   -0.0003716    -0.0000951    0.0001468     0.0009650    0.0004827 
   0.117879465     0.5286279    0.3204920     0.0002481   -0.0001339    -0.0000168   -0.0000896     0.0006718    0.0005196 
   0.117979490     0.5503606    0.2999499    -0.0000899    0.0000939    -0.0000304   -0.0000833     0.0008139    0.0003488 
   0.118079515     0.5685877    0.2816765     0.0001079   -0.0000464     0.0001414   -0.0000443     0.0006225    0.0007570 
   0.118179540     0.5903559    0.2562074     0.0002568    0.0001664     0.0001878   -0.0000495     0.0009479    0.0008677 
   0.118279565     0.6025047    0.2310062    -0.0002321   -0.0000458    -0.0000303    0.0002141     0.0002792    0.0008301 
   0.118379590     0.6233492    0.2099699    -0.0002831    0.0000567     0.0000169    0.0001362     0.0000862    0.0008516 
   0.118479615     0.6371993    0.1817802    -0.0001396    0.0001201     0.0000398    0.0000647     0.0002580    0.0004451 
   0.118579640     0.6471111    0.1601333    -0.0001595   -0.0000269     0.0000754    0.0000591     0.0009552    0.0010863 
   0.118679665     0.6612860    0.1340072    -0.0000011   -0.0000890    -0.0000172   -0.0000808     0.0002120    0.0008959 
   0.118779690     0.6717834    0.1063111     0.0000581    0.0000376    -0.0000379    0.0000744     0.0008837    0.0004396 
   0.118879715     0.6819101    0.0825733     0.0001624   -0.0001991     0.0001029    0.0001005     0.0000845    0.0006721 
   0.118979740     0.6906856    0.0585676     0.0000923   -0.0001907     0.0000266    0.0001221     0.0006007    0.0007317 
   0.119079765     0.6980710    0.0294862     0.0000750    0.0000943     0.0001074    0.0000357     0.0000704    0.0013794 
   0.119179790     0.7045569    0.0032985    -0.0000398   -0.0000865     0.0000467   -0.0001056     0.0010351    0.0010427 
   0.119279815     0.7095125   -0.0200304    -0.0001017   -0.0000819    -0.0000253    0.0000499     0.0007442    0.0010001 
   0.119379840     0.7103571   -0.0446133    -0.0000407    0.0000763     0.0000795   -0.0001139     0.0007311    0.0005049 
   0.119479865     0.7165084   -0.0711468    -0.0000043   -0.0000234     0.0000245    0.0000444     0.0007243    0.0005617 
   0.119579890     0.7149651   -0.0962490     0.0002459   -0.0001145     0.0000887    0.0000477     0.0008283    0.0007253 
   0.119679915     0.7150074   -0.1214943    -0.0000453    0.0001469     0.0000404    0.0001196     0.0003825    0.0005487 
   0.119779940     0.7161368   -0.1465746    -0.0002043   -0.0001760    -0.0000799    0.0000063     0.0004420    0.0005768 
   0.119879965     0.7164608   -0.1698739     0.0000736    0.0001224     0.0000172    0.0000505     0.0006305    0.0008628 
   0.119979990     0.7122422   -0.1907266     0.0001424   -0.0001775     0.0000227    0.0000670     0.0009885    0.0006938 
   0.120080015     0.7109746   -0.2163729     0.0002097    0.0000438     0.0000298    0.0001051     0.0004046    0.0009288 
   0.120180040     0.7065744   -0.2380736     0.0000724    0.0000035     0.0000467    0.0000507     0.0003870    0.0008656 
   0.120280065     0.7031956   -0.2591102     0.0000993   -0.0000555    -0.0000675    0.0000154     0.0005967    0.0003566 
   0.120380090     0.6971998   -0.2816919     0.0000045   -0.0000166    -0.0000134   -0.0000680     0.0006500    0.0003341 
   0.120480115     0.6902426   -0.3008630    -0.0000354    0.0000634     0.0000601   -0.0000894     0.0002229    0.0008192 
   0.120580140     0.6845474   -0.3242181    -0.0000289    0.0000331     0.0000217   -0.0001081     0.0001374    0.0010153 
   0.120680165     0.6773586   -0.3445820    -0.0000499    0.0001314    -0.0000197    0.0000409     0.0004819    0.0007513 
   0.120780190     0.6723258   -0.3654644    -0.0002414   -0.0000367     0.0000266   -0.0000887     0.0006516    0.0005998 
   0.120880215     0.6597582   -0.3825274    -0.0001221    0.0000241     0.0000137    0.0001407     0.0006438    0.0004442 
   0.120980240     0.6514359   -0.4021916     0.0000166    0.0000359    -0.0001056   -0.0000235     0.0003178    0.0005300 
   0.121080265     0.6446097   -0.4184332     0.0000679   -0.0001662     0.0000248   -0.0000626     0.0003771    0.0010115 
   0.121180290     0.6340737   -0.4378065    -0.0000390   -0.0000229     0.0000762    0.0000551    -0.0001978    0.0005979 
   0.121280315     0.6241980   -0.4528820     0.0001747    0.0000540    -0.0001216   -0.0000062     0.0003659    0.0009074 
   0.121380340     0.6125040   -0.4704153    -0.0000206    0.0000534     0.0000189    0.0000465     0.0005776    0.0007203 
   0.121480365     0.6013933   -0.4873660     0.0001523    0.0001955    -0.0001132   -0.0000652     0.0004494    0.0006891 
   0.121580390     0.5904485   -0.5030889     0.0001225   -0.0002243     0.0000134   -0.0000636     0.0007917    0.0009138 
   0.121680415     0.5783144   -0.5177420     0.0000759    0.0000493    -0.0000898   -0.0000405     0.0000637    0.0002624 
   0.121780440     0.5683952   -0.5305251     0.0000912   -0.0000195    -0.0000091    0.0000680     0.0005424    0.0006724 
   0.121880465     0.5542434   -0.5453969     0.0001105    0.0000218     0.0000750   -0.0000309     0.0003250    0.0012566 
   0.121980490     0.5416533   -0.5571108     0.0001008    0.0000192     0.0000226    0.0000638    -0.0000769    0.0004795 
   0.122080515     0.5274529   -0.5704663    -0.0001398    0.0000764    -0.0000051   -0.0000155     0.0001522    0.0010897 
   0.122180540     0.5194613   -0.5831429     0.0001332    0.0001611    -0.0000303    0.0001108     0.0003577    0.0008234 
   0.122280565     0.5041175   -0.5961446     0.0001307   -0.0001970    -0.0000978   -0.0000535     0.0005145    0.0008870 
   0.122380590     0.4901236   -0.6065390     0.0000415    0.0000921     0.0001748   -0.0000642     0.0005958    0.0009295 
   0.122480615     0.4808498   -0.6174109    -0.0000676    0.0000793    -0.0000230   -0.0000224     0.0010235    0.0005741 
   0.122580640     0.4669523   -0.6287314    -0.0000168    0.0000428     0.0000532    0.0001334     0.0004813    0.0006472 
   0.122680665     0.4511268   -0.6330891     0.0000756   -0.0001877    -0.0000640    0.0000516     0.0004279    0.0007869 
   0.122780690     0.4389740   -0.6455684    -0.0001021   -0.0000508    -0.0001118    0.0000309    -0.0001126    0.0009007 
   0.122880715     0.4263225   -0.6554215     0.0000769   -0.0000625     0.0000969    0.0000036     0.0005480    0.0005798 
   0.122980740     0.4077184   -0.6617849     0.0000800   -0.0002685    -0.0001165    0.0001361     0.0008657    0.0006616 
   0.123080765     0.3954460   -0.6689696    -0.0003757   -0.0000713     0.0000489   -0.0000606     0.0009957    0.0009078 
   0.123180790     0.3817763   -0.6775674     0.0000037   -0.0001138     0.0000765    0.0000491     0.0002701    0.0011951 
   0.123280815     0.3659988   -0.6859269    -0.0001909    0.0000740    -0.0000242   -0.0000363     0.0005583    0.0007120 
   0.123380840     0.3572608   -0.6948610    -0.0001325   -0.0002297     0.0001113   -0.0000118     0.0004008    0.0007452 
   0.123480865     0.3408807   -0.6966115     0.0000498   -0.0000358     0.0001448   -0.0000696    -0.0001508    0.0009024 
   0.123580890     0.3264773   -0.7072595    -0.0002947    0.0000249    -0.0001179    0.0000093     0.0000840   -0.0000140 
   0.123680915     0.3145627   -0.7102449     0.0000299    0.0000722    -0.0001648    0.0001143     0.0003407    0.0005826 
   0.123780940     0.2984039   -0.7151136    -0.0000683   -0.0001559    -0.0001465    0.0001247     0.0003866    0.0006095 
   0.123880965     0.2816241   -0.7212376     0.0000475   -0.0001471     0.0001053   -0.0000978     0.0000223    0.0001366 
   0.123980990     0.2684088   -0.7232502     0.0002137    0.0001209    -0.0001292    0.0001067     0.0006338    0.0006724 
   0.124081016     0.2517568   -0.7279260    -0.0000781   -0.0001333     0.0000709    0.0000709     0.0000647    0.0010297 
   0.124181041     0.2404141   -0.7299588    -0.0000161   -0.0000497    -0.0000401    0.0000690     0.0001763    0.0009158 
   0.124281066     0.2291856   -0.7382421     0.0000272   -0.0002245     0.0000306   -0.0000495     0.0003461    0.0007916 
   0.124381091     0.2130522   -0.7353500    -0.0001660   -0.0001995     0.0001494    0.0001070     0.0002559    0.0008020 
   0.124481116     0.1975736   -0.7373232    -0.0003406   -0.0003051     0.0000360   -0.0000769     0.0001413    0.0007701 
   0.124581141     0.1810635   -0.7449580    -0.0000302    0.0000684     0.0001738   -0.0000341     0.0000706    0.0009016 
   0.124681166     0.1681660   -0.7431815    -0.0001279   -0.0000328     0.0000745    0.0001725     0.0000776    0.0006461 
   0.124781191     0.1579794   -0.7504720    -0.0001165    0.0000639    -0.0000902   -0.0000452     0.0003050    0.0005913 
   0.124881216     0.1424244   -0.7447491    -0.0000101    0.0003415    -0.0000085   -0.0000128     0.0000204    0.0007854 
   0.124981241     0.1287114   -0.7528779     0.0000005   -0.0000238    -0.0001386    0.0000256     0.0002843    0.0012515 
   0.125081266     0.1177276   -0.7477282     0.0001088   -0.0000633     0.0002273   -0.0000290     0.0007396    0.0008571 
   0.125181291     0.1042298   -0.7489015    -0.0001339   -0.0001616     0.0000029    0.0002219     0.0005128    0.0008803 
   0.125281316     0.0884114   -0.7525927    -0.0004463    0.0005002     0.0001577    0.0000592     0.0004972    0.0008141 
   0.125381341     0.0720714   -0.7522209    -0.0004219   -0.0002215     0.0000654   -0.0000771     0.0005723    0.0007166 
   0.125481366     0.0638276   -0.7497646    -0.0000263   -0.0001924    -0.0000163    0.0001872     0.0006423    0.0008218 
   0.125581391     0.0461365   -0.7508214     0.0002319   -0.0000086     0.0000920   -0.0000537     0.0003289    0.0007333 
   0.125681416     0.0300316   -0.7469126    -0.0002965    0.0001380     0.0000268   -0.0000171     0.0007959    0.0006548 
   0.125781441     0.0213007   -0.7484677    -0.0003625    0.0003259    -0.0002063   -0.0000481     0.0002600    0.0005792 
   0.125881466     0.0089071   -0.7468353     0.0003219   -0.0003351    -0.0000788   -0.0001334     0.0002764    0.0008390 
   0.125981491    -0.0097279   -0.7440071     0.0000387   -0.0002079     0.0000385   -0.0000507     0.0001441    0.0013283 
   0.126081516    -0.0174583   -0.7404518     0.0000195    0.0000307     0.0000503   -0.0001190     0.0000253    0.0008262 
   0.126181541    -0.0321577   -0.7382001    -0.0003332   -0.0000534     0.0001217    0.0000171     0.0000588    0.0007784 
   0.126281566    -0.0471110   -0.7392661    -0.0000970   -0.0001344    -0.0001434   -0.0001136     0.0001623    0.0004538 
   0.126381591    -0.0588255   -0.7337939    -0.0001259    0.0001886    -0.0000826    0.0000490     0.0001266    0.0007147 
   0.126481616    -0.0698515   -0.7307427     0.0005210    0.0001093     0.0001685    0.0000069    -0.0002105    0.0007294 
   0.126581641    -0.0846410   -0.7287717     0.0001850    0.0003048    -0.0000902   -0.0002480     0.0003285    0.0004057 
   0.126681666    -0.0986250   -0.7238395     0.0000760   -0.0002263     0.0000334   -0.0001150     0.0001935    0.0003217 
   0.126781691    -0.1090199   -0.7185860    -0.0001029   -0.0000126    -0.0001062   -0.0000347     0.0005553    0.0006880 
   0.126881716    -0.1195452   -0.7155178     0.0000271    0.0000956     0.0000741    0.0001979     0.0002115    0.0008992 
   0.126981741    -0.1350812   -0.7115458    -0.0000667    0.0001364     0.0000159    0.0001633     0.0001692    0.0007632 
   0.127081766    -0.1497258   -0.7076053    -0.0000924    0.0000516     0.0002487    0.0001275    -0.0000316    0.0008206 
   0.127181791    -0.1610298   -0.7005968     0.0001463    0.0002951     0.0002870   -0.0001419     0.0002785    0.0008527 
   0.127281816    -0.1740207   -0.6980827     0.0000249   -0.0003158     0.0000292    0.0000065     0.0005348    0.0007720 
   0.127381841    -0.1858817   -0.6856159    -0.0000149    0.0001439    -0.0000701   -0.0000816     0.0001965    0.0006754 
   0.127481866    -0.2006161   -0.6860496    -0.0004587   -0.0001813    -0.0000655   -0.0000486     0.0002660    0.0006673 
   0.127581891    -0.2083784   -0.6799267     0.0001388    0.0003534    -0.0001427   -0.0000765     0.0002101    0.0009168 
   0.127681916    -0.2220713   -0.6756873    -0.0002603   -0.0002195     0.0000086   -0.0000704    -0.0001888    0.0002368 
   0.127781941    -0.2299315   -0.6638506    -0.0001521    0.0001485     0.0000976   -0.0001603     0.0000068    0.0004584 
   0.127881966    -0.2420362   -0.6598354     0.0000599   -0.0002656    -0.0002011    0.0001246     0.0002571    0.0007672 
   0.127981991    -0.2525047   -0.6538131     0.0003605    0.0000158     0.0001417    0.0001788     0.0004795    0.0004263 
   0.128082016    -0.2657063   -0.6467507    -0.0001761   -0.0002205     0.0001279   -0.0001057     0.0008529    0.0011136 
   0.128182041    -0.2768058   -0.6379117     0.0001650   -0.0000280    -0.0001890    0.0001157     0.0004357    0.0005423 
   0.128282066    -0.2876324   -0.6262416     0.0001283    0.0004576    -0.0002075   -0.0001116     0.0004673    0.0008955 
   0.128382091    -0.2975642   -0.6211377     0.0002023   -0.0000677     0.0000308    0.0000753    -0.0000864    0.0009149 
   0.128482116    -0.3093450   -0.6100305    -0.0001529   -0.0001877    -0.0001473    0.0000016    -0.0000593    0.0006006 
   0.128582141    -0.3216369   -0.6084328    -0.0000425   -0.0003829     0.0002500   -0.0000119     0.0004140    0.0007073 
   0.128682166    -0.3332358   -0.5951027    -0.0004309   -0.0000376     0.0002085    0.0001564     0.0001852    0.0008514 
   0.128782191    -0.3395451   -0.5841940    -0.0001345   -0.0001185    -0.0001698    0.0002048     0.0003097    0.0005220 
   0.128882216    -0.3508611   -0.5739134    -0.0001841    0.0002177    -0.0000691   -0.0002162    -0.0000307    0.0003510 
   0.128982241    -0.3633210   -0.5664462    -0.0001353    0.0000882     0.0000368    0.0000043    -0.0001073    0.0008483 
   0.129082266    -0.3706333   -0.5551629    -0.0000493    0.0001417     0.0000642   -0.0000178     0.0004499    0.0006436 
   0.129182291    -0.3799339   -0.5479839     0.0000813   -0.0004053     0.0001478   -0.0000491     0.0002206    0.0004995 
   0.129282316    -0.3913272   -0.5331766     0.0000017    0.0001387    -0.0001898    0.0002364     0.0000863    0.0006737 
   0.129382341    -0.4001713   -0.5241143    -0.0003288    0.0001592    -0.0000354    0.0000975     0.0000630    0.0007838 
   0.129482366    -0.4093734   -0.5136021    -0.0000560    0.0001282     0.0001488    0.0000762     0.0006928    0.0007047 
   0.129582391    -0.4195052   -0.5006864     0.0002485   -0.0000663     0.0000813    0.0002272     0.0005855    0.0005037 
   0.129682416    -0.4272179   -0.4907367    -0.0003375    0.0002381     0.0000539    0.0000944    -0.0003286    0.0008292 
   0.129782441    -0.4367501   -0.4771824     0.0005566   -0.0006210     0.0000975    0.0002053     0.0002415    0.0006861 
   0.129882466    -0.4461106   -0.4648136    -0.0005280    0.0000615     0.0000041   -0.0000505    -0.0000341    0.0009056 
   0.129982491    -0.4527667   -0.4552016    -0.0001676   -0.0005190     0.0000002    0.0002685     0.0005459    0.0008559 
   0.130082516    -0.4592574   -0.4434871     0.0001979   -0.0001189    -0.0000459    0.0000797     0.0002772    0.0003592 
   0.130182541    -0.4657127   -0.4271954     0.0000151    0.0004446     0.0001488    0.0000145     0.0002690    0.0008830 
   0.130282566    -0.4744497   -0.4112967     0.0002000   -0.0002616     0.0000451   -0.0000682     0.0002400    0.0004352 
   0.130382591    -0.4816862   -0.4004870    -0.0004372    0.0002746     0.0000982   -0.0000889    -0.0003215    0.0008176 
   0.130482616    -0.4897930   -0.3847988     0.0000221    0.0003381     0.0000478   -0.0001542    -0.0001597    0.0006147 
   0.130582641    -0.4926597   -0.3728086     0.0004348    0.0002543    -0.0000804   -0.0000010    -0.0000726    0.0007718 
   0.130682666    -0.5031781   -0.3578390     0.0002619    0.0000745     0.0000924   -0.0000314     0.0003153    0.0007505 
   0.130782691    -0.5081193   -0.3474590    -0.0000507   -0.0000870     0.0001601   -0.0000602     0.0005240    0.0008860 
   0.130882716    -0.5132749   -0.3261185     0.0004099    0.0000578    -0.0001529    0.0000128     0.0001428    0.0011670 
   0.130982741    -0.5177359   -0.3155342    -0.0000326   -0.0002636     0.0002104   -0.0000903    -0.0001041    0.0010197 
   0.131082766    -0.5210800   -0.2983260     0.0004058   -0.0001713     0.0001099   -0.0001630     0.0004493    0.0005614 
   0.131182791    -0.5251123   -0.2814596     0.0001196    0.0000937    -0.0000977   -0.0000137     0.0004252    0.0015218 
   0.131282816    -0.5330401   -0.2673550    -0.0001645    0.0000170    -0.0000352    0.0000934     0.0004953    0.0015062 
   0.131382841    -0.5345782   -0.2489195    -0.0005764    0.0002148     0.0000240   -0.0000507     0.0004421    0.0005060 
   0.131482866    -0.5390905   -0.2302941    -0.0001961   -0.0000674    -0.0000261   -0.0000255     0.0004086    0.0006155 
   0.131582891    -0.5384746   -0.2162863    -0.0001374    0.0000372     0.0000507    0.0002132     0.0000813    0.0006130 
   0.131682916    -0.5417678   -0.1967342     0.0002340    0.0000934     0.0001503   -0.0001510     0.0003697    0.0006762 
   0.131782941    -0.5442023   -0.1797099    -0.0001933   -0.0001961    -0.0004564    0.0002391     0.0001744    0.0002122 
   0.131882966    -0.5486624   -0.1617137    -0.0000476   -0.0000891     0.0003372    0.0001038     0.0004800    0.0003857 
   0.131982991    -0.5497235   -0.1414777    -0.0001406   -0.0003790     0.0000575    0.0000394     0.0000189    0.0009535 
   0.132083017    -0.5452502   -0.1236133     0.0003592    0.0002269     0.0002670    0.0002013     0.0000381    0.0005540 
   0.132183042    -0.5459051   -0.1053588     0.0000849   -0.0002758     0.0001755   -0.0002444    -0.0005794    0.0007281 
   0.132283067    -0.5454516   -0.0897701     0.0001163   -0.0000690    -0.0002254   -0.0002480     0.0001012    0.0003550 
   0.132383092    -0.5447471   -0.0719946     0.0001341   -0.0004281    -0.0002339    0.0000143    -0.0000423    0.0010473 
   0.132483117    -0.5442831   -0.0536006     0.0003530   -0.0001881    -0.0000866    0.0001849     0.0000943    0.0005112 
   0.132583142    -0.5405517   -0.0307561    -0.0000218    0.0004149    -0.0000216    0.0002097     0.0000294    0.0007959 
   0.132683167    -0.5376815   -0.0120651     0.0002813   -0.0001228    -0.0001195    0.0000403    -0.0001030    0.0009589 
   0.132783192    -0.5327829    0.0030511    -0.0000232   -0.0001409     0.0000065   -0.0001667     0.0000734    0.0008439 
   0.132883217    -0.5301979    0.0258207    -0.0001373    0.0001591     0.0001640   -0.0000312     0.0002919    0.0011114 
   0.132983242    -0.5277397    0.0438673    -0.0000614   -0.0000707     0.0000566   -0.0001329     0.0000951    0.0006503 
   0.133083267    -0.5217239    0.0674399     0.0000643    0.0003610    -0.0001534   -0.0000568    -0.0001650    0.0009072 
   0.133183292    -0.5125604    0.0828498    -0.0001518   -0.0000929    -0.0000327   -0.0002049    -0.0000688    0.0008602 
   0.133283317    -0.5090137    0.1020016     0.0000393    0.0001321    -0.0000646    0.0001456     0.0000071    0.0007901 
   0.133383342    -0.4989241    0.1217080    -0.0000400   -0.0001718     0.0000464    0.0000123    -0.0001445    0.0008309 
   0.133483367    -0.4893842    0.1461177     0.0001565   -0.0000620     0.0002250   -0.0000984    -0.0000247    0.0003787 
   0.133583392    -0.4814214    0.1615600     0.0000450   -0.0001771     0.0002009   -0.0004718    -0.0000333    0.0003225 
   0.133683417    -0.4669751    0.1816805    -0.0006685   -0.0001952     0.0000281    0.0000492     0.0002098    0.0006793 
   0.133783442    -0.4594267    0.1997140     0.0002643    0.0002757     0.0003244   -0.0000624     0.0001702    0.0004053 
   0.133883467    -0.4459788    0.2188903     0.0003068    0.0003614     0.0002217   -0.0001671     0.0001301    0.0004515 
   0.133983492    -0.4349287    0.2352864    -0.0004543   -0.0000192     0.0000424   -0.0000556    -0.0002833    0.0008615 
   0.134083517    -0.4236676    0.2577353     0.0000012    0.0000709    -0.0000898    0.0001298    -0.0001641    0.0010828 
   0.134183542    -0.4059396    0.2736591     0.0003012    0.0000504     0.0001421   -0.0001620    -0.0000113    0.0009473 
   0.134283567    -0.3918945    0.2962180    -0.0000826    0.0004867     0.0000128    0.0001495     0.0004241    0.0005236 
   0.134383592    -0.3749900    0.3099556    -0.0004149    0.0000101    -0.0000445   -0.0000300    -0.0001169    0.0006114 
   0.134483617    -0.3592790    0.3275919     0.0000461    0.0002791    -0.0001042   -0.0000062     0.0001367    0.0008100 
   0.134583642    -0.3405311    0.3472107     0.0000755    0.0000751     0.0001485    0.0001078    -0.0002733    0.0006638 
   0.134683667    -0.3191049    0.3590829     0.0000547    0.0002348     0.0002437   -0.0001791     0.0001869    0.0005867 
   0.134783692    -0.3000965    0.3749437    -0.0002159   -0.0002444    -0.0000539   -0.0000328     0.0004664    0.0009994 
   0.134883717    -0.2788943    0.3917212     0.0002222   -0.0000666    -0.0000624   -0.0002266     0.0003981    0.0006989 
   0.134983742    -0.2589210    0.4054612     0.0003733    0.0001152    -0.0000666   -0.0000335    -0.0006113    0.0004802 
   0.135083767    -0.2390164    0.4164798    -0.0000461    0.0000950    -0.0000525    0.0000000     0.0000744   -0.0000415 
   0.135183792    -0.2147081    0.4319856     0.0000134   -0.0001777     0.0001448   -0.0000412     0.0000794    0.0006356 
   0.135283817    -0.1935493    0.4405483    -0.0000380   -0.0004052    -0.0000310    0.0000598     0.0005609    0.0004639 
   0.135383842    -0.1669158    0.4505287     0.0002511   -0.0001549    -0.0000008    0.0000256    -0.0003132    0.0007517 
   0.135483867    -0.1409485    0.4612800    -0.0001559   -0.0001470     0.0001030   -0.0000970     0.0002593    0.0003862 
   0.135583892    -0.1184178    0.4721155     0.0001291    0.0003492     0.0000310   -0.0000980    -0.0002276    0.0006833 
   0.135683917    -0.0903315    0.4804321    -0.0001153    0.0000614    -0.0001028    0.0000337     0.0001424    0.0007488 
   0.135783942    -0.0644046    0.4883885    -0.0002479    0.0000105    -0.0001426    0.0000567     0.0004742    0.0005105 
   0.135883967    -0.0376885    0.4908405    -0.0001817    0.0002530     0.0000824    0.0001093    -0.0000027    0.0010840 
   0.135983992    -0.0122932    0.4991603    -0.0000534   -0.0000015    -0.0000881   -0.0000633    -0.0000482    0.0007194 
   0.136084017     0.0181430    0.4983494    -0.0001965   -0.0000807    -0.0001034    0.0000561     0.0004390    0.0005030 
   0.136184042     0.0441972    0.5000854     0.0000026   -0.0002932    -0.0000858    0.0000426     0.0002782    0.0007737 
   0.136284067     0.0705934    0.5013651    -0.0001406    0.0000391    -0.0000344    0.0001052    -0.0002919    0.0007987 
   0.136384092     0.1020051    0.5036771     0.0001159   -0.0000105     0.0000352    0.0001029    -0.0000823    0.0013660 
   0.136484117     0.1304060    0.5003953     0.0000122    0.0001629    -0.0000043   -0.0000519     0.0003960    0.0001273 
   0.136584142     0.1566144    0.4954916    -0.0000596   -0.0002579    -0.0001346    0.0000884     0.0001651    0.0008149 
   0.136684167     0.1866658    0.4925501    -0.0001492   -0.0001390    -0.0000549   -0.0000849    -0.0000997    0.0007318 
   0.136784192     0.2136309    0.4869868    -0.0000203   -0.0000649    -0.0000038    0.0000522     0.0003539    0.0006370 
   0.136884217     0.2440591    0.4805087    -0.0001416    0.0001544     0.0000281   -0.0000890    -0.0005932    0.0003032 
   0.136984242     0.2708734    0.4708537    -0.0001130    0.0001069     0.0000561    0.0000973    -0.0000149    0.0009637 
   0.137084267     0.2984198    0.4621628    -0.0000820    0.0001502    -0.0000628    0.0000525    -0.0000235    0.0005446 
   0.137184292     0.3252595    0.4486230    -0.0000347    0.0002709    -0.0000851   -0.0000093    -0.0000322    0.0005133 
   0.137284317     0.3514600    0.4387034    -0.0001600    0.0000619    -0.0000712    0.0000091    -0.0001678    0.0008525 
   0.137384342     0.3740256    0.4240820    -0.0001490   -0.0002620    -0.0000133    0.0000522     0.0004151    0.0008763 
   0.137484367     0.4014736    0.4096907    -0.0000245   -0.0001050     0.0000004   -0.0000358    -0.0000202    0.0004455 
   0.137584392     0.4253153    0.3942607    -0.0001823    0.0000055     0.0000599   -0.0000229     0.0000367    0.0007661 
   0.137684417     0.4482307    0.3779303    -0.0000942   -0.0001792    -0.0000198    0.0000136     0.0002506    0.0005798 
   0.137784442     0.4724194    0.3585722    -0.0002561   -0.0002178    -0.0000500   -0.0001268     0.0001112    0.0007813 
   0.137884467     0.4943127    0.3382367    -0.0000849   -0.0000682    -0.0001222    0.0000824     0.0000473    0.0001162 
   0.137984492     0.5134723    0.3179901    -0.0000902   -0.0002322    -0.0000920   -0.0000676     0.0001549    0.0006895 
   0.138084517     0.5357978    0.2984555    -0.0000342    0.0000219    -0.0000487    0.0000162    -0.0002749    0.0007378 
   0.138184542     0.5492727    0.2767657    -0.0000681   -0.0001171    -0.0000682   -0.0001644    -0.0001452    0.0004785 
   0.138284567     0.5688519    0.2540070    -0.0001604    0.0000903     0.0000151    0.0000480     0.0000642    0.0011401 
   0.138384592     0.5865548    0.2315580    -0.0000250    0.0001844    -0.0000277    0.0000544    -0.0002507    0.0008664 
   0.138484617     0.6018385    0.2097936     0.0000966   -0.0001306    -0.0000424    0.0000604     0.0003421    0.0007694 
   0.138584642     0.6165674    0.1829148    -0.0000938    0.0001869    -0.0000142    0.0000226    -0.0004687    0.0004152 
   0.138684667     0.6290345    0.1604120     0.0000988    0.0000571     0.0000667    0.0000799     0.0001203    0.0006672 
   0.138784692     0.6367440    0.1358650    -0.0001251   -0.0000610    -0.0000492    0.0000997    -0.0002154    0.0003137 
   0.138884717     0.6486858    0.1119729     0.0001617    0.0000373     0.0000729    0.0000258    -0.0000196    0.0005723 
   0.138984742     0.6592855    0.0854789     0.0001450    0.0001212     0.0000968   -0.0000215    -0.0000053    0.0007809 
   0.139084767     0.6678951    0.0617027    -0.0000714   -0.0000475     0.0000365   -0.0000870    -0.0000531    0.0006336 
   0.139184792     0.6765152    0.0323664    -0.0001012   -0.0000039    -0.0001340   -0.0000007    -0.0000357    0.0008551 
   0.139284817     0.6794083    0.0080808    -0.0000381   -0.0002527     0.0000040    0.0000457     0.0000615    0.0007608 
   0.139384842     0.6856921   -0.0162512    -0.0000895   -0.0003179     0.0000450   -0.0000709    -0.0003698    0.0001337 
   0.139484867     0.6884084   -0.0394012     0.0001075   -0.0000199     0.0000200   -0.0000269     0.0001767    0.0008569 
   0.139584892     0.6879748   -0.0695713    -0.0002735    0.0002819     0.0000148    0.0001220     0.0007098    0.0006900 
   0.139684917     0.6911464   -0.0906919     0.0001363   -0.0000799    -0.0000079   -0.0000211    -0.0000838    0.0003458 
   0.139784942     0.6900430   -0.1181838    -0.0001951   -0.0000986    -0.0000020    0.0001025     0.0000715    0.0000334 
   0.139884967     0.6879647   -0.1422888    -0.0000328    0.0000625    -0.0002186    0.0000114    -0.0002372    0.0006495 
   0.139984992     0.6874859   -0.1650654     0.0001694   -0.0002268    -0.0000371   -0.0001016     0.0001269    0.0006026 
   0.140085018     0.6873126   -0.1894839     0.0001318   -0.0001520    -0.0000659    0.0000330     0.0004126    0.0008890 
   0.140185043     0.6845061   -0.2140308     0.0000397    0.0000465    -0.0000115    0.0001441    -0.0004692    0.0011396 
   0.140285068     0.6767606   -0.2349580    -0.0001045    0.0001652     0.0000075   -0.0000246     0.0004130    0.0007084 
   0.140385093     0.6727040   -0.2578957    -0.0000741    0.0001593    -0.0000194    0.0000418     0.0000203    0.0008270 
   0.140485118     0.6659451   -0.2820973    -0.0000414   -0.0002545    -0.0000031   -0.0000229    -0.0003986    0.0007212 
   0.140585143     0.6604846   -0.3020368    -0.0004076    0.0000946     0.0000375    0.0000148     0.0002961    0.0005535 
   0.140685168     0.6548203   -0.3273809    -0.0000919   -0.0001048     0.0000591   -0.0000780    -0.0003175    0.0005654 
   0.140785193     0.6443053   -0.3458455     0.0002945    0.0004215     0.0000841   -0.0000113     0.0001523    0.0012091 
   0.140885218     0.6356220   -0.3638703     0.0001681    0.0000223     0.0001131   -0.0000486    -0.0002551    0.0005007 
   0.140985243     0.6277239   -0.3872883     0.0001665   -0.0001423    -0.0002061   -0.0000061    -0.0003041    0.0003776 
   0.141085268     0.6204228   -0.4023629     0.0001780    0.0000509    -0.0000470   -0.0000919     0.0000086    0.0005634 
   0.141185293     0.6081182   -0.4229608     0.0001285    0.0000754    -0.0001088   -0.0003840    -0.0000075    0.0007069 
   0.141285318     0.5988498   -0.4424314     0.0001886    0.0002391    -0.0001553    0.0000856    -0.0003226    0.0007951 
   0.141385343     0.5856106   -0.4581631    -0.0000637   -0.0001423    -0.0000607   -0.0000835    -0.0005039    0.0008491 
   0.141485368     0.5735710   -0.4734304    -0.0005571   -0.0001798    -0.0000286    0.0001700     0.0000328    0.0006496 
   0.141585393     0.5610889   -0.4934110     0.0001498    0.0003240    -0.0000851    0.0001494     0.0000314    0.0003922 
   0.141685418     0.5517892   -0.5083801    -0.0003800   -0.0002410    -0.0001039   -0.0001791    -0.0000389    0.0005071 
   0.141785443     0.5379058   -0.5267177     0.0003406   -0.0002719    -0.0000151   -0.0000103    -0.0004689    0.0008286 
   0.141885468     0.5263868   -0.5362731     0.0000402   -0.0003288    -0.0001166    0.0000197     0.0001245    0.0003106 
   0.141985493     0.5085404   -0.5503833    -0.0001982    0.0003285     0.0001277    0.0000251    -0.0002465    0.0002762 
   0.142085518     0.4945356   -0.5672614    -0.0000247   -0.0001957    -0.0000854    0.0001849     0.0001377    0.0006247 
   0.142185543     0.4812987   -0.5770568     0.0001318    0.0004054    -0.0001942   -0.0000670    -0.0006466    0.0004740 
   0.142285568     0.4713146   -0.5903090    -0.0003435   -0.0001655    -0.0001386    0.0000742    -0.0002754   -0.0002634 
   0.142385593     0.4569129   -0.5981346    -0.0004665    0.0000567     0.0000178    0.0000653    -0.0000508    0.0007925 
   0.142485618     0.4412851   -0.6131970    -0.0002843    0.0000502     0.0002489    0.0000974     0.0000098    0.0002796 
   0.142585643     0.4254255   -0.6217612    -0.0000188    0.0004890     0.0001699   -0.0001048     0.0000419    0.0004600 
   0.142685668     0.4115806   -0.6322165     0.0002604   -0.0002899    -0.0002216   -0.0000303    -0.0000574    0.0002641 
   0.142785693     0.3980622   -0.6432996     0.0003748   -0.0000987     0.0002105   -0.0000905    -0.0001227    0.0007257 
   0.142885718     0.3800128   -0.6501939     0.0004181   -0.0000162    -0.0002557   -0.0002424    -0.0002925    0.0012083 
   0.142985743     0.3611317   -0.6573668     0.0001185    0.0001640     0.0002538    0.0000276    -0.0004046   -0.0000511 
   0.143085768     0.3527341   -0.6655821     0.0005960    0.0001725    -0.0001306   -0.0000267    -0.0007697    0.0003999 
   0.143185793     0.3372284   -0.6759622    -0.0005002   -0.0002255    -0.0002531   -0.0002358    -0.0003739    0.0004229 
   0.143285818     0.3215950   -0.6804783    -0.0000942   -0.0000028     0.0000996    0.0000678    -0.0004065    0.0008346 
   0.143385843     0.3061458   -0.6882256     0.0001057    0.0000927     0.0000171    0.0001901     0.0002203    0.0006162 
   0.143485868     0.2914452   -0.6961457     0.0000288   -0.0002889    -0.0000507   -0.0003616     0.0000023    0.0008387 
   0.143585893     0.2710148   -0.7004540     0.0002594   -0.0005892    -0.0001212    0.0001719    -0.0004090    0.0006483 
   0.143685918     0.2588958   -0.7033756     0.0000136    0.0003302     0.0000027   -0.0000241    -0.0005068    0.0006538 
   0.143785943     0.2445357   -0.7100596    -0.0000572   -0.0000657    -0.0000237    0.0000618    -0.0001647    0.0004287 
   0.143885968     0.2270646   -0.7150057     0.0001292    0.0000874     0.0000162   -0.0001579     0.0001453   -0.0000289 
   0.143985993     0.2141671   -0.7173181    -0.0000864    0.0000424    -0.0003684    0.0000407    -0.0002590    0.0005748 
   0.144086018     0.1988482   -0.7251953    -0.0002881   -0.0000672     0.0002265   -0.0002983     0.0002386    0.0004107 
   0.144186043     0.1844883   -0.7285438    -0.0001367    0.0000690     0.0003271    0.0001906    -0.0002081    0.0007165 
   0.144286068     0.1659171   -0.7266991    -0.0003241    0.0000926     0.0001633    0.0002096     0.0000001    0.0006436 
   0.144386093     0.1542865   -0.7285412     0.0001421    0.0000273     0.0000744    0.0001051     0.0001820    0.0004998 
   0.144486118     0.1370362   -0.7300104    -0.0000730    0.0004254     0.0002112    0.0000311    -0.0002376   -0.0000435 
   0.144586143     0.1218652   -0.7337654    -0.0002542   -0.0004106     0.0001530    0.0002168    -0.0000932    0.0004815 
   0.144686168     0.1071586   -0.7254857    -0.0001506    0.0003096     0.0001512    0.0001610     0.0001365    0.0010356 
   0.144786193     0.0928193   -0.7347604     0.0000184   -0.0005834     0.0001296    0.0000180    -0.0000216    0.0005506 
   0.144886218     0.0787117   -0.7330057    -0.0001862    0.0002044     0.0000950   -0.0001697     0.0000380    0.0004883 
   0.144986243     0.0597170   -0.7326356     0.0001484   -0.0000685    -0.0001856   -0.0002669    -0.0000405    0.0004353 
   0.145086268     0.0445324   -0.7318882     0.0004352    0.0002613    -0.0000109    0.0001369    -0.0005111    0.0002032 
   0.145186293     0.0329628   -0.7354770    -0.0004208   -0.0001347     0.0002708    0.0000152    -0.0003045    0.0001377 
   0.145286318     0.0187119   -0.7321531     0.0002020   -0.0003063     0.0001814   -0.0000137     0.0001833    0.0002737 
   0.145386343     0.0017534   -0.7292982    -0.0001131   -0.0001332    -0.0001343    0.0001840     0.0001371    0.0006743 
   0.145486368    -0.0129444   -0.7271865     0.0003014    0.0001517     0.0002099   -0.0000464    -0.0001689    0.0007681 
   0.145586393    -0.0257820   -0.7255020    -0.0000055   -0.0000660    -0.0001503   -0.0001478    -0.0003592    0.0003739 
   0.145686418    -0.0373435   -0.7270617    -0.0002061   -0.0001244    -0.0001399   -0.0001725    -0.0001311    0.0000485 
   0.145786443    -0.0533723   -0.7192234    -0.0002560    0.0000077    -0.0003430   -0.0000652    -0.0005723    0.0009998 
   0.145886468    -0.0653054   -0.7194836    -0.0001924    0.0000528     0.0000399    0.0001922    -0.0000946    0.0004265 
   0.145986493    -0.0822053   -0.7127734    -0.0000756    0.0001051    -0.0000119    0.0000371    -0.0000627    0.0007029 
   0.146086518    -0.0965848   -0.7167057     0.0000854   -0.0001227    -0.0000585   -0.0001074    -0.0000238    0.0007108 
   0.146186543    -0.1109043   -0.7109330     0.0000374   -0.0001038    -0.0002359   -0.0000026    -0.0000344    0.0006162 
   0.146286568    -0.1207650   -0.7039142    -0.0000760    0.0003766    -0.0001411    0.0000711    -0.0005193    0.0001285 
   0.146386593    -0.1331643   -0.7018304     0.0002136    0.0001925    -0.0000006   -0.0000654     0.0001228    0.0004389 
   0.146486618    -0.1502265   -0.6939909     0.0000900   -0.0002358    -0.0001090    0.0000238    -0.0001915   -0.0001749 
   0.146586643    -0.1619437   -0.6889142    -0.0002266    0.0005598    -0.0000937    0.0002103    -0.0005381    0.0003095 
   0.146686668    -0.1684539   -0.6861933     0.0000129   -0.0000888     0.0001453    0.0000312    -0.0005704    0.0001992 
   0.146786693    -0.1887686   -0.6820909     0.0004056    0.0000665     0.0000190   -0.0000204     0.0002748    0.0007898 
   0.146886718    -0.1986832   -0.6707759     0.0003024    0.0004675    -0.0000215    0.0000249    -0.0000039    0.0007124 
   0.146986743    -0.2102007   -0.6690129    -0.0002710   -0.0004120    -0.0001235   -0.0000921    -0.0007019    0.0007107 
   0.147086768    -0.2243253   -0.6580448    -0.0003330   -0.0000340     0.0000861   -0.0001462    -0.0003146    0.0007185 
   0.147186793    -0.2375010   -0.6507306     0.0002345    0.0004069    -0.0002286   -0.0001354    -0.0001831    0.0005353 
   0.147286818    -0.2475742   -0.6472827    -0.0003236   -0.0000949     0.0000181   -0.0000164     0.0000618    0.0002270 
   0.147386843    -0.2586373   -0.6383442     0.0004787    0.0002007    -0.0001434   -0.0001644    -0.0001463    0.0002290 
   0.147486868    -0.2681195   -0.6310881     0.0002119    0.0001126     0.0001449   -0.0000080    -0.0008168    0.0006623 
   0.147586893    -0.2831591   -0.6247232    -0.0002518    0.0001288     0.0001135    0.0002172    -0.0007704    0.0007719 
   0.147686918    -0.2942335   -0.6121671    -0.0001202    0.0002719    -0.0001638    0.0000605    -0.0000048    0.0001939 
   0.147786943    -0.3047974   -0.6094453     0.0002255    0.0003016    -0.0000774    0.0000808     0.0001249    0.0007533 
   0.147886968    -0.3151702   -0.6000392    -0.0002823   -0.0002062    -0.0000859   -0.0000647    -0.0002698    0.0006354 
   0.147986993    -0.3279026   -0.5930917     0.0000751   -0.0005359    -0.0001245    0.0000636    -0.0003850    0.0006364 
   0.148087019    -0.3391094   -0.5848538    -0.0002408    0.0001424    -0.0000613   -0.0000506     0.0002716    0.0004886 
   0.148187044    -0.3460795   -0.5779629     0.0001339    0.0001202    -0.0003427   -0.0000765    -0.0004567    0.0007450 
   0.148287069    -0.3585292   -0.5708780    -0.0003110    0.0001493    -0.0000522    0.0000624    -0.0007031    0.0003000 
   0.148387094    -0.3659446   -0.5544531     0.0004756   -0.0000935    -0.0000039   -0.0000562    -0.0001315    0.0005185 
   0.148487119    -0.3802825   -0.5462123    -0.0000228   -0.0002100     0.0000316    0.0000801    -0.0004633    0.0006931 
   0.148587144    -0.3852507   -0.5404035     0.0000816    0.0000805    -0.0000527   -0.0001907     0.0001213    0.0000501 
   0.148687169    -0.3923904   -0.5285806     0.0002033    0.0002816     0.0003161   -0.0001024    -0.0004272    0.0007926 
   0.148787194    -0.4052449   -0.5104724     0.0000125    0.0000084    -0.0000864   -0.0002300    -0.0001732    0.0001195 
   0.148887219    -0.4146996   -0.5037214    -0.0000921    0.0004937    -0.0002179   -0.0000657    -0.0004140    0.0006976 
   0.148987244    -0.4252110   -0.4936591     0.0001605    0.0002829    -0.0002453    0.0002926     0.0001621    0.0001728 
   0.149087269    -0.4297691   -0.4799684    -0.0002019   -0.0002396     0.0001053    0.0002821    -0.0000501    0.0005061 
   0.149187294    -0.4399613   -0.4698454    -0.0002400    0.0000688    -0.0000458    0.0000415    -0.0007757    0.0004571 
   0.149287319    -0.4461283   -0.4573560     0.0003722   -0.0002126     0.0001113   -0.0001662    -0.0000612    0.0002458 
   0.149387344    -0.4572888   -0.4435041    -0.0001742    0.0003663    -0.0001238   -0.0000967    -0.0005236    0.0000551 
   0.149487369    -0.4659762   -0.4356742    -0.0002287    0.0003447     0.0000914   -0.0001254    -0.0000804   -0.0001785 
   0.149587394    -0.4695439   -0.4223098    -0.0000084   -0.0000933     0.0001193   -0.0001450    -0.0002674   -0.0000514 
   0.149687419    -0.4775515   -0.4094955    -0.0001210   -0.0001757     0.0000414   -0.0001146    -0.0003563    0.0005469 
   0.149787444    -0.4840321   -0.3923567     0.0001203   -0.0002891    -0.0001394    0.0001575    -0.0003499    0.0004022 
   0.149887469    -0.4912953   -0.3824825     0.0000135   -0.0002333    -0.0000606    0.0001772    -0.0002391    0.0002853 
   0.149987494    -0.4970964   -0.3698474     0.0002605    0.0002514    -0.0000974   -0.0000882     0.0002587    0.0004676 
   0.150087519    -0.5070046   -0.3546253    -0.0001054    0.0005624    -0.0003498   -0.0002140    -0.0003939    0.0003655 
   0.150187544    -0.5093818   -0.3460766     0.0001525   -0.0006394     0.0001914   -0.0000897     0.0000861    0.0001062 
   0.150287569    -0.5158815   -0.3264937     0.0005323   -0.0001393     0.0001176   -0.0001857    -0.0002796    0.0004596 
   0.150387594    -0.5192627   -0.3182965    -0.0001834   -0.0001206    -0.0002095    0.0000357    -0.0004637   -0.0000648 
   0.150487619    -0.5247291   -0.3015341    -0.0001371   -0.0004262    -0.0001377   -0.0000338    -0.0000313    0.0003226 
   0.150587644    -0.5316352   -0.2852908     0.0003330    0.0003635     0.0000472    0.0000292    -0.0000078    0.0005928 
   0.150687669    -0.5320921   -0.2704457    -0.0001388   -0.0000531     0.0000301    0.0001272    -0.0004477    0.0000243 
   0.150787694    -0.5375153   -0.2564545     0.0001029   -0.0001182     0.0000862   -0.0000046    -0.0000481    0.0002808 
   0.150887719    -0.5404236   -0.2375150     0.0001654   -0.0000772    -0.0002584   -0.0001089    -0.0000743    0.0006652 
   0.150987744    -0.5417334   -0.2286600     0.0001430   -0.0000462     0.0001804    0.0000985    -0.0001678    0.0005796 
   0.151087769    -0.5468631   -0.2102315     0.0002400    0.0001910     0.0000548    0.0000131    -0.0004826    0.0006835 
   0.151187794    -0.5456021   -0.1931278    -0.0002299   -0.0000078     0.0000779    0.0000957    -0.0001461    0.0001580 
   0.151287819    -0.5501799   -0.1775893     0.0004383    0.0001336     0.0001127    0.0000657     0.0001253    0.0002714 
   0.151387844    -0.5505613   -0.1631257     0.0002477    0.0000927     0.0001093   -0.0000337     0.0001003    0.0000706 
   0.151487869    -0.5560802   -0.1471542     0.0001480   -0.0000551    -0.0001353   -0.0002000     0.0003428    0.0004159 
   0.151587894    -0.5549260   -0.1287316    -0.0001327    0.0000248    -0.0003150    0.0000432    -0.0001920    0.0000937 
   0.151687919    -0.5508496   -0.1127588     0.0000084   -0.0000924     0.0000409    0.0000544    -0.0000520    0.0012031 
   0.151787944    -0.5551383   -0.0977620     0.0001431   -0.0000452    -0.0000530    0.0000077    -0.0007628    0.0003766 
   0.151887969    -0.5522178   -0.0800115    -0.0000704    0.0002416     0.0001092   -0.0001318    -0.0003113    0.0002167 
   0.151987994    -0.5540816   -0.0600190    -0.0003021   -0.0004042     0.0000521   -0.0000444    -0.0004905    0.0004989 
   0.152088019    -0.5514786   -0.0451406     0.0000027   -0.0000888     0.0000172   -0.0000603    -0.0001992    0.0005163 
   0.152188044    -0.5487642   -0.0247259     0.0002058   -0.0002494     0.0001439   -0.0000099    -0.0000158    0.0001097 
   0.152288069    -0.5468513   -0.0102459     0.0000245    0.0002238     0.0002173   -0.0000228    -0.0000173    0.0003666 
   0.152388094    -0.5440231    0.0086112     0.0002390    0.0000071    -0.0001308   -0.0001452    -0.0003802    0.0000890 
   0.152488119    -0.5397313    0.0231350    -0.0001772    0.0000756    -0.0000590   -0.0000645    -0.0004981    0.0003384 
   0.152588144    -0.5353820    0.0427879    -0.0001684    0.0001816    -0.0000010   -0.0001243    -0.0006761    0.0004411 
   0.152688169    -0.5282609    0.0593342    -0.0000164    0.0000443     0.0000279    0.0000624    -0.0005907   -0.0003869 
   0.152788194    -0.5231811    0.0771331     0.0000797    0.0002586    -0.0001130    0.0000781    -0.0000775   -0.0000612 
   0.152888219    -0.5210575    0.0933126    -0.0000496   -0.0004342    -0.0000900    0.0000671    -0.0003133    0.0004185 
   0.152988244    -0.5127941    0.1125429    -0.0000534    0.0001725     0.0000501   -0.0001017    -0.0003257    0.0000642 
   0.153088269    -0.5060660    0.1304573     0.0000509   -0.0003081     0.0000638   -0.0000310     0.0000279    0.0002131 
   0.153188294    -0.4965867    0.1484792    -0.0002350   -0.0000362    -0.0001764    0.0000576    -0.0001554    0.0002629 
   0.153288319    -0.4895758    0.1659756    -0.0000125   -0.0002104    -0.0000624   -0.0000559     0.0000352    0.0006233 
   0.153388344    -0.4811805    0.1844943     0.0001595    0.0001145    -0.0000661    0.0000418    -0.0004273    0.0004024 
   0.153488369    -0.4703463    0.1969639    -0.0002540   -0.0000466    -0.0000311    0.0000384     0.0000340    0.0003907 
   0.153588394    -0.4596909    0.2162101    -0.0000883   -0.0000146    -0.0000706    0.0001209    -0.0001485    0.0002147 
   0.153688419    -0.4509030    0.2362894     0.0000110   -0.0000359     0.0001343   -0.0001353    -0.0000568    0.0006512 
   0.153788444    -0.4375608    0.2498577     0.0003112    0.0000090    -0.0001030   -0.0001405    -0.0000832    0.0000870 
   0.153888469    -0.4239340    0.2672339     0.0001696   -0.0001931     0.0000084    0.0000061    -0.0000473   -0.0000386 
   0.153988494    -0.4132331    0.2850872     0.0000419    0.0002394     0.0001498   -0.0000154    -0.0002378    0.0004772 
   0.154088519    -0.4003791    0.3009194     0.0001525   -0.0000604     0.0000132   -0.0000315    -0.0002434    0.0004041 
   0.154188544    -0.3846089    0.3153149     0.0001598    0.0002761    -0.0000055    0.0000098    -0.0001881    0.0000166 
   0.154288569    -0.3716184    0.3308811     0.0000523   -0.0000936     0.0000651   -0.0000991    -0.0003636    0.0001985 
   0.154388594    -0.3497781    0.3455054    -0.0003235   -0.0000436    -0.0000240    0.0000244    -0.0002590    0.0005528 
   0.154488619    -0.3374181    0.3600565     0.0001029    0.0002306    -0.0000838   -0.0002041    -0.0003924   -0.0001187 
   0.154588644    -0.3210618    0.3759875     0.0000871   -0.0001178     0.0000551    0.0000417    -0.0002648   -0.0001253 
   0.154688669    -0.3027453    0.3885438     0.0000459    0.0000418     0.0000065   -0.0000834     0.0002425    0.0002963 
   0.154788694    -0.2836227    0.3997134     0.0000934    0.0000594    -0.0000781    0.0000852    -0.0003727    0.0002336 
   0.154888719    -0.2621457    0.4122103    -0.0001607   -0.0000978     0.0000658    0.0000013     0.0002233   -0.0000548 
   0.154988744    -0.2448747    0.4228221    -0.0002474    0.0002030     0.0000132    0.0001721    -0.0003182   -0.0000523 
   0.155088769    -0.2250171    0.4342692     0.0001504   -0.0002370    -0.0000806    0.0000352    -0.0006330    0.0002241 
   0.155188794    -0.2036795    0.4475264    -0.0000610   -0.0001784     0.0000009    0.0001070    -0.0002401    0.0000724 
   0.155288819    -0.1834204    0.4551114     0.0003063   -0.0001081     0.0000912   -0.0002131     0.0000478    0.0001884 
   0.155388844    -0.1602667    0.4652790    -0.0000652   -0.0000163    -0.0000513   -0.0000072    -0.0001756    0.0004021 
   0.155488869    -0.1373223    0.4720023     0.0000576   -0.0001562    -0.0000181    0.0000192    -0.0001110    0.0000098 
   0.155588894    -0.1124916    0.4792973    -0.0000663    0.0001503     0.0001329   -0.0000320    -0.0002955   -0.0000268 
   0.155688919    -0.0891895    0.4889264     0.0000504   -0.0001431    -0.0000713   -0.0001179    -0.0001260   -0.0001037 
   0.155788944    -0.0649552    0.4918458     0.0001161    0.0001512     0.0000398   -0.0001561    -0.0000223    0.0002856 
   0.155888969    -0.0413833    0.4974653     0.0001164    0.0000584     0.0000852   -0.0001237    -0.0004493    0.0002852 
   0.155988994    -0.0164607    0.5012200     0.0001922    0.0000129    -0.0001039   -0.0000261    -0.0001745    0.0002696 
   0.156089020     0.0108639    0.5033532     0.0002220    0.0001799    -0.0000894   -0.0001025     0.0000149    0.0006775 
   0.156189045     0.0364567    0.5040768     0.0001044   -0.0001708    -0.0000073   -0.0001223     0.0001807    0.0000183 
   0.156289070     0.0618832    0.5040015     0.0000973    0.0001108     0.0000064    0.0000435    -0.0004023    0.0003659 
   0.156389095     0.0864717    0.5050116    -0.0001102   -0.0001221    -0.0000574    0.0000014    -0.0002207    0.0003649 
   0.156489120     0.1145473    0.5018936     0.0000504    0.0000671     0.0000203    0.0002558    -0.0000009    0.0003591 
   0.156589145     0.1382656    0.4969915    -0.0000282   -0.0000748     0.0000247   -0.0000786    -0.0005055    0.0001988 
   0.156689170     0.1661958    0.4936292     0.0001810   -0.0000514    -0.0000174    0.0001564    -0.0003874   -0.0000237 
   0.156789195     0.1899066    0.4897032     0.0003094   -0.0001142    -0.0001776   -0.0001272    -0.0000972    0.0000557 
   0.156889220     0.2162099    0.4851155     0.0002169    0.0002840    -0.0001186   -0.0001946    -0.0002512   -0.0002578 
   0.156989245     0.2423347    0.4761563     0.0000969   -0.0000552     0.0000159   -0.0000437    -0.0008117    0.0001150 
   0.157089270     0.2671435    0.4690285    -0.0000323    0.0001606    -0.0000214    0.0000684    -0.0005464    0.0002217 
   0.157189295     0.2927774    0.4575668     0.0001583   -0.0004149    -0.0000320    0.0001678    -0.0006066    0.0000517 
   0.157289320     0.3173395    0.4450174    -0.0000312   -0.0001190    -0.0000672    0.0001134    -0.0009001    0.0001360 
   0.157389345     0.3402991    0.4340135     0.0000224   -0.0003207     0.0000382   -0.0001011     0.0000666    0.0004917 
   0.157489370     0.3659270    0.4197323    -0.0001249   -0.0000839    -0.0001115    0.0000190    -0.0004459    0.0004487 
   0.157589395     0.3882413    0.4077142     0.0000507   -0.0000343    -0.0000200   -0.0001592    -0.0004080   -0.0000458 
   0.157689420     0.4086299    0.3922638     0.0000444    0.0001313     0.0000974   -0.0001225    -0.0006458    0.0000023 
   0.157789445     0.4306040    0.3760099    -0.0004500   -0.0001188    -0.0001643    0.0000777    -0.0003113    0.0000141 
   0.157889470     0.4532197    0.3586070     0.0000198   -0.0000760    -0.0000887    0.0000922    -0.0001772    0.0001125 
   0.157989495     0.4736274    0.3413685    -0.0000624    0.0000504    -0.0000432   -0.0002808    -0.0003909    0.0001535 
   0.158089520     0.4915994    0.3201662     0.0000532    0.0000332     0.0001446   -0.0000363    -0.0001648    0.0000186 
   0.158189545     0.5137444    0.3025896    -0.0003084   -0.0001233    -0.0001027   -0.0000544    -0.0004366    0.0001396 
   0.158289570     0.5302222    0.2826369    -0.0000203   -0.0001594    -0.0001663    0.0001600     0.0000066   -0.0003369 
   0.158389595     0.5447810    0.2592106     0.0001331    0.0001418    -0.0000612    0.0001545    -0.0001765   -0.0000272 
   0.158489620     0.5598799    0.2350179     0.0003695   -0.0000767     0.0001647   -0.0000500    -0.0002715    0.0000825 
   0.158589645     0.5788743    0.2136606     0.0000456   -0.0002287     0.0000254   -0.0002792    -0.0004095   -0.0001971 
   0.158689670     0.5941169    0.1893201    -0.0002307    0.0000957     0.0000290    0.0001172    -0.0000224   -0.0000538 
   0.158789695     0.6035376    0.1676903     0.0002896   -0.0001725     0.0000401   -0.0000754    -0.0001587    0.0001993 
   0.158889720     0.6122989    0.1457849     0.0001489   -0.0001353     0.0001119    0.0001140     0.0001745   -0.0002273 
   0.158989745     0.6247571    0.1209448    -0.0000549   -0.0000756    -0.0001563   -0.0000779    -0.0006839    0.0003111 
   0.159089770     0.6310906    0.0964776    -0.0002872    0.0000410    -0.0000268    0.0000404    -0.0003260    0.0002017 
   0.159189795     0.6420615    0.0697993     0.0001400    0.0000943     0.0001991    0.0000293    -0.0001631    0.0000001 
   0.159289820     0.6489677    0.0428129    -0.0000925    0.0000831    -0.0001500   -0.0000131    -0.0003935    0.0001635 
   0.159389845     0.6577610    0.0174473     0.0002845   -0.0003326     0.0001070    0.0000352     0.0001593    0.0001034 
   0.159489870     0.6608883   -0.0063810    -0.0001601    0.0002826    -0.0000693   -0.0001874    -0.0004001   -0.0005003 
   0.159589895     0.6642685   -0.0330486     0.0004129   -0.0002217    -0.0000944   -0.0000547    -0.0004374    0.0001426 
   0.159689920     0.6690815   -0.0576490     0.0002458    0.0002325    -0.0001352   -0.0000079    -0.0001864    0.0000971 
   0.159789945     0.6706380   -0.0825322    -0.0000475   -0.0002775    -0.0001274   -0.0000244    -0.0003867    0.0002724 
   0.159889970     0.6682974   -0.1074368     0.0002950   -0.0001319     0.0000818   -0.0001224    -0.0002966    0.0000221 
   0.159989995     0.6701432   -0.1319339    -0.0000829   -0.0002060     0.0000980    0.0001280    -0.0005176    0.0003761 
   0.160090020     0.6639941   -0.1552561     0.0000689    0.0004629     0.0003758   -0.0000260    -0.0003705   -0.0002909 
   0.160190045     0.6649636   -0.1822889    -0.0002726   -0.0003599     0.0002011   -0.0001286    -0.0004175   -0.0001799 
   0.160290070     0.6601881   -0.2079216    -0.0001717    0.0001962    -0.0001208    0.0000109    -0.0002153    0.0000245 
   0.160390095     0.6521949   -0.2278771     0.0004364   -0.0000562     0.0000323   -0.0002194     0.0000880    0.0000583 
   0.160490120     0.6481904   -0.2548210     0.0003475    0.0001471    -0.0001265    0.0000966    -0.0006026    0.0000111 
   0.160590145     0.6427777   -0.2745704    -0.0002067    0.0002282    -0.0001159    0.0002398     0.0002542    0.0001019 
   0.160690170     0.6323751   -0.2986859    -0.0000617    0.0000660    -0.0002296    0.0000395    -0.0001945   -0.0000458 
   0.160790195     0.6278638   -0.3212062    -0.0003970   -0.0001148    -0.0001102   -0.0002640    -0.0002746   -0.0002110 
   0.160890220     0.6178027   -0.3413875    -0.0000550   -0.0001785     0.0000368   -0.0001045    -0.0002121    0.0002399 
   0.160990245     0.6077505   -0.3641533     0.0003701    0.0003315     0.0000230    0.0000834    -0.0002446    0.0001704 
   0.161090270     0.6013833   -0.3844860    -0.0000805   -0.0005150     0.0002193   -0.0001802    -0.0000315    0.0002133 
   0.161190295     0.5859636   -0.4028096     0.0000881    0.0002344    -0.0000157   -0.0003475    -0.0007325    0.0000985 
   0.161290320     0.5791369   -0.4202789    -0.0000314    0.0004562    -0.0000586   -0.0001438    -0.0000913   -0.0002093 
   0.161390345     0.5651448   -0.4395746    -0.0000697    0.0000602     0.0000750   -0.0000497    -0.0003231    0.0003044 
   0.161490370     0.5553845   -0.4563303     0.0004250    0.0001105    -0.0001467   -0.0001837    -0.0000311   -0.0000951 
   0.161590395     0.5441903   -0.4730072    -0.0001729    0.0001728    -0.0000318    0.0000382     0.0000966   -0.0001448 
   0.161690420     0.5271279   -0.4921006    -0.0002240   -0.0000208     0.0001315    0.0001385    -0.0001935    0.0000794 
   0.161790445     0.5159069   -0.5051662     0.0002802    0.0003262    -0.0000297    0.0000495     0.0002384   -0.0002880 
   0.161890470     0.5021542   -0.5203486     0.0000053   -0.0002488     0.0002167   -0.0000243     0.0000553   -0.0000128 
   0.161990495     0.4914069   -0.5349715    -0.0000553    0.0001646     0.0002096   -0.0001770    -0.0002056   -0.0001630 
   0.162090520     0.4710706   -0.5490860    -0.0001135   -0.0004095     0.0000094   -0.0000318     0.0002243    0.0000465 
   0.162190545     0.4599359   -0.5619726     0.0000635    0.0001316     0.0002741    0.0000771    -0.0005426   -0.0002709 
   0.162290570     0.4401678   -0.5756054    -0.0001291    0.0002769     0.0001329   -0.0001276    -0.0000020    0.0000081 
   0.162390595     0.4305206   -0.5888304    -0.0005824   -0.0000579     0.0000306   -0.0001726    -0.0001869   -0.0001318 
   0.162490620     0.4103692   -0.5969130    -0.0001636    0.0003818     0.0000239   -0.0001151    -0.0007083   -0.0005627 
   0.162590645     0.3942235   -0.6073489     0.0001889   -0.0001821     0.0000809   -0.0002044    -0.0005566   -0.0002324 
   0.162690670     0.3785562   -0.6239527    -0.0002095    0.0003534     0.0000385   -0.0000194    -0.0004259   -0.0003036 
   0.162790695     0.3630248   -0.6281902    -0.0001389   -0.0001294     0.0002041   -0.0000220    -0.0000740   -0.0003527 
   0.162890720     0.3511909   -0.6405747    -0.0001907   -0.0003134     0.0001010    0.0000980    -0.0000489   -0.0003668 
   0.162990745     0.3302628   -0.6497910     0.0002667   -0.0002044     0.0001044    0.0001226    -0.0002378   -0.0000463 
   0.163090770     0.3135752   -0.6553776    -0.0001069   -0.0002524    -0.0001420    0.0001496    -0.0005656    0.0001735 
   0.163190795     0.3011306   -0.6648105     0.0000636    0.0003096     0.0001134   -0.0002344    -0.0000592   -0.0000753 
   0.163290820     0.2798682   -0.6684227    -0.0001101   -0.0001381     0.0001680   -0.0000156    -0.0005948    0.0001976 
   0.163390845     0.2605286   -0.6768115     0.0000682   -0.0001115    -0.0001270    0.0000806    -0.0003626   -0.0000745 
   0.163490870     0.2472900   -0.6827562    -0.0002745   -0.0000382     0.0000104   -0.0000235    -0.0007003   -0.0001714 
   0.163590895     0.2274730   -0.6841998     0.0000168   -0.0001600    -0.0001587   -0.0001123    -0.0001111   -0.0000364 
   0.163690920     0.2112849   -0.6979970    -0.0002810   -0.0000788     0.0001357   -0.0002643    -0.0002686   -0.0001152 
   0.163790945     0.1967336   -0.6971492    -0.0001253   -0.0005227    -0.0000400   -0.0000014    -0.0004045   -0.0000858 
   0.163890970     0.1834263   -0.6990277    -0.0001730    0.0000964     0.0000810   -0.0002531    -0.0003089    0.0000798 
   0.163990995     0.1644608   -0.7022061     0.0001031   -0.0000747     0.0001109   -0.0000945    -0.0000175   -0.0000008 
   0.164091021     0.1511681   -0.7049357    -0.0002011    0.0000992     0.0001440    0.0001993     0.0002000   -0.0008063 
   0.164191046     0.1334858   -0.7109483    -0.0001335    0.0001378     0.0000159    0.0000428    -0.0000988   -0.0000265 
   0.164291071     0.1189475   -0.7090534     0.0000197    0.0000794    -0.0001145    0.0000688    -0.0003517   -0.0000075 
   0.164391096     0.0946510   -0.7092219     0.0002556   -0.0002567    -0.0000071    0.0002323    -0.0003501    0.0000141 
   0.164491121     0.0832754   -0.7125711     0.0002463   -0.0001764     0.0000244   -0.0000213    -0.0000294   -0.0001169 
   0.164591146     0.0676947   -0.7093531    -0.0001949   -0.0000417     0.0001210   -0.0000946    -0.0002544   -0.0000803 
   0.164691171     0.0494931   -0.7141275     0.0001456    0.0000712    -0.0000268    0.0001136    -0.0005351   -0.0004249 
   0.164791196     0.0373999   -0.7120603     0.0000003   -0.0001160     0.0000761   -0.0002046     0.0001461   -0.0003123 
   0.164891221     0.0159297   -0.7131407    -0.0001123   -0.0000266     0.0000040    0.0000192    -0.0004237   -0.0004264 
   0.164991246     0.0006783   -0.7100989     0.0000640    0.0002532     0.0001784   -0.0000639    -0.0003518   -0.0000699 
   0.165091271    -0.0095265   -0.7090949     0.0001439    0.0001013    -0.0001140   -0.0000638    -0.0000088   -0.0004529 
   0.165191296    -0.0269103   -0.7043339     0.0004776   -0.0000393    -0.0000158    0.0000556    -0.0000279   -0.0001182 
   0.165291321    -0.0421871   -0.7054884    -0.0000828   -0.0000452    -0.0002399   -0.0000282    -0.0002792   -0.0003318 
   0.165391346    -0.0544507   -0.7008092     0.0000967   -0.0000781    -0.0002295   -0.0001748     0.0000232   -0.0001402 
   0.165491371    -0.0757014   -0.6946999     0.0001003   -0.0002080    -0.0000537    0.0001460    -0.0000926   -0.0001759 
   0.165591396    -0.0860833   -0.6985216     0.0001905   -0.0000021     0.0000600    0.0002178    -0.0003388    0.0000414 
   0.165691421    -0.1051984   -0.6921239     0.0002656    0.0004650    -0.0000215   -0.0000531    -0.0006126   -0.0000959 
   0.165791446    -0.1137599   -0.6816860     0.0002384   -0.0000579     0.0001811    0.0001617    -0.0003519   -0.0001831 
   0.165891471    -0.1300434   -0.6843116     0.0002636    0.0000556     0.0000377    0.0000527     0.0002870   -0.0001607 
   0.165991496    -0.1423823   -0.6805441     0.0002125    0.0000441    -0.0001297    0.0000735    -0.0005934   -0.0002144 
   0.166091521    -0.1581583   -0.6742301     0.0002767   -0.0000782     0.0000141    0.0001632    -0.0004997   -0.0001503 
   0.166191546    -0.1692434   -0.6661183    -0.0004202   -0.0000541    -0.0001291    0.0000100    -0.0005114   -0.0005894 
   0.166291571    -0.1851915   -0.6620926     0.0001328    0.0002317    -0.0001106    0.0001260    -0.0004612   -0.0005380 
   0.166391596    -0.2001157   -0.6600519    -0.0001714   -0.0001401    -0.0000707   -0.0001846    -0.0009270   -0.0000681 
   0.166491621    -0.2171156   -0.6493136    -0.0001430    0.0001183    -0.0001870    0.0002351    -0.0004086   -0.0003945 
   0.166591646    -0.2266559   -0.6431611     0.0003745   -0.0001982     0.0000477    0.0001085    -0.0001586   -0.0002871 
   0.166691671    -0.2395173   -0.6387329     0.0003104   -0.0002338    -0.0000146    0.0001985    -0.0004425    0.0001045 
   0.166791696    -0.2483781   -0.6317012     0.0000407   -0.0000401    -0.0000284    0.0000482    -0.0005903    0.0000685 
   0.166891721    -0.2638232   -0.6224058    -0.0000781   -0.0000099    -0.0001673    0.0001210    -0.0004272    0.0000383 
   0.166991746    -0.2728812   -0.6162540    -0.0001297    0.0000492     0.0002202    0.0000491    -0.0004932   -0.0002359 
   0.167091771    -0.2874085   -0.6081449     0.0000751    0.0001804     0.0000053   -0.0000165    -0.0005163   -0.0000828 
   0.167191796    -0.2990332   -0.6000944    -0.0001094   -0.0005079     0.0000285   -0.0000658    -0.0003695    0.0000191 
   0.167291821    -0.3086520   -0.5916481     0.0001164    0.0000713     0.0001045   -0.0000286    -0.0000833   -0.0003118 
   0.167391846    -0.3221030   -0.5840880     0.0001193   -0.0000173     0.0000821    0.0000385    -0.0002732   -0.0003901 
   0.167491871    -0.3346190   -0.5730146    -0.0001471   -0.0001234    -0.0000824   -0.0001227     0.0000948   -0.0004363 
   0.167591896    -0.3431157   -0.5633435     0.0000764   -0.0000837     0.0001031   -0.0000451    -0.0003108    0.0000409 
   0.167691921    -0.3514022   -0.5562854     0.0001229   -0.0000093     0.0000047    0.0001207    -0.0002571   -0.0005837 
   0.167791946    -0.3660112   -0.5457290    -0.0000267   -0.0000843    -0.0000146    0.0000614    -0.0001377   -0.0006227 
   0.167891971    -0.3754916   -0.5360481    -0.0000141   -0.0000646    -0.0001314    0.0000637     0.0000308   -0.0004276 
   0.167991996    -0.3851971   -0.5275296     0.0001937    0.0000686     0.0000448    0.0000272    -0.0001359    0.0000875 
   0.168092021    -0.3943421   -0.5158163     0.0000075   -0.0001086    -0.0000498    0.0001267    -0.0001897   -0.0000714 
   0.168192046    -0.4029678   -0.5060018    -0.0001636    0.0002461     0.0002619   -0.0000572    -0.0003724   -0.0003510 
   0.168292071    -0.4121822   -0.4938971     0.0002034   -0.0002306     0.0000668   -0.0002266    -0.0001788   -0.0005046 
   0.168392096    -0.4225970   -0.4825546     0.0000610    0.0001202    -0.0000286   -0.0000020    -0.0001501   -0.0006964 
   0.168492121    -0.4305254   -0.4744252    -0.0001266   -0.0002120    -0.0001999   -0.0000619    -0.0001339   -0.0006107 
   0.168592146    -0.4389646   -0.4591805    -0.0002680    0.0000240     0.0000577   -0.0000988    -0.0000207   -0.0003753 
   0.168692171    -0.4471621   -0.4471709    -0.0001450   -0.0001895    -0.0001302   -0.0000457    -0.0001161   -0.0001856 
   0.168792196    -0.4533080   -0.4368003     0.0000806   -0.0000552    -0.0000911    0.0000038    -0.0006190   -0.0002046 
   0.168892221    -0.4609350   -0.4240565    -0.0000167   -0.0000074    -0.0000097    0.0000548     0.0001657   -0.0005236 
   0.168992246    -0.4725257   -0.4120041    -0.0000427    0.0001892    -0.0000643    0.0000606    -0.0000381   -0.0003148 
   0.169092271    -0.4779060   -0.4017843     0.0000036    0.0000567    -0.0001326    0.0000541    -0.0000881   -0.0000149 
   0.169192296    -0.4828837   -0.3890868    -0.0001554   -0.0001357    -0.0000207   -0.0000390    -0.0008189    0.0005147 
   0.169292321    -0.4898758   -0.3755923    -0.0002589   -0.0000071    -0.0000992   -0.0000451     0.0002212    0.0000986 
   0.169392346    -0.4947554   -0.3639577    -0.0001913    0.0000439     0.0001331   -0.0002469     0.0003843   -0.0005257 
   0.169492371    -0.5024875   -0.3492114    -0.0000544    0.0000444     0.0000127    0.0000002     0.0002435   -0.0005644 
   0.169592396    -0.5094438   -0.3378052     0.0000005   -0.0000530     0.0000819    0.0002256    -0.0001761   -0.0003080 
   0.169692421    -0.5143405   -0.3229433    -0.0000619    0.0001219     0.0001315    0.0000857    -0.0005736   -0.0005351 
   0.169792446    -0.5195123   -0.3112604     0.0000635   -0.0000422    -0.0000842   -0.0000962     0.0003645   -0.0001735 
   0.169892471    -0.5232905   -0.2961968     0.0001756   -0.0000882    -0.0000829   -0.0000016    -0.0006671    0.0000229 
   0.169992496    -0.5291836   -0.2806211    -0.0001228    0.0000625     0.0000069    0.0000269     0.0002783   -0.0002907 
   0.170092521    -0.5326002   -0.2703167    -0.0002064    0.0000173    -0.0000107   -0.0000915    -0.0008993    0.0002126 
   0.170192546    -0.5369225   -0.2538410     0.0000249   -0.0001392    -0.0000516   -0.0001607    -0.0001925   -0.0003619 
   0.170292571    -0.5404636   -0.2401048     0.0002286    0.0000508     0.0000498   -0.0000465    -0.0000507    0.0000383 
   0.170392596    -0.5450622   -0.2269133     0.0002594   -0.0000045    -0.0001107   -0.0000166     0.0004336   -0.0002753 
   0.170492621    -0.5456160   -0.2129065     0.0003207   -0.0001842    -0.0001274    0.0000740    -0.0004130    0.0002712 
   0.170592646    -0.5486694   -0.1972094    -0.0000227    0.0000197     0.0000099    0.0000736    -0.0002089   -0.0005553 
   0.170692671    -0.5503751   -0.1841801     0.0000455    0.0000810    -0.0000686   -0.0001141    -0.0001600   -0.0002524 
   0.170792696    -0.5522064   -0.1662882     0.0001266    0.0000947    -0.0000048   -0.0000133    -0.0000467   -0.0002921 
   0.170892721    -0.5542290   -0.1525231     0.0000291   -0.0001482     0.0000081    0.0000418    -0.0002081   -0.0006389 
   0.170992746    -0.5552419   -0.1388900     0.0001592    0.0001301    -0.0000941   -0.0000343    -0.0003483   -0.0002811 
   0.171092771    -0.5571068   -0.1232615    -0.0000438    0.0001277     0.0000568   -0.0000332    -0.0000578   -0.0002459 
   0.171192796    -0.5582551   -0.1061987    -0.0000467    0.0001100     0.0000724   -0.0001272     0.0001079   -0.0000379 
   0.171292821    -0.5574571   -0.0922108     0.0000546    0.0001642    -0.0000691   -0.0000291    -0.0004780    0.0000068 
   0.171392846    -0.5567026   -0.0775640     0.0001123   -0.0000215    -0.0000028   -0.0000291     0.0001306    0.0001017 
   0.171492871    -0.5565892   -0.0610552    -0.0000104   -0.0001000    -0.0000769   -0.0000260    -0.0002555    0.0002173 
   0.171592896    -0.5545986   -0.0440839     0.0001041   -0.0001490    -0.0000444    0.0000394     0.0001460   -0.0003264 
   0.171692921    -0.5538428   -0.0283768    -0.0000882   -0.0000256    -0.0000184    0.0000623     0.0003495   -0.0005295 
   0.171792946    -0.5510234   -0.0135804    -0.0000085    0.0001031    -0.0000488   -0.0000410    -0.0004924   -0.0004605 
   0.171892971    -0.5503103    0.0045637     0.0000305    0.0001214    -0.0000184   -0.0000984    -0.0002957   -0.0000578 
   0.171992996    -0.5458367    0.0176970     0.0000408    0.0000105    -0.0000400    0.0000635    -0.0005914   -0.0002499 
   0.172093022    -0.5420431    0.0347456    -0.0003143   -0.0002597     0.0000455   -0.0000764     0.0000206   -0.0004801 
   0.172193047    -0.5403376    0.0500959     0.0001633    0.0001798     0.0000351   -0.0000649     0.0000329   -0.0003227 
   0.172293072    -0.5336778    0.0665868    -0.0000055    0.0000230     0.0000406    0.0000720     0.0002029    0.0000856 
   0.172393097    -0.5282633    0.0822411    -0.0000562    0.0001670     0.0000415    0.0000998    -0.0000886   -0.0006172 
   0.172493122    -0.5239174    0.0976137    -0.0000437    0.0001075     0.0001206   -0.0000982     0.0001257   -0.0003662 
   0.172593147    -0.5176802    0.1132946     0.0000924   -0.0000541    -0.0000373   -0.0000611    -0.0000177   -0.0004902 
   0.172693172    -0.5128350    0.1296230    -0.0001140    0.0000101    -0.0000628    0.0000264    -0.0004077    0.0001649 
   0.172793197    -0.5060286    0.1444847     0.0000006    0.0000623     0.0000550   -0.0001069     0.0003627    0.0000577 
   0.172893222    -0.4995146    0.1598949     0.0002564   -0.0000276     0.0001405    0.0000754    -0.0001328   -0.0006250 
   0.172993247    -0.4898105    0.1777696    -0.0000414    0.0000330     0.0001078    0.0001004    -0.0002475   -0.0002987 
   0.173093272    -0.4834513    0.1930052    -0.0000308    0.0000871     0.0000067   -0.0000019    -0.0003194    0.0001965 
   0.173193297    -0.4736021    0.2078654     0.0001460   -0.0002549    -0.0002053    0.0000648    -0.0002171   -0.0005603 
   0.173293322    -0.4672208    0.2238965     0.0001004   -0.0000677    -0.0001177   -0.0000592     0.0000725   -0.0003300 
   0.173393347    -0.4543792    0.2402477    -0.0000189   -0.0000316    -0.0000447   -0.0000223     0.0004736   -0.0004084 
   0.173493372    -0.4456199    0.2531567     0.0001822   -0.0001649    -0.0000414   -0.0001351     0.0001812   -0.0005335 
   0.173593397    -0.4339963    0.2676262     0.0000370    0.0002535     0.0001690    0.0000329    -0.0000853   -0.0000662 
   0.173693422    -0.4209492    0.2822517     0.0001630    0.0000084    -0.0000217    0.0000100    -0.0003501   -0.0004620 
   0.173793447    -0.4088111    0.2959658     0.0000458    0.0001809    -0.0000393    0.0000692     0.0002611   -0.0005477 
   0.173893472    -0.3974536    0.3111351     0.0000639   -0.0000237    -0.0000016   -0.0000327    -0.0001040   -0.0006407 
   0.173993497    -0.3837163    0.3255398    -0.0000371   -0.0000129     0.0000411    0.0000530     0.0002396   -0.0004084 
   0.174093522    -0.3701076    0.3383396     0.0000961    0.0001412    -0.0000204    0.0000097     0.0002422   -0.0003044 
   0.174193547    -0.3569262    0.3512750    -0.0001084   -0.0004339    -0.0000637    0.0000318    -0.0000333   -0.0003374 
   0.174293572    -0.3413475    0.3670976    -0.0000797    0.0001255     0.0000152    0.0001131     0.0002591   -0.0002090 
   0.174393597    -0.3267474    0.3771374    -0.0000264    0.0000446     0.0000193    0.0000501    -0.0002288   -0.0000971 
   0.174493622    -0.3114348    0.3900754    -0.0003081    0.0001065    -0.0000225   -0.0001117    -0.0005326   -0.0003171 
   0.174593647    -0.2955682    0.4015580     0.0000390    0.0001000     0.0000122    0.0000800     0.0001040   -0.0004919 
   0.174693672    -0.2768294    0.4121922     0.0001198    0.0000398     0.0000142   -0.0000889    -0.0004548   -0.0002393 
   0.174793697    -0.2621181    0.4257415     0.0000923    0.0001735     0.0001243    0.0002956     0.0002289   -0.0004358 
   0.174893722    -0.2403276    0.4345985    -0.0003184   -0.0000515     0.0001651    0.0000018    -0.0000876   -0.0005620 
   0.174993747    -0.2227661    0.4431813     0.0002684    0.0001160    -0.0000188   -0.0000659     0.0001646   -0.0006207 
   0.175093772    -0.2048855    0.4513143    -0.0001301   -0.0000284    -0.0000157   -0.0000931    -0.0002318   -0.0007219 
   0.175193797    -0.1858021    0.4609737    -0.0002834    0.0003213    -0.0001624    0.0000473     0.0001644   -0.0002767 
   0.175293822    -0.1632951    0.4703081    -0.0002797   -0.0002462    -0.0001159   -0.0000686    -0.0003256   -0.0006045 
   0.175393847    -0.1443783    0.4757505     0.0000308   -0.0001784    -0.0000144    0.0000843     0.0006302   -0.0004854 
   0.175493872    -0.1240511    0.4823589     0.0000794   -0.0001649    -0.0000280    0.0002091    -0.0003702   -0.0005332 
   0.175593897    -0.1023069    0.4889059    -0.0002982   -0.0000564    -0.0000463    0.0000404     0.0003410   -0.0003824 
   0.175693922    -0.0816734    0.4936165     0.0002028   -0.0002509     0.0003121   -0.0002031    -0.0000205   -0.0003922 
   0.175793947    -0.0577443    0.4974501     0.0000421   -0.0000740     0.0001251    0.0000010    -0.0001014   -0.0007032 
   0.175893972    -0.0380109    0.5020934     0.0003777   -0.0000523    -0.0001053   -0.0000320     0.0001007   -0.0007527 
   0.175993997    -0.0136056    0.5059370     0.0000296    0.0002169    -0.0000310   -0.0001421    -0.0002131   -0.0007852 
   0.176094022     0.0077363    0.5090320    -0.0001781   -0.0000885     0.0002456   -0.0001809     0.0000864   -0.0000767 
   0.176194047     0.0316695    0.5080459    -0.0001573    0.0000937     0.0001431   -0.0001158     0.0000736   -0.0005208 
   0.176294072     0.0555636    0.5069031     0.0001903   -0.0000877    -0.0000819    0.0000106    -0.0003915   -0.0005510 
   0.176394097     0.0796839    0.5078480     0.0001049    0.0000034    -0.0001494    0.0001404    -0.0003548   -0.0005343 
   0.176494122     0.1045121    0.5039563    -0.0003251    0.0003109     0.0002542    0.0000633     0.0000833   -0.0005012 
   0.176594147     0.1292926    0.5016081    -0.0003649   -0.0001528    -0.0002481    0.0000734     0.0002306   -0.0006647 
   0.176694172     0.1504037    0.5001013    -0.0002034    0.0002660    -0.0001263   -0.0000853    -0.0000515   -0.0004129 
   0.176794197     0.1754101    0.4967035    -0.0001544    0.0000238     0.0001638   -0.0000545     0.0002405   -0.0003669 
   0.176894222     0.1970962    0.4894755     0.0001999    0.0001834    -0.0001908    0.0001635    -0.0000998    0.0000525 
   0.176994247     0.2228208    0.4830006    -0.0000953    0.0000961    -0.0000421    0.0002122     0.0001754   -0.0004600 
   0.177094272     0.2449390    0.4736075     0.0002339    0.0001698    -0.0000965   -0.0000588     0.0003032   -0.0000006 
   0.177194297     0.2659084    0.4651194    -0.0001494    0.0000098     0.0001064   -0.0001171     0.0001270   -0.0002596 
   0.177294322     0.2901790    0.4561941    -0.0002748    0.0000084    -0.0000399    0.0001207    -0.0001202   -0.0004943 
   0.177394347     0.3124978    0.4461199    -0.0000944    0.0002916    -0.0000072   -0.0000657     0.0000575   -0.0003249 
   0.177494372     0.3367342    0.4350092    -0.0001171    0.0000198    -0.0002603    0.0001060    -0.0001876   -0.0008223 
   0.177594397     0.3590434    0.4201023     0.0002345   -0.0000934     0.0000414   -0.0000262     0.0001437   -0.0001869 
   0.177694422     0.3778024    0.4084241    -0.0001255    0.0002828     0.0001323    0.0002424     0.0000411   -0.0007001 
   0.177794447     0.3988626    0.3909977     0.0002181   -0.0000434     0.0000795    0.0001092    -0.0000540   -0.0006010 
   0.177894472     0.4214658    0.3792025    -0.0000620    0.0000194     0.0002224   -0.0002086     0.0001965   -0.0005105 
   0.177994497     0.4393891    0.3620048     0.0000883    0.0004526    -0.0001209    0.0000698     0.0002906   -0.0005375 
   0.178094522     0.4587951    0.3428981    -0.0001142    0.0000061     0.0001296    0.0004020     0.0002832   -0.0002490 
   0.178194547     0.4790499    0.3250961     0.0004538    0.0001277    -0.0000076   -0.0002124     0.0001541   -0.0002661 
   0.178294572     0.4937544    0.3084980     0.0002471   -0.0001705     0.0001503   -0.0002037    -0.0000911   -0.0003069 
   0.178394597     0.5123193    0.2907358     0.0000348    0.0000771     0.0002583    0.0002168    -0.0003266   -0.0004739 
   0.178494622     0.5287922    0.2686814    -0.0000547    0.0002766    -0.0001104    0.0001528    -0.0004373   -0.0007839 
   0.178594647     0.5448158    0.2484103    -0.0001897    0.0001446    -0.0000356    0.0002187     0.0002095   -0.0006799 
   0.178694672     0.5563729    0.2238839    -0.0001047   -0.0000812    -0.0000186   -0.0001501    -0.0000276   -0.0005953 
   0.178794697     0.5675883    0.2046682    -0.0000839    0.0003618     0.0001230   -0.0004791    -0.0000699   -0.0002275 
   0.178894722     0.5815163    0.1800923     0.0001425    0.0001035    -0.0000872   -0.0000590     0.0000066   -0.0003910 
   0.178994747     0.5919536    0.1554698    -0.0002817    0.0000303    -0.0000467    0.0001165     0.0005561   -0.0005123 
   0.179094772     0.6036068    0.1313602    -0.0004492   -0.0004048    -0.0000249    0.0001656     0.0003280   -0.0002551 
   0.179194797     0.6134833    0.1083782     0.0000192   -0.0000877    -0.0000711   -0.0000382    -0.0001752   -0.0007402 
   0.179294822     0.6210302    0.0847492    -0.0001430    0.0002089     0.0000965   -0.0001737     0.0002612   -0.0005551 
   0.179394847     0.6255557    0.0621519    -0.0000444   -0.0005270     0.0001096    0.0001096    -0.0000049   -0.0001540 
   0.179494872     0.6367658    0.0349943     0.0001228    0.0000669    -0.0000113    0.0000242    -0.0000652   -0.0006422 
   0.179594897     0.6411029    0.0116577    -0.0001565    0.0000638    -0.0000527   -0.0000593     0.0002098   -0.0007412 
   0.179694922     0.6431880   -0.0122567     0.0003462    0.0000587    -0.0000659   -0.0002228     0.0004316   -0.0002576 
   0.179794947     0.6480132   -0.0376250    -0.0003557    0.0000569    -0.0001191    0.0001557    -0.0001455   -0.0005050 
   0.179894972     0.6458850   -0.0614657    -0.0000497    0.0000790     0.0001331   -0.0001235     0.0002697   -0.0004611 
   0.179994997     0.6455482   -0.0906349    -0.0000349    0.0004688    -0.0000273   -0.0002481     0.0001474   -0.0003415 
   0.180095023     0.6460329   -0.1121392     0.0001787    0.0001638     0.0001364   -0.0000313     0.0000283   -0.0002991 
   0.180195048     0.6451711   -0.1390671    -0.0002359    0.0001746    -0.0000866    0.0000208     0.0000378   -0.0004446 
   0.180295073     0.6434028   -0.1627728     0.0000943   -0.0000814     0.0001079    0.0000436     0.0004652   -0.0002755 
   0.180395098     0.6415517   -0.1864419     0.0003402   -0.0003629     0.0000477   -0.0001113     0.0005177   -0.0006179 
   0.180495123     0.6320096   -0.2102430    -0.0001416    0.0001609    -0.0000377   -0.0001607    -0.0000929   -0.0005339 
   0.180595148     0.6313356   -0.2350565    -0.0001737    0.0002228    -0.0000899    0.0001222    -0.0000145   -0.0003435 
   0.180695173     0.6243220   -0.2543622     0.0002245    0.0001720    -0.0001105   -0.0000091     0.0000098   -0.0008448 
   0.180795198     0.6178288   -0.2788405     0.0000935   -0.0000252    -0.0000647    0.0000490     0.0001055   -0.0004431 
   0.180895223     0.6076087   -0.3014472     0.0001247   -0.0001176     0.0001277    0.0001957     0.0001947   -0.0006067 
   0.180995248     0.6028951   -0.3240782    -0.0002799    0.0002404     0.0001382    0.0000825     0.0003757   -0.0004740 
   0.181095273     0.5898844   -0.3474064    -0.0001140    0.0001068     0.0001209   -0.0001379     0.0007289   -0.0007798 
   0.181195298     0.5808796   -0.3698448    -0.0001729   -0.0000685    -0.0000812   -0.0000076     0.0001297   -0.0006814 
   0.181295323     0.5702039   -0.3866613    -0.0004379   -0.0001748     0.0001755    0.0001684     0.0000742   -0.0001067 
   0.181395348     0.5569226   -0.4064558    -0.0001099    0.0000799    -0.0000260   -0.0000067     0.0001977   -0.0006830 
   0.181495373     0.5435609   -0.4276859     0.0000751   -0.0000409     0.0001086    0.0000587     0.0004065   -0.0002631 
   0.181595398     0.5311981   -0.4442954     0.0001480    0.0000579    -0.0000740    0.0000178    -0.0003478   -0.0004015 
   0.181695423     0.5196592   -0.4614575    -0.0001817    0.0001190     0.0001060   -0.0000008     0.0003142   -0.0004145 
   0.181795448     0.5047009   -0.4770517    -0.0000954   -0.0001236    -0.0000141   -0.0000484     0.0005145   -0.0000684 
   0.181895473     0.4931401   -0.4948977     0.0001990    0.0000010    -0.0001194   -0.0000327    -0.0001676   -0.0004723 
   0.181995498     0.4768115   -0.5097142    -0.0003419    0.0000956    -0.0001244   -0.0000707     0.0002284   -0.0002136 
   0.182095523     0.4623255   -0.5254388     0.0002013   -0.0001615     0.0000129   -0.0000522     0.0005420   -0.0004462 
   0.182195548     0.4450580   -0.5374075    -0.0000920   -0.0000928    -0.0000665    0.0000184     0.0000065   -0.0003218 
   0.182295573     0.4308431   -0.5542613     0.0002742    0.0000632    -0.0002005    0.0000286     0.0002063   -0.0002861 
   0.182395598     0.4152629   -0.5643011    -0.0001399    0.0001656     0.0001917    0.0001503    -0.0000309   -0.0010252 
   0.182495623     0.3989985   -0.5793397    -0.0003493    0.0000611    -0.0001146    0.0000357    -0.0000823   -0.0003242 
   0.182595648     0.3818772   -0.5877691     0.0000264    0.0000022     0.0000167    0.0001119     0.0004282   -0.0006190 
   0.182695673     0.3639608   -0.6018206     0.0000600   -0.0000045    -0.0000910    0.0000661    -0.0001795   -0.0002816 
   0.182795698     0.3443758   -0.6124729     0.0003891    0.0003110     0.0001840    0.0000854     0.0006376   -0.0004185 
   0.182895723     0.3278551   -0.6200410     0.0000506    0.0001954    -0.0001062   -0.0000784     0.0001604   -0.0001536 
   0.182995748     0.3115404   -0.6270422     0.0001303    0.0001025    -0.0001510   -0.0000032     0.0004137   -0.0010287 
   0.183095773     0.2945489   -0.6399890     0.0000805   -0.0000631     0.0001394   -0.0001701     0.0001943   -0.0006361 
   0.183195798     0.2728705   -0.6448430     0.0000174    0.0001831    -0.0000671   -0.0000779     0.0005814   -0.0001134 
   0.183295823     0.2581203   -0.6505246     0.0000492   -0.0001044    -0.0000530   -0.0000009     0.0001074   -0.0003913 
   0.183395848     0.2436790   -0.6609384    -0.0000566    0.0000188    -0.0000985   -0.0000884     0.0003820   -0.0005604 
   0.183495873     0.2231224   -0.6665746     0.0000118    0.0000511    -0.0000131   -0.0000889     0.0000193   -0.0008594 
   0.183595898     0.2032994   -0.6722749    -0.0001305   -0.0000972     0.0001494   -0.0000678     0.0002981   -0.0005851 
   0.183695923     0.1843861   -0.6764104    -0.0001474    0.0001478     0.0000983    0.0000060     0.0002720   -0.0005044 
   0.183795948     0.1687770   -0.6805218    -0.0000107   -0.0001486    -0.0000493   -0.0000484    -0.0000774   -0.0004890 
   0.183895973     0.1484080   -0.6834513     0.0001193   -0.0000438    -0.0000526   -0.0000041     0.0004611   -0.0007421 
   0.183995998     0.1304520   -0.6881763    -0.0001125    0.0000856     0.0001179    0.0000007     0.0003048   -0.0004526 
   0.184096023     0.1154630   -0.6903839    -0.0001657   -0.0000232     0.0000576   -0.0000250     0.0001137   -0.0003699 
   0.184196048     0.0975840   -0.6896986     0.0000800   -0.0000851    -0.0000877    0.0000704     0.0006088   -0.0001627 
   0.184296073     0.0789228   -0.6913614     0.0002868    0.0002255     0.0000790   -0.0000327     0.0001919   -0.0002971 
   0.184396098     0.0603965   -0.6929722     0.0001072   -0.0001777     0.0000687   -0.0000268     0.0004524   -0.0006622 
   0.184496123     0.0450146   -0.6935454    -0.0000406    0.0002899     0.0001373   -0.0000713     0.0004240   -0.0007623 
   0.184596148     0.0278217   -0.6915528    -0.0001622   -0.0000289    -0.0000380   -0.0000157    -0.0000074   -0.0007075 
   0.184696173     0.0092005   -0.6902102    -0.0000474   -0.0001141    -0.0000196   -0.0000451     0.0001088   -0.0003459 
   0.184796198    -0.0059409   -0.6894349    -0.0000304    0.0000268     0.0000724   -0.0000617     0.0006102   -0.0004312 
   0.184896223    -0.0263543   -0.6896114     0.0001975    0.0000058    -0.0000687   -0.0000012     0.0006025   -0.0005938 
   0.184996248    -0.0433083   -0.6877681    -0.0001170   -0.0000977     0.0000843    0.0000506     0.0001310   -0.0004191 
   0.185096273    -0.0569497   -0.6844833    -0.0000827    0.0001099    -0.0000373   -0.0000952    -0.0000094    0.0000045 
   0.185196298    -0.0745577   -0.6815471    -0.0000357   -0.0001016    -0.0000733    0.0000232     0.0002861   -0.0002723 
   0.185296323    -0.0899734   -0.6778525     0.0000013    0.0000186     0.0001516   -0.0001116     0.0005833   -0.0005618 
   0.185396348    -0.1033845   -0.6729145     0.0000807    0.0001162    -0.0000358   -0.0000018     0.0000626   -0.0004775 
   0.185496373    -0.1188126   -0.6700162    -0.0000547    0.0000844    -0.0000072    0.0000467     0.0003203   -0.0004862 
   0.185596398    -0.1355415   -0.6651114     0.0001367   -0.0000397    -0.0000833   -0.0000831     0.0002768   -0.0000261 
   0.185696423    -0.1520434   -0.6602533    -0.0000916    0.0001233    -0.0000369    0.0000257    -0.0000462   -0.0002916 
   0.185796448    -0.1667779   -0.6528919    -0.0000058   -0.0002346    -0.0000051    0.0000285     0.0003031   -0.0003694 
   0.185896473    -0.1795152   -0.6488264    -0.0001065   -0.0000481    -0.0000435   -0.0000675    -0.0000447   -0.0004505 
   0.185996498    -0.1945737   -0.6409325     0.0000798    0.0000687    -0.0001285    0.0000220     0.0001395   -0.0005106 
   0.186096523    -0.2087961   -0.6363877     0.0000676   -0.0001622     0.0000056    0.0000448     0.0006340   -0.0003312 
   0.186196548    -0.2231224   -0.6288044     0.0000799    0.0001563    -0.0000438   -0.0000201     0.0000299   -0.0002644 
   0.186296573    -0.2370870   -0.6237640     0.0000280   -0.0000970    -0.0001124   -0.0000093     0.0005220   -0.0001458 
   0.186396598    -0.2521185   -0.6164351    -0.0000126   -0.0001039    -0.0000125   -0.0000704     0.0008110   -0.0003242 
   0.186496623    -0.2634392   -0.6064494     0.0000711   -0.0000147     0.0000308    0.0000768     0.0001454   -0.0003316 
   0.186596648    -0.2780262   -0.5990145    -0.0001024   -0.0000612     0.0000021    0.0000412     0.0000897   -0.0003785 
   0.186696673    -0.2902195   -0.5914442     0.0000722   -0.0000432    -0.0000762    0.0000342     0.0005083   -0.0002829 
   0.186796698    -0.3031408   -0.5834005     0.0000894   -0.0001703    -0.0000337   -0.0000588     0.0005654   -0.0003986 
   0.186896723    -0.3142948   -0.5744652     0.0000464   -0.0000181     0.0000280   -0.0000147     0.0006526   -0.0003325 
   0.186996748    -0.3257402   -0.5651166     0.0000522   -0.0000658    -0.0001367    0.0000517     0.0000568   -0.0003177 
   0.187096773    -0.3398376   -0.5539986    -0.0000989    0.0001083    -0.0000188   -0.0000644     0.0002460   -0.0006178 
   0.187196798    -0.3475001   -0.5448241     0.0000092    0.0001930    -0.0000544    0.0001308    -0.0000022   -0.0007208 
   0.187296823    -0.3596593   -0.5356310    -0.0000846   -0.0002143    -0.0000905    0.0000296     0.0000704   -0.0009083 
   0.187396848    -0.3709324   -0.5260410    -0.0000336   -0.0001878    -0.0000133   -0.0000203     0.0005878   -0.0006463 
   0.187496873    -0.3831977   -0.5161402    -0.0001166    0.0001019    -0.0001417    0.0001538     0.0006347   -0.0002553 
   0.187596898    -0.3927327   -0.5064396    -0.0000012    0.0000135     0.0000296    0.0000588     0.0005925   -0.0002545 
   0.187696923    -0.4023333   -0.4928781     0.0001075   -0.0000034     0.0000096    0.0000364     0.0001412   -0.0007548 
   0.187796948    -0.4103673   -0.4850636    -0.0000374    0.0001079    -0.0000228    0.0001051     0.0005121   -0.0006740 
   0.187896973    -0.4187839   -0.4725129     0.0000224    0.0000325    -0.0000415   -0.0000552     0.0004133   -0.0009643 
   0.187996998    -0.4279912   -0.4599463    -0.0002228    0.0001675    -0.0001007   -0.0000076     0.0008204    0.0000395 
   0.188097024    -0.4392740   -0.4492118     0.0001044    0.0000624     0.0000018   -0.0000057     0.0004014   -0.0005724 
   0.188197049    -0.4474344   -0.4387717     0.0000932    0.0000052     0.0000093   -0.0000481     0.0002113   -0.0004709 
   0.188297074    -0.4583468   -0.4273683    -0.0000273   -0.0001053     0.0000102    0.0000167     0.0001713   -0.0000890 
   0.188397099    -0.4637809   -0.4111805     0.0000257    0.0000068     0.0000218    0.0000692     0.0001576   -0.0005453 
   0.188497124    -0.4714198   -0.4027374     0.0000325   -0.0001908    -0.0001326   -0.0001534     0.0003976   -0.0006277 
   0.188597149    -0.4778095   -0.3914195     0.0002520    0.0000268    -0.0001039   -0.0000146     0.0006840   -0.0006921 
   0.188697174    -0.4856517   -0.3777849    -0.0003375    0.0000662     0.0000562   -0.0000694     0.0007515   -0.0006134 
   0.188797199    -0.4937226   -0.3646335    -0.0000361   -0.0002226    -0.0000145    0.0000021     0.0001320   -0.0005588 
   0.188897224    -0.4985262   -0.3504145    -0.0000278   -0.0001787     0.0000017    0.0001111     0.0003763   -0.0003172 
   0.188997249    -0.5047722   -0.3375517    -0.0001302    0.0000495     0.0000282    0.0000556     0.0002213   -0.0006530 
   0.189097274    -0.5128796   -0.3269019    -0.0001698    0.0000832     0.0000168    0.0000991     0.0002631   -0.0002341 
   0.189197299    -0.5163730   -0.3111255    -0.0002870   -0.0000815     0.0000821    0.0001606     0.0000610   -0.0003143 
   0.189297324    -0.5203997   -0.2978078     0.0000161   -0.0000460     0.0000195   -0.0001206     0.0003635   -0.0001377 
   0.189397349    -0.5248254   -0.2850708     0.0000424   -0.0000871     0.0001246   -0.0000394     0.0001572   -0.0002165 
   0.189497374    -0.5299758   -0.2705267    -0.0001584   -0.0001926    -0.0000570    0.0000506     0.0002995   -0.0006532 
   0.189597399    -0.5374370   -0.2588760     0.0000263   -0.0002310    -0.0001432   -0.0000240     0.0000746   -0.0002137 
   0.189697424    -0.5383304   -0.2424288     0.0001086    0.0001291     0.0000305   -0.0001755     0.0006578   -0.0001627 
   0.189797449    -0.5412912   -0.2317184     0.0000749    0.0000347     0.0000377    0.0000321     0.0007995   -0.0008444 
   0.189897474    -0.5459393   -0.2120324    -0.0001391    0.0001866    -0.0000791   -0.0000994     0.0006903   -0.0003869 
   0.189997499    -0.5469767   -0.2012821    -0.0001100    0.0000687     0.0000937   -0.0000799     0.0008736   -0.0001167 
   0.190097524    -0.5511166   -0.1849345    -0.0000137   -0.0001219     0.0000645    0.0000583     0.0005035   -0.0006475 
   0.190197549    -0.5517576   -0.1733426     0.0000219    0.0001285    -0.0001852   -0.0000001     0.0006332   -0.0001924 
   0.190297574    -0.5542372   -0.1584900    -0.0001140   -0.0001135     0.0001127   -0.0000083     0.0008694   -0.0000682 
   0.190397599    -0.5551609   -0.1443966    -0.0001784    0.0001243    -0.0001208    0.0000735     0.0004103   -0.0005973 
   0.190497624    -0.5564471   -0.1272766     0.0000546   -0.0002840    -0.0000381    0.0001459     0.0005000   -0.0000833 
   0.190597649    -0.5594054   -0.1148693    -0.0001223    0.0001345    -0.0001367    0.0000324     0.0004482   -0.0005568 
   0.190697674    -0.5585201   -0.0994286     0.0000412    0.0003436    -0.0000019    0.0000645     0.0006368   -0.0005186 
   0.190797699    -0.5599673   -0.0864641     0.0001007    0.0000557     0.0001295    0.0000795    -0.0001585   -0.0004280 
   0.190897724    -0.5575447   -0.0705103    -0.0001539   -0.0000396     0.0000333   -0.0001176     0.0002400   -0.0003480 
   0.190997749    -0.5601630   -0.0560777     0.0000458    0.0000419    -0.0000672   -0.0001453     0.0006490   -0.0001015 
   0.191097774    -0.5600768   -0.0404656    -0.0003138    0.0000423     0.0000047    0.0000194     0.0001785   -0.0000830 
   0.191197799    -0.5568287   -0.0263521    -0.0002022    0.0000537     0.0000027   -0.0001523     0.0010463    0.0000606 
   0.191297824    -0.5537428   -0.0117521    -0.0002436    0.0002223    -0.0000792   -0.0000282     0.0007120   -0.0003727 
   0.191397849    -0.5524272    0.0058483     0.0000149   -0.0003352     0.0000140   -0.0000338     0.0004057   -0.0000024 
   0.191497874    -0.5506650    0.0186599    -0.0000119   -0.0001794     0.0000132    0.0000224     0.0007054   -0.0004622 
   0.191597899    -0.5473511    0.0328108     0.0000820    0.0001407    -0.0000751    0.0000081     0.0006389   -0.0005182 
   0.191697924    -0.5439593    0.0471465    -0.0001124   -0.0000226     0.0001006   -0.0001400     0.0005114   -0.0005290 
   0.191797949    -0.5398732    0.0627047    -0.0003225   -0.0001315    -0.0000250    0.0000045     0.0004116   -0.0004226 
   0.191897974    -0.5391105    0.0776757    -0.0000666    0.0000938    -0.0000204    0.0000395     0.0006001   -0.0006927 
   0.191997999    -0.5325510    0.0961161    -0.0000913   -0.0001885    -0.0001880   -0.0002121     0.0001701   -0.0004487 
   0.192098024    -0.5283648    0.1085368     0.0001668    0.0000597     0.0000839    0.0000219     0.0005227   -0.0002138 
   0.192198049    -0.5216724    0.1205630    -0.0000357    0.0000188     0.0000501    0.0000288     0.0001300   -0.0003766 
   0.192298074    -0.5168945    0.1396357     0.0001328    0.0000662     0.0001344   -0.0000521     0.0001168   -0.0003644 
   0.192398099    -0.5095952    0.1527990    -0.0000646   -0.0003079     0.0000170   -0.0001541     0.0006661   -0.0002113 
   0.192498124    -0.5040039    0.1678677    -0.0000388   -0.0001098    -0.0000680   -0.0000160     0.0002008   -0.0002850 
   0.192598149    -0.4957704    0.1813698     0.0001762    0.0000932     0.0001396    0.0000516     0.0005688   -0.0008661 
   0.192698174    -0.4883120    0.1945480     0.0003331   -0.0001209     0.0000297   -0.0000435     0.0004851   -0.0002525 
   0.192798199    -0.4803860    0.2102290    -0.0000660   -0.0000647    -0.0000660    0.0001310     0.0003545   -0.0003963 
   0.192898224    -0.4750831    0.2238982     0.0002377   -0.0001335     0.0000108   -0.0000872     0.0006195   -0.0002670 
   0.192998249    -0.4644276    0.2395078     0.0000318    0.0001333    -0.0001297   -0.0000314     0.0003549   -0.0006198 
   0.193098274    -0.4567021    0.2508336     0.0000762   -0.0002526     0.0000380   -0.0000385     0.0005264   -0.0001087 
   0.193198299    -0.4448329    0.2654760     0.0001541    0.0001076    -0.0000545    0.0002658     0.0003149   -0.0006590 
   0.193298324    -0.4373565    0.2787935     0.0000151   -0.0000901    -0.0000318    0.0000183     0.0005964   -0.0005880 
   0.193398349    -0.4261114    0.2928139     0.0002483   -0.0001466     0.0001367    0.0000914     0.0002253   -0.0003273 
   0.193498374    -0.4134784    0.3050426     0.0001561    0.0000369    -0.0001283   -0.0001218     0.0004215   -0.0003124 
   0.193598399    -0.4037372    0.3188297     0.0001065   -0.0000340    -0.0000987   -0.0000226     0.0003766   -0.0005433 
   0.193698424    -0.3928511    0.3311647    -0.0000999   -0.0000531    -0.0000219   -0.0000498     0.0006028   -0.0003570 
   0.193798449    -0.3817741    0.3441837    -0.0000114    0.0003711    -0.0000661    0.0000641     0.0003703   -0.0005987 
   0.193898474    -0.3688816    0.3563828    -0.0002519    0.0003105    -0.0000967   -0.0001078     0.0003291   -0.0005855 
   0.193998499    -0.3557867    0.3679867     0.0003256    0.0000007    -0.0000308   -0.0001708     0.0001249   -0.0001931 
   0.194098524    -0.3405411    0.3808772    -0.0000666   -0.0001882    -0.0002007   -0.0001948     0.0002141   -0.0000883 
   0.194198549    -0.3255779    0.3914731     0.0004140   -0.0001948    -0.0000824   -0.0001306     0.0008763   -0.0004928 
   0.194298574    -0.3137675    0.4007656    -0.0003009    0.0003134     0.0000023    0.0001254     0.0006231   -0.0002966 
   0.194398599    -0.2967364    0.4133099     0.0000177   -0.0003917     0.0003589    0.0000483     0.0004504   -0.0003782 
   0.194498624    -0.2830803    0.4208488     0.0000008   -0.0000448     0.0001937    0.0000623     0.0005723   -0.0005971 
   0.194598649    -0.2652600    0.4301243    -0.0000614    0.0002957     0.0001039   -0.0000282     0.0004447   -0.0004460 
   0.194698674    -0.2498029    0.4418603     0.0004006    0.0001677    -0.0000907   -0.0000284     0.0009210    0.0000294 
   0.194798699    -0.2316785    0.4484158    -0.0003511   -0.0000815     0.0000117   -0.0000219     0.0007532   -0.0004368 
   0.194898724    -0.2157960    0.4573659     0.0001108    0.0002913     0.0000875    0.0000967     0.0004854   -0.0008892 
   0.194998749    -0.1988170    0.4685901     0.0000409   -0.0003097    -0.0000013    0.0001561     0.0007034   -0.0003848 
   0.195098774    -0.1825473    0.4728187     0.0000260   -0.0002425    -0.0002297   -0.0000670     0.0007320   -0.0006533 
   0.195198799    -0.1623082    0.4812141     0.0004840    0.0000150    -0.0000707    0.0001268     0.0011863   -0.0009245 
   0.195298824    -0.1447588    0.4890296     0.0000624    0.0002665    -0.0000480    0.0002827     0.0004571    0.0002384 
   0.195398849    -0.1238143    0.4928162     0.0001859   -0.0000251    -0.0000443    0.0000986     0.0005478   -0.0005400 
   0.195498874    -0.1058322    0.4966968     0.0000476    0.0000984     0.0002386    0.0001542     0.0006389   -0.0002325 
   0.195598899    -0.0871612    0.5029643     0.0000702   -0.0000252    -0.0002797    0.0001105     0.0009744   -0.0002745 
   0.195698924    -0.0650689    0.5067316    -0.0000851    0.0001132    -0.0000388    0.0002905     0.0009769   -0.0006778 
   0.195798949    -0.0461225    0.5088152    -0.0000306    0.0002612    -0.0000834   -0.0000859     0.0007832   -0.0002866 
   0.195898974    -0.0257613    0.5127026    -0.0004093    0.0001085    -0.0000395   -0.0000720     0.0002922   -0.0000923 
   0.195998999    -0.0067395    0.5149492    -0.0000967    0.0002075    -0.0000101    0.0001564     0.0007089   -0.0006523 
   0.196099025     0.0142939    0.5147003     0.0000935    0.0002836    -0.0002585    0.0002868     0.0008503   -0.0004012 
   0.196199050     0.0342812    0.5156493    -0.0002639    0.0001185     0.0001933    0.0001817     0.0002671   -0.0005178 
   0.196299075     0.0580625    0.5140178    -0.0001544   -0.0000162    -0.0000441   -0.0000977     0.0008892   -0.0004500 
   0.196399100     0.0780405    0.5143021    -0.0000840    0.0001232     0.0000462   -0.0000817     0.0008923   -0.0003701 
   0.196499125     0.1010357    0.5138795     0.0001570   -0.0002403    -0.0000804    0.0002261     0.0006715   -0.0003079 
   0.196599150     0.1233252    0.5087335    -0.0002380    0.0000907     0.0002610    0.0001305     0.0005714   -0.0002060 
   0.196699175     0.1433056    0.5049508     0.0003217    0.0001060    -0.0003395    0.0002588     0.0004355   -0.0005623 
   0.196799200     0.1643991    0.5024896    -0.0001179    0.0000119     0.0002264   -0.0000049     0.0006342   -0.0001142 
   0.196899225     0.1875840    0.4965082    -0.0000566    0.0000960    -0.0000870   -0.0001853     0.0004132   -0.0002777 
   0.196999250     0.2092695    0.4908105    -0.0000143    0.0000567     0.0001052    0.0001510     0.0004086   -0.0004027 
   0.197099275     0.2292932    0.4840911    -0.0001341    0.0001787     0.0000276    0.0002492     0.0008154   -0.0004921 
   0.197199300     0.2519274    0.4754358    -0.0001097    0.0002019    -0.0000959   -0.0000460     0.0005682   -0.0003911 
   0.197299325     0.2721097    0.4677772    -0.0000145   -0.0000498    -0.0002165   -0.0002251     0.0008398   -0.0004631 
   0.197399350     0.2918804    0.4575373    -0.0001002   -0.0001343    -0.0000859    0.0000844     0.0004282    0.0000455 
   0.197499375     0.3144147    0.4485008    -0.0000539    0.0001480    -0.0001689   -0.0000175     0.0004029   -0.0003026 
   0.197599400     0.3332952    0.4361016    -0.0000184   -0.0004456    -0.0001735   -0.0001035     0.0010779   -0.0006989 
   0.197699425     0.3559133    0.4259200     0.0002102    0.0000783     0.0001535   -0.0003788     0.0010232   -0.0003074 
   0.197799450     0.3722072    0.4133367    -0.0001484    0.0000279     0.0000079   -0.0000201     0.0004872   -0.0001919 
   0.197899475     0.3932095    0.3971190     0.0000489    0.0001033    -0.0001779    0.0002849     0.0006130   -0.0002016 
   0.197999500     0.4122268    0.3838167    -0.0002214   -0.0001115     0.0000099    0.0001329     0.0001792    0.0000204 
   0.198099525     0.4294419    0.3690014     0.0002139    0.0000117     0.0000383   -0.0001646     0.0005284   -0.0007965 
   0.198199550     0.4462407    0.3531013     0.0000174   -0.0001244    -0.0002262    0.0001018     0.0010629   -0.0002370 
   0.198299575     0.4647188    0.3361809     0.0002978    0.0000459     0.0000929    0.0003245     0.0008115    0.0000167 
   0.198399600     0.4811244    0.3189577     0.0001769    0.0003309    -0.0001678   -0.0001168     0.0003785   -0.0004513 
   0.198499625     0.4947336    0.2996016     0.0001814    0.0002082     0.0001022   -0.0000126     0.0006942   -0.0005835 
   0.198599650     0.5088182    0.2803274    -0.0000741    0.0001372    -0.0000037    0.0001625     0.0009570   -0.0005402 
   0.198699675     0.5260356    0.2591436    -0.0000833   -0.0000294     0.0001193    0.0000107     0.0006572   -0.0003042 
   0.198799700     0.5398381    0.2434835     0.0001459   -0.0000369     0.0002779   -0.0000556     0.0005506   -0.0000453 
   0.198899725     0.5509601    0.2195657     0.0000509   -0.0000407     0.0001567    0.0000888     0.0007037   -0.0005188 
   0.198999750     0.5652131    0.1976420     0.0000450    0.0000715     0.0000663    0.0000918     0.0007309   -0.0006923 
   0.199099775     0.5758879    0.1766948     0.0001142    0.0001157    -0.0000346    0.0000277     0.0007677   -0.0001634 
   0.199199800     0.5848296    0.1547889     0.0001913   -0.0001015    -0.0000643   -0.0000964     0.0010169   -0.0004696 
   0.199299825     0.5935847    0.1318661     0.0000317   -0.0001321    -0.0000239    0.0000410     0.0001181   -0.0006314 
   0.199399850     0.6010361    0.1090973    -0.0000641    0.0001732    -0.0001302    0.0000287     0.0007897   -0.0002379 
   0.199499875     0.6085364    0.0855390     0.0002736   -0.0003216     0.0002006    0.0002373     0.0006615   -0.0006622 
   0.199599900     0.6157753    0.0602705    -0.0002748    0.0000203     0.0000598    0.0000790     0.0006066   -0.0002665 
   0.199699925     0.6214860    0.0372779    -0.0000859   -0.0000789    -0.0000183   -0.0000141     0.0007283    0.0000010 
   0.199799950     0.6242930    0.0144884    -0.0002435    0.0001737     0.0001353    0.0000489     0.0007693   -0.0004736 
   0.199899975     0.6286424   -0.0096425     0.0001215   -0.0001576    -0.0000176   -0.0000618     0.0008542   -0.0000872 
   0.200000000     0.6298915   -0.0358312     0.0000653   -0.0001188     0.0000066    0.0000319     0.0005078   -0.0002498 
