! 12-May-26 12:37:13 PM
! E:\REC_VNA_20260512\T1T1E7_ANTENNAPATHSPARAMS.S2P
! CHANNEL.1
! TR.MEASUREMENT
! CORRECTED.DATA
# GHZ S RI R 50.0
! FREQ.GHZ         S11RE         S11IM         S21RE         S21IM         S12RE         S12IM         S22RE         S22IM         
!; PortSelection: Port_12
   0.000050000    -0.3016943    2.3310320    -0.4331474   -0.1422149     0.0042736    0.0011299     1.0409410   -0.0246928 
   0.000150025     0.0273960    0.0706482    -0.7129024   -0.2095502    -0.0002929    0.0021523     1.0114490   -0.0044281 
   0.000250050    -0.0383323    0.6779303     0.0078241   -0.0176082    -0.0026444    0.0029514     1.0084440   -0.0053271 
   0.000350075     0.9923478   -0.0195107    -0.0064104   -0.0020696    -0.0023798    0.0086005     0.9946765   -0.0203495 
   0.000450100     1.0238210   -0.0785510    -0.0046323   -0.0007368    -0.0015339    0.0109059     0.9957976   -0.0081306 
   0.000550125     0.9981469   -0.0543992    -0.0065147   -0.0003401    -0.0022835    0.0148253     0.9964898   -0.0228714 
   0.000650150     0.9395792   -0.0031176    -0.0095268    0.0066078    -0.0019410    0.0164468     1.0026490   -0.0319633 
   0.000750175     0.9500988   -0.0303572    -0.0117787    0.0049441    -0.0025672    0.0191623     0.9947928   -0.0409300 
   0.000850200     1.0189930   -0.0656707    -0.0099320    0.0162043    -0.0017396    0.0234436     1.0008870   -0.0273573 
   0.000950225     1.0017260   -0.0331725    -0.0101123    0.0150657    -0.0017567    0.0253859     0.9891237   -0.0492512 
   0.001050250     0.9599102   -0.0596504    -0.0104920    0.0211801    -0.0029287    0.0289278     0.9909611   -0.0391546 
   0.001150275     1.0243930   -0.0475465    -0.0109153    0.0300416    -0.0033247    0.0326217     0.9897937   -0.0521554 
   0.001250300     0.9895840   -0.0581143    -0.0135154    0.0321609    -0.0023603    0.0344692     0.9918370   -0.0613231 
   0.001350325     0.9887679   -0.0781325    -0.0119861    0.0358766    -0.0026281    0.0383004     0.9891609   -0.0607315 
   0.001450350     1.0103170   -0.0432411    -0.0136276    0.0425708    -0.0034991    0.0415905     0.9936810   -0.0621659 
   0.001550375     0.9651610   -0.1013372    -0.0093989    0.0426250    -0.0016644    0.0432839     0.9896798   -0.0647470 
   0.001650400     1.0020990   -0.0574137    -0.0148956    0.0492010    -0.0030819    0.0482543     0.9822307   -0.0686106 
   0.001750425     1.0083100   -0.1247272    -0.0047614    0.0539438    -0.0011029    0.0503027     0.9886015   -0.0752027 
   0.001850450     0.9819348   -0.0793299    -0.0092496    0.0569814    -0.0030738    0.0539629     0.9926320   -0.0796635 
   0.001950475     1.0317730   -0.0597151    -0.0093034    0.0594690    -0.0023741    0.0585361     0.9989273   -0.0851771 
   0.002050500     0.9909116   -0.0533405    -0.0070802    0.0595655    -0.0012773    0.0602763     0.9980748   -0.0953905 
   0.002150525     1.0007500   -0.0742981    -0.0090194    0.0662739    -0.0007959    0.0625768     0.9801480   -0.1027116 
   0.002250550     0.9771823   -0.0998896    -0.0019893    0.0628420    -0.0011187    0.0670745     0.9886070   -0.0979713 
   0.002350575     0.9747774   -0.1185998    -0.0060370    0.0727086     0.0009122    0.0695792     0.9822006   -0.1008848 
   0.002450600     0.9925151   -0.1071176    -0.0064157    0.0756622    -0.0006329    0.0735834     0.9930211   -0.1049467 
   0.002550625     0.9531953   -0.0634103    -0.0072803    0.0806307    -0.0010657    0.0756094     0.9820573   -0.1049363 
   0.002650650     1.0352490   -0.0290814    -0.0067466    0.0877257     0.0000750    0.0813424     0.9849612   -0.1201503 
   0.002750675     0.9713309   -0.0661486    -0.0011154    0.0858826     0.0000900    0.0827161     0.9832218   -0.1138839 
   0.002850700     1.0081780   -0.0733036    -0.0028588    0.0866190     0.0021366    0.0862125     0.9779992   -0.1238235 
   0.002950725     0.9791766   -0.0749387     0.0016892    0.0894232     0.0016561    0.0896047     0.9815658   -0.1228634 
   0.003050750     1.0029130   -0.1122340     0.0032413    0.0993067     0.0032498    0.0932647     0.9831268   -0.1261589 
   0.003150775     0.9807448   -0.1272581     0.0026473    0.0977702     0.0046445    0.0951224     0.9785048   -0.1361350 
   0.003250800     0.9864413   -0.0769891     0.0013360    0.1053335     0.0033964    0.0988865     0.9776839   -0.1352987 
   0.003350825     1.0003400   -0.0647648    -0.0005624    0.1056470     0.0044827    0.1017386     0.9750050   -0.1461220 
   0.003450850     0.9602948   -0.1439343     0.0067825    0.1078290     0.0082220    0.1033355     0.9768443   -0.1440044 
   0.003550875     0.9617074   -0.1088700     0.0076321    0.1094836     0.0067708    0.1068474     0.9772027   -0.1569819 
   0.003650900     0.9947687   -0.1275501     0.0051296    0.1166805     0.0093744    0.1113012     0.9713966   -0.1577547 
   0.003750925     0.9747211   -0.1404904     0.0069231    0.1141390     0.0087749    0.1126411     0.9677128   -0.1556015 
   0.003850950     0.9993381   -0.1545534     0.0114609    0.1214558     0.0101479    0.1177040     0.9738377   -0.1569462 
   0.003950975     1.0206860   -0.1332531     0.0110051    0.1235389     0.0114202    0.1219732     0.9651119   -0.1664148 
   0.004051001     0.9444007   -0.1889806     0.0139969    0.1223946     0.0132443    0.1204632     0.9663106   -0.1643457 
   0.004151026     1.0240810   -0.1462362     0.0095526    0.1308489     0.0134849    0.1283548     0.9655465   -0.1748297 
   0.004251051     0.9722080   -0.1375149     0.0112697    0.1288996     0.0131027    0.1283579     0.9646379   -0.1792274 
   0.004351076     0.9812137   -0.1541073     0.0165122    0.1337662     0.0157754    0.1307672     0.9601891   -0.1805964 
   0.004451101     0.9748232   -0.1700852     0.0165897    0.1344448     0.0171190    0.1345409     0.9613175   -0.1859675 
   0.004551126     0.9834369   -0.1498330     0.0121714    0.1389336     0.0156727    0.1387274     0.9634281   -0.1834783 
   0.004651151     0.9683733   -0.1478474     0.0156741    0.1460035     0.0162412    0.1416034     0.9666250   -0.1912305 
   0.004751176     0.9719918   -0.1822227     0.0208518    0.1458687     0.0193605    0.1453243     0.9661831   -0.1932173 
   0.004851201     0.9422472   -0.1664134     0.0173594    0.1458029     0.0183390    0.1452435     0.9546785   -0.1953378 
   0.004951226     0.9499056   -0.1405222     0.0163304    0.1490924     0.0176526    0.1496228     0.9556363   -0.2007913 
   0.005051251     0.9874204   -0.1733846     0.0216913    0.1531306     0.0215474    0.1540774     0.9583899   -0.2037446 
   0.005151276     0.9494867   -0.1419642     0.0187835    0.1552882     0.0207370    0.1556496     0.9550419   -0.2126390 
   0.005251301     0.9645877   -0.1661456     0.0250233    0.1608819     0.0230878    0.1591658     0.9540525   -0.2094164 
   0.005351326     0.9637746   -0.1626733     0.0259072    0.1640332     0.0238763    0.1624434     0.9543088   -0.2171742 
   0.005451351     0.9430113   -0.1872757     0.0265156    0.1598359     0.0267604    0.1619890     0.9447322   -0.2214552 
   0.005551376     0.9706331   -0.1738106     0.0279330    0.1687424     0.0257818    0.1679224     0.9435840   -0.2197877 
   0.005651401     0.9580575   -0.1577558     0.0260627    0.1734075     0.0285917    0.1705881     0.9461023   -0.2346124 
   0.005751426     0.9499251   -0.1674762     0.0276958    0.1729945     0.0279439    0.1738538     0.9454207   -0.2292828 
   0.005851451     0.9531749   -0.2281070     0.0374648    0.1753927     0.0331229    0.1745370     0.9419820   -0.2307051 
   0.005951476     0.9274778   -0.2041377     0.0338032    0.1731307     0.0331805    0.1760776     0.9415273   -0.2358401 
   0.006051501     0.9521381   -0.1901433     0.0355999    0.1835192     0.0338817    0.1825734     0.9440583   -0.2445392 
   0.006151526     0.9238629   -0.2029596     0.0357286    0.1772284     0.0358565    0.1830713     0.9454252   -0.2493215 
   0.006251551     0.9529739   -0.1992976     0.0377614    0.1832884     0.0378736    0.1875503     0.9391418   -0.2540576 
   0.006351576     0.9796463   -0.2089588     0.0369565    0.1960618     0.0399117    0.1914004     0.9317821   -0.2538616 
   0.006451601     0.9532219   -0.1968644     0.0373677    0.1934968     0.0409693    0.1938512     0.9314955   -0.2623849 
   0.006551626     0.9433779   -0.2184136     0.0435747    0.1952995     0.0416257    0.1953219     0.9307685   -0.2568764 
   0.006651651     0.9377331   -0.2039889     0.0406198    0.1959270     0.0422394    0.1976928     0.9284497   -0.2650603 
   0.006751676     0.9483659   -0.2364116     0.0476049    0.2050655     0.0466202    0.2011799     0.9322493   -0.2648017 
   0.006851701     0.9615749   -0.2515889     0.0527415    0.2072908     0.0507139    0.2038573     0.9236097   -0.2733580 
   0.006951726     0.9197186   -0.2482303     0.0520332    0.2048989     0.0487406    0.2041684     0.9255527   -0.2719731 
   0.007051751     0.9338894   -0.2262961     0.0502947    0.2067427     0.0496422    0.2081066     0.9210289   -0.2815765 
   0.007151776     0.9282554   -0.2262149     0.0494418    0.2126908     0.0496030    0.2109481     0.9180922   -0.2806377 
   0.007251801     0.9553550   -0.2334926     0.0543514    0.2196555     0.0535975    0.2157709     0.9192772   -0.2856394 
   0.007351826     0.9261513   -0.2172474     0.0473991    0.2176467     0.0538808    0.2171693     0.9207517   -0.2930114 
   0.007451851     0.9215545   -0.2477660     0.0571466    0.2169966     0.0562703    0.2175179     0.9135263   -0.2917105 
   0.007551876     0.9328379   -0.2668792     0.0620565    0.2253951     0.0611992    0.2216003     0.9139625   -0.2976810 
   0.007651901     0.9475378   -0.2822665     0.0665203    0.2307305     0.0635397    0.2233935     0.9098123   -0.2958126 
   0.007751926     0.9271287   -0.2554146     0.0624351    0.2285183     0.0625381    0.2264561     0.9076582   -0.3048249 
   0.007851951     0.9335607   -0.2430682     0.0625707    0.2313649     0.0622815    0.2304788     0.9075299   -0.3054442 
   0.007951976     0.9137622   -0.2746041     0.0657159    0.2291901     0.0660467    0.2301418     0.9057422   -0.3075791 
   0.008052001     0.9233198   -0.2566026     0.0652867    0.2360825     0.0667924    0.2343972     0.9044908   -0.3133892 
   0.008152026     0.9147411   -0.2746925     0.0716775    0.2339783     0.0710531    0.2358411     0.9046140   -0.3187922 
   0.008252051     0.8915455   -0.2520185     0.0668046    0.2337621     0.0677174    0.2355328     0.8943765   -0.3180988 
   0.008352076     0.9218797   -0.2867563     0.0785164    0.2433334     0.0753241    0.2405852     0.8975021   -0.3245047 
   0.008452101     0.9110047   -0.2558576     0.0710681    0.2446551     0.0736737    0.2453634     0.8972849   -0.3279512 
   0.008552126     0.9193147   -0.2629309     0.0755879    0.2460032     0.0774979    0.2472245     0.8930899   -0.3315715 
   0.008652151     0.9166138   -0.2680223     0.0790812    0.2490568     0.0774906    0.2495981     0.8922005   -0.3312496 
   0.008752176     0.9270893   -0.2665679     0.0780334    0.2558922     0.0804216    0.2529902     0.8883326   -0.3365392 
   0.008852201     0.9060187   -0.2649546     0.0796270    0.2526575     0.0804542    0.2538757     0.8870068   -0.3367406 
   0.008952226     0.9294057   -0.2857722     0.0891061    0.2572578     0.0856325    0.2584220     0.8859025   -0.3405164 
   0.009052251     0.8905623   -0.2767264     0.0852761    0.2529578     0.0847120    0.2572560     0.8851124   -0.3474683 
   0.009152276     0.8893123   -0.2913741     0.0895873    0.2559505     0.0885481    0.2588895     0.8813400   -0.3529495 
   0.009252301     0.9068331   -0.2874919     0.0907527    0.2634098     0.0899672    0.2625120     0.8765327   -0.3524278 
   0.009352326     0.9097128   -0.2868475     0.0895588    0.2675039     0.0908662    0.2667544     0.8754395   -0.3514144 
   0.009452351     0.9060130   -0.2839531     0.0932959    0.2674917     0.0922324    0.2679249     0.8704768   -0.3554812 
   0.009552376     0.8965692   -0.3080152     0.0959203    0.2692525     0.0954832    0.2672578     0.8688442   -0.3569363 
   0.009652401     0.8839866   -0.2970133     0.0951437    0.2661034     0.0962580    0.2705733     0.8674078   -0.3625541 
   0.009752426     0.8806112   -0.3010602     0.1014477    0.2698030     0.0985575    0.2717494     0.8650519   -0.3646631 
   0.009852451     0.8740335   -0.3179151     0.1026472    0.2670291     0.1029549    0.2725867     0.8635792   -0.3720907 
   0.009952476     0.8972067   -0.3131526     0.1056211    0.2794377     0.1051739    0.2760745     0.8572741   -0.3696619 
   0.010052501     0.8743905   -0.3027089     0.1036055    0.2765266     0.1025732    0.2799908     0.8600128   -0.3708462 
   0.010152526     0.8609315   -0.3052644     0.1071129    0.2715094     0.1048548    0.2794448     0.8553243   -0.3775742 
   0.010252551     0.8768387   -0.3009309     0.1102480    0.2830082     0.1085673    0.2850317     0.8559596   -0.3815885 
   0.010352576     0.8930044   -0.3272597     0.1133951    0.2867303     0.1144921    0.2862655     0.8497255   -0.3819150 
   0.010452601     0.8852481   -0.3041587     0.1102700    0.2902848     0.1130320    0.2895314     0.8473058   -0.3853482 
   0.010552626     0.8742060   -0.3198299     0.1144379    0.2952095     0.1182155    0.2901742     0.8475752   -0.3924525 
   0.010652651     0.8785197   -0.3254911     0.1232471    0.2905648     0.1206722    0.2911181     0.8446192   -0.3944048 
   0.010752676     0.8917513   -0.3448989     0.1257013    0.2993053     0.1248593    0.2935559     0.8413656   -0.3934706 
   0.010852701     0.8799127   -0.3156875     0.1242673    0.2964188     0.1230110    0.2991168     0.8424000   -0.3956257 
   0.010952726     0.8740261   -0.3299828     0.1263026    0.3004919     0.1250805    0.2970238     0.8315590   -0.3998145 
   0.011052751     0.8573262   -0.3267598     0.1231999    0.2967666     0.1258735    0.2999073     0.8357468   -0.4037312 
   0.011152776     0.8804348   -0.3332782     0.1275606    0.3065508     0.1311770    0.3042988     0.8308465   -0.4041155 
   0.011252801     0.8603500   -0.3383747     0.1279810    0.2969319     0.1328359    0.3026839     0.8283474   -0.4109868 
   0.011352826     0.8553420   -0.3668491     0.1383311    0.3029172     0.1365387    0.3015323     0.8273557   -0.4086300 
   0.011452851     0.8432989   -0.3411014     0.1356639    0.3002186     0.1350145    0.3056146     0.8237657   -0.4159933 
   0.011552876     0.8504943   -0.3412745     0.1374094    0.3059787     0.1379279    0.3092404     0.8239051   -0.4170821 
   0.011652901     0.8585864   -0.3427072     0.1360022    0.3100002     0.1405318    0.3125408     0.8190022   -0.4180385 
   0.011752926     0.8451403   -0.3470792     0.1400996    0.3110929     0.1417039    0.3111660     0.8169574   -0.4205009 
   0.011852951     0.8547595   -0.3636082     0.1470754    0.3151654     0.1485582    0.3140244     0.8160458   -0.4257462 
   0.011952976     0.8289667   -0.3470215     0.1454903    0.3082000     0.1440621    0.3135884     0.8119949   -0.4277425 
   0.012053002     0.8445655   -0.3679889     0.1513081    0.3156286     0.1528921    0.3145332     0.8071529   -0.4315323 
   0.012153027     0.8422641   -0.3629938     0.1511552    0.3160220     0.1534885    0.3176093     0.8043692   -0.4325090 
   0.012253052     0.8275004   -0.3575276     0.1531143    0.3184457     0.1525766    0.3193157     0.8031575   -0.4334832 
   0.012353077     0.8473608   -0.3671319     0.1604463    0.3242921     0.1578390    0.3212130     0.8002348   -0.4356458 
   0.012453102     0.8315269   -0.3640170     0.1624311    0.3208314     0.1580432    0.3220521     0.7982351   -0.4394633 
   0.012553127     0.8177887   -0.3787813     0.1595700    0.3158320     0.1598880    0.3217673     0.7940379   -0.4419250 
   0.012653152     0.8394137   -0.3635173     0.1654066    0.3269249     0.1643868    0.3276305     0.7928316   -0.4458513 
   0.012753177     0.8290573   -0.3694181     0.1648113    0.3264701     0.1650735    0.3307316     0.7941706   -0.4430253 
   0.012853202     0.8290409   -0.3635658     0.1697007    0.3308000     0.1680451    0.3299372     0.7841944   -0.4470500 
   0.012953227     0.8253003   -0.3628034     0.1682758    0.3283504     0.1708899    0.3347031     0.7881879   -0.4546979 
   0.013053252     0.8059028   -0.3844496     0.1727153    0.3257919     0.1703102    0.3325972     0.7882047   -0.4507335 
   0.013153277     0.8159810   -0.3671553     0.1744518    0.3298891     0.1738176    0.3353248     0.7801273   -0.4547569 
   0.013253302     0.8117173   -0.3747418     0.1788605    0.3306709     0.1766311    0.3365800     0.7784472   -0.4541607 
   0.013353327     0.8073406   -0.3797392     0.1800705    0.3329715     0.1786357    0.3383603     0.7778966   -0.4598246 
   0.013453352     0.8232386   -0.3803917     0.1832937    0.3372889     0.1829021    0.3401958     0.7721890   -0.4608753 
   0.013553377     0.8143919   -0.3833055     0.1860939    0.3445374     0.1844965    0.3412419     0.7683357   -0.4624272 
   0.013653402     0.7988464   -0.3823259     0.1825563    0.3354330     0.1845762    0.3406726     0.7676138   -0.4665427 
   0.013753427     0.8140998   -0.3863879     0.1880377    0.3430400     0.1895430    0.3431115     0.7613201   -0.4667428 
   0.013853452     0.8004228   -0.3974311     0.1928675    0.3407732     0.1908697    0.3431505     0.7632945   -0.4681683 
   0.013953477     0.7858421   -0.3829289     0.1915952    0.3418467     0.1904792    0.3464711     0.7602454   -0.4733691 
   0.014053502     0.7991793   -0.4032568     0.1992969    0.3425658     0.1969163    0.3439380     0.7555044   -0.4726391 
   0.014153527     0.7905732   -0.3956994     0.1983502    0.3421877     0.1956621    0.3496178     0.7556766   -0.4726474 
   0.014253552     0.8010130   -0.3895568     0.2044712    0.3540162     0.2031837    0.3524531     0.7524416   -0.4790977 
   0.014353577     0.7863257   -0.3953230     0.2012149    0.3480779     0.2013026    0.3480116     0.7450663   -0.4793837 
   0.014453602     0.7741252   -0.3957075     0.2044688    0.3435865     0.2002258    0.3521082     0.7458367   -0.4793533 
   0.014553627     0.7836064   -0.4051560     0.2090196    0.3486162     0.2071633    0.3529194     0.7443662   -0.4836704 
   0.014653652     0.7760204   -0.4090027     0.2088730    0.3486791     0.2077201    0.3520374     0.7389855   -0.4857068 
   0.014753677     0.7777953   -0.4007773     0.2141349    0.3533134     0.2096786    0.3569356     0.7367322   -0.4854834 
   0.014853702     0.7878492   -0.3963996     0.2144127    0.3504544     0.2136464    0.3605621     0.7340627   -0.4876823 
   0.014953727     0.7767093   -0.4201019     0.2222978    0.3550728     0.2180933    0.3547316     0.7311254   -0.4907483 
   0.015053752     0.7805624   -0.4131219     0.2176410    0.3539653     0.2216713    0.3580092     0.7272244   -0.4936466 
   0.015153777     0.7848791   -0.4173498     0.2264536    0.3616493     0.2267955    0.3614107     0.7300190   -0.4946232 
   0.015253802     0.7719434   -0.4086800     0.2260337    0.3601226     0.2238053    0.3637488     0.7249538   -0.4954684 
   0.015353827     0.7657646   -0.4145044     0.2340127    0.3587193     0.2260660    0.3609242     0.7203486   -0.4985642 
   0.015453852     0.7686912   -0.4197497     0.2324498    0.3618977     0.2304440    0.3630977     0.7188764   -0.5007140 
   0.015553877     0.7700732   -0.4120462     0.2341043    0.3629106     0.2328770    0.3673938     0.7158023   -0.5003847 
   0.015653902     0.7543697   -0.4239834     0.2369551    0.3585631     0.2347258    0.3635714     0.7134289   -0.5068192 
   0.015753927     0.7634968   -0.4039025     0.2312753    0.3661904     0.2362533    0.3692423     0.7059978   -0.5056651 
   0.015853952     0.7636617   -0.4313262     0.2410872    0.3663209     0.2427320    0.3671775     0.7077076   -0.5080423 
   0.015953977     0.7638487   -0.4163552     0.2383585    0.3715765     0.2419757    0.3695422     0.7006561   -0.5060408 
   0.016054002     0.7535244   -0.4167855     0.2428321    0.3672804     0.2436878    0.3718514     0.7012613   -0.5100967 
   0.016154027     0.7534280   -0.4329425     0.2519695    0.3715720     0.2481807    0.3690279     0.6981479   -0.5120144 
   0.016254052     0.7506893   -0.4149334     0.2457602    0.3716506     0.2472332    0.3744927     0.6927670   -0.5117297 
   0.016354077     0.7436251   -0.4272493     0.2470576    0.3701064     0.2491914    0.3732774     0.6902024   -0.5131127 
   0.016454102     0.7543041   -0.4271072     0.2540343    0.3705398     0.2571154    0.3742288     0.6863173   -0.5210117 
   0.016554127     0.7398545   -0.4258192     0.2562636    0.3719351     0.2562712    0.3755142     0.6845219   -0.5193111 
   0.016654152     0.7437148   -0.4249019     0.2571010    0.3767249     0.2575414    0.3776032     0.6834481   -0.5195670 
   0.016754177     0.7425607   -0.4327488     0.2609041    0.3735285     0.2620605    0.3737463     0.6783157   -0.5196689 
   0.016854202     0.7406513   -0.4354769     0.2663426    0.3716404     0.2653892    0.3761590     0.6800688   -0.5247117 
   0.016954227     0.7542971   -0.4490924     0.2718672    0.3796849     0.2741136    0.3742157     0.6782253   -0.5209949 
   0.017054252     0.7375415   -0.4394878     0.2693716    0.3798808     0.2676710    0.3778310     0.6705578   -0.5211199 
   0.017154277     0.7246368   -0.4365993     0.2713732    0.3736464     0.2696021    0.3813258     0.6708583   -0.5260005 
   0.017254302     0.7310926   -0.4316820     0.2701656    0.3817499     0.2746133    0.3829226     0.6656336   -0.5261424 
   0.017354327     0.7343913   -0.4502703     0.2816873    0.3754349     0.2793081    0.3781622     0.6648477   -0.5317514 
   0.017454352     0.7208650   -0.4467935     0.2843395    0.3802955     0.2780786    0.3781006     0.6606746   -0.5329624 
   0.017554377     0.7238719   -0.4493828     0.2846048    0.3819752     0.2823393    0.3814076     0.6612880   -0.5302655 
   0.017654402     0.7303613   -0.4493524     0.2850355    0.3840578     0.2879142    0.3809046     0.6543354   -0.5325953 
   0.017754427     0.7077319   -0.4498135     0.2838256    0.3755797     0.2826874    0.3814571     0.6522922   -0.5370659 
   0.017854452     0.7216949   -0.4559529     0.2906667    0.3872607     0.2907133    0.3810692     0.6521193   -0.5346693 
   0.017954477     0.7132630   -0.4336883     0.2819912    0.3800103     0.2911821    0.3917126     0.6466736   -0.5390695 
   0.018054502     0.7055048   -0.4482239     0.2920740    0.3777115     0.2910464    0.3854486     0.6437239   -0.5403636 
   0.018154527     0.7106237   -0.4476768     0.2940929    0.3834625     0.2939592    0.3882340     0.6412399   -0.5385939 
   0.018254552     0.7036881   -0.4598103     0.3049260    0.3806187     0.2976637    0.3815790     0.6397418   -0.5426559 
   0.018354577     0.7066231   -0.4584785     0.3021596    0.3830756     0.3027707    0.3860418     0.6385123   -0.5434496 
   0.018454602     0.6955212   -0.4531091     0.3036340    0.3833562     0.3006145    0.3867666     0.6320578   -0.5451677 
   0.018554627     0.6945949   -0.4639200     0.3128275    0.3846084     0.3046010    0.3862742     0.6344165   -0.5452395 
   0.018654652     0.7030717   -0.4639983     0.3097119    0.3886234     0.3103526    0.3844467     0.6260319   -0.5438251 
   0.018754677     0.6916026   -0.4511343     0.3080777    0.3895761     0.3090643    0.3901356     0.6227515   -0.5463573 
   0.018854702     0.6999742   -0.4513480     0.3092343    0.3862894     0.3161708    0.3943194     0.6248259   -0.5474451 
   0.018954727     0.6859376   -0.4626561     0.3109838    0.3906707     0.3120006    0.3880000     0.6183318   -0.5463794 
   0.019054752     0.6950317   -0.4583534     0.3162997    0.3897968     0.3227524    0.3909889     0.6161945   -0.5507628 
   0.019154777     0.6863850   -0.4632298     0.3229179    0.3898391     0.3214867    0.3904991     0.6144668   -0.5517262 
   0.019254802     0.6819919   -0.4651835     0.3248444    0.3907504     0.3233999    0.3894827     0.6096367   -0.5539261 
   0.019354827     0.6753742   -0.4602087     0.3204208    0.3913942     0.3232464    0.3927275     0.6082140   -0.5535173 
   0.019454852     0.6779663   -0.4634777     0.3342351    0.3934790     0.3312051    0.3938463     0.6103602   -0.5559507 
   0.019554877     0.6666227   -0.4631424     0.3301238    0.3850709     0.3272253    0.3945298     0.6052834   -0.5593984 
   0.019654902     0.6809322   -0.4695189     0.3369062    0.3931873     0.3368211    0.3920047     0.6036628   -0.5576635 
   0.019754927     0.6739925   -0.4659879     0.3369647    0.3964456     0.3366785    0.3939010     0.5996568   -0.5567853 
   0.019854952     0.6693203   -0.4621054     0.3373986    0.3947653     0.3385952    0.3969455     0.5956191   -0.5581826 
   0.019954977     0.6664184   -0.4658351     0.3431425    0.3956765     0.3399818    0.3939322     0.5959061   -0.5564781 
   0.020055003     0.6694198   -0.4726275     0.3421880    0.3985700     0.3467747    0.3937354     0.5901098   -0.5590737 
   0.020155028     0.6608281   -0.4652830     0.3417148    0.3887529     0.3445928    0.3952970     0.5863718   -0.5634381 
   0.020255053     0.6639252   -0.4751521     0.3497995    0.3939108     0.3481371    0.3908929     0.5859029   -0.5629349 
   0.020355078     0.6613778   -0.4711146     0.3510287    0.3941129     0.3524489    0.3952045     0.5820006   -0.5642431 
   0.020455103     0.6686596   -0.4783552     0.3547976    0.3946937     0.3582249    0.3921561     0.5821401   -0.5649729 
   0.020555128     0.6500257   -0.4722610     0.3517043    0.3890041     0.3540680    0.3944915     0.5748241   -0.5714160 
   0.020655153     0.6558003   -0.4738657     0.3548951    0.3948110     0.3595777    0.3944700     0.5725878   -0.5666393 
   0.020755178     0.6387432   -0.4734124     0.3597482    0.3920077     0.3557240    0.3967699     0.5705412   -0.5685332 
   0.020855203     0.6496080   -0.4677443     0.3533354    0.3946052     0.3640896    0.3971804     0.5633176   -0.5683135 
   0.020955228     0.6442052   -0.4743771     0.3617759    0.4002585     0.3632405    0.3961254     0.5632098   -0.5641720 
   0.021055253     0.6310121   -0.4852702     0.3646652    0.3898933     0.3610618    0.3925260     0.5619876   -0.5712314 
   0.021155278     0.6425036   -0.4822182     0.3699851    0.3963535     0.3701230    0.3937077     0.5641477   -0.5702602 
   0.021255303     0.6298779   -0.4748768     0.3664660    0.3872813     0.3690569    0.4008515     0.5551818   -0.5743994 
   0.021355328     0.6434872   -0.4744872     0.3716536    0.4021467     0.3777528    0.3963653     0.5556015   -0.5680441 
   0.021455353     0.6232880   -0.4783943     0.3744035    0.3882001     0.3689943    0.3969483     0.5501189   -0.5749154 
   0.021555378     0.6359550   -0.4855814     0.3737625    0.3999254     0.3801332    0.3948028     0.5482673   -0.5697284 
   0.021655403     0.6307130   -0.4850172     0.3812749    0.3994318     0.3813145    0.3952762     0.5504813   -0.5708534 
   0.021755428     0.6318448   -0.4777708     0.3838460    0.3983298     0.3851042    0.3958763     0.5455145   -0.5708787 
   0.021855453     0.6223704   -0.4802441     0.3737383    0.3935860     0.3834722    0.4007444     0.5371885   -0.5724686 
   0.021955478     0.6164421   -0.4769309     0.3817064    0.3961900     0.3881616    0.4007411     0.5371904   -0.5745048 
   0.022055503     0.6240206   -0.4840764     0.3861859    0.3947865     0.3924107    0.3939926     0.5346557   -0.5753867 
   0.022155528     0.6190810   -0.4865229     0.3906188    0.3878884     0.3930079    0.3943731     0.5319324   -0.5816934 
   0.022255553     0.6092593   -0.4865268     0.3908302    0.3898147     0.3913188    0.3975604     0.5271589   -0.5796421 
   0.022355578     0.6110418   -0.4826289     0.3929991    0.3944308     0.3960538    0.3966462     0.5263749   -0.5784652 
   0.022455603     0.6052343   -0.4905139     0.4049186    0.3902437     0.3955194    0.3944826     0.5273887   -0.5823698 
   0.022555628     0.6169554   -0.4838254     0.4000772    0.3992237     0.4052059    0.3987928     0.5241274   -0.5791467 
   0.022655653     0.6158200   -0.4834172     0.4054984    0.4048715     0.4107092    0.3967405     0.5227344   -0.5768740 
   0.022755678     0.5951327   -0.4891802     0.4033158    0.3834012     0.3994136    0.3978679     0.5153387   -0.5849617 
   0.022855703     0.6035140   -0.4887633     0.4051411    0.3960247     0.4091319    0.3986076     0.5174143   -0.5790268 
   0.022955728     0.6032591   -0.4832645     0.4089247    0.3941799     0.4129658    0.4005723     0.5122553   -0.5812972 
   0.023055753     0.5990168   -0.4893804     0.4128124    0.3976877     0.4142133    0.3993379     0.5135237   -0.5796409 
   0.023155778     0.6010737   -0.4873681     0.4115597    0.3971666     0.4191923    0.3957185     0.5082998   -0.5823470 
   0.023255803     0.5895954   -0.4872767     0.4131979    0.3993310     0.4119509    0.3991105     0.5034389   -0.5774436 
   0.023355828     0.5912926   -0.4918367     0.4219478    0.3941241     0.4215731    0.3970017     0.5030558   -0.5840596 
   0.023455853     0.5926448   -0.4929505     0.4202344    0.3926889     0.4189950    0.3945566     0.4988958   -0.5840888 
   0.023555878     0.5896373   -0.4947265     0.4285679    0.3948241     0.4263109    0.3930992     0.5009656   -0.5869337 
   0.023655903     0.5839953   -0.4870458     0.4208215    0.3853168     0.4277643    0.3971151     0.4886259   -0.5886367 
   0.023755928     0.5829970   -0.4898974     0.4206657    0.3972630     0.4256179    0.3944174     0.4881636   -0.5794882 
   0.023855953     0.5853122   -0.4854898     0.4197594    0.3966248     0.4330684    0.3959047     0.4835615   -0.5802275 
   0.023955978     0.5768027   -0.4922439     0.4387533    0.3926046     0.4301104    0.3957936     0.4916330   -0.5885390 
   0.024056003     0.5825496   -0.4936872     0.4390689    0.3940861     0.4346586    0.3901358     0.4867456   -0.5888258 
   0.024156028     0.5720974   -0.4897572     0.4333197    0.3891664     0.4345590    0.3961558     0.4813189   -0.5882277 
   0.024256053     0.5738628   -0.4965488     0.4384069    0.3975675     0.4369483    0.3905063     0.4798563   -0.5846658 
   0.024356078     0.5715102   -0.4919190     0.4385971    0.3931134     0.4434248    0.3951382     0.4777522   -0.5872958 
   0.024456103     0.5688131   -0.4909936     0.4430783    0.3926431     0.4471712    0.3930284     0.4753629   -0.5878286 
   0.024556128     0.5696465   -0.4880779     0.4421605    0.3954490     0.4485360    0.3937651     0.4732020   -0.5851325 
   0.024656153     0.5657830   -0.4903893     0.4417099    0.3893892     0.4469588    0.3972199     0.4687074   -0.5861933 
   0.024756178     0.5657071   -0.4978479     0.4469825    0.3896439     0.4527851    0.3910552     0.4663426   -0.5890728 
   0.024856203     0.5663459   -0.4949022     0.4515888    0.3924919     0.4512943    0.3888910     0.4651220   -0.5861151 
   0.024956228     0.5683478   -0.4941823     0.4527054    0.3939092     0.4589421    0.3895849     0.4623688   -0.5881118 
   0.025056253     0.5581195   -0.4927070     0.4530342    0.3907313     0.4561360    0.3946344     0.4600419   -0.5882230 
   0.025156278     0.5580720   -0.4970308     0.4556573    0.3927476     0.4577964    0.3875181     0.4563140   -0.5886672 
   0.025256303     0.5521705   -0.4912277     0.4615749    0.3904880     0.4606652    0.3929633     0.4570976   -0.5907684 
   0.025356328     0.5624079   -0.4987535     0.4620478    0.3968657     0.4687091    0.3864950     0.4567920   -0.5882928 
   0.025456353     0.5517336   -0.4947243     0.4604017    0.3964992     0.4649529    0.3919942     0.4535376   -0.5843109 
   0.025556378     0.5510863   -0.5001556     0.4682783    0.3867638     0.4671286    0.3853858     0.4488468   -0.5929979 
   0.025656403     0.5494642   -0.5001650     0.4640934    0.3844178     0.4678604    0.3840888     0.4416004   -0.5918587 
   0.025756428     0.5470980   -0.5051827     0.4765863    0.3880708     0.4665596    0.3863283     0.4445009   -0.5919181 
   0.025856453     0.5462787   -0.5006090     0.4707970    0.3891219     0.4756137    0.3842791     0.4414588   -0.5891061 
   0.025956478     0.5447572   -0.4971678     0.4680882    0.3906761     0.4772896    0.3861545     0.4376591   -0.5861676 
   0.026056503     0.5409105   -0.4973054     0.4750423    0.3840514     0.4779227    0.3859224     0.4340551   -0.5902227 
   0.026156528     0.5356056   -0.4940523     0.4708548    0.3822201     0.4808604    0.3905271     0.4273116   -0.5893992 
   0.026256553     0.5372119   -0.4961319     0.4805191    0.3876154     0.4846093    0.3868418     0.4318061   -0.5894667 
   0.026356578     0.5395657   -0.5028157     0.4871384    0.3865224     0.4821104    0.3763926     0.4304319   -0.5945143 
   0.026456603     0.5291327   -0.5027683     0.4955427    0.3868132     0.4831907    0.3852197     0.4324712   -0.5966644 
   0.026556628     0.5311339   -0.4992886     0.4811956    0.3890742     0.4891939    0.3828301     0.4246626   -0.5872838 
   0.026656653     0.5250753   -0.4985382     0.4902603    0.3846253     0.4895840    0.3818809     0.4224667   -0.5918676 
   0.026756678     0.5244890   -0.4982751     0.4947110    0.3861178     0.4921843    0.3832522     0.4232541   -0.5916370 
   0.026856703     0.5261385   -0.5051839     0.4933740    0.3775686     0.4892083    0.3814938     0.4158611   -0.5954102 
   0.026956728     0.5249183   -0.4987654     0.4947560    0.3913742     0.4973734    0.3786231     0.4207290   -0.5893862 
   0.027056753     0.5213474   -0.5004456     0.4964730    0.3760621     0.4951040    0.3815897     0.4077587   -0.5922992 
   0.027156778     0.5200231   -0.5013977     0.5039033    0.3837035     0.4991856    0.3821345     0.4138249   -0.5946178 
   0.027256803     0.5208247   -0.4959271     0.5028662    0.3803819     0.5043987    0.3757011     0.4067816   -0.5941299 
   0.027356828     0.5175137   -0.5005445     0.5029448    0.3765959     0.5077043    0.3774274     0.4028610   -0.5951579 
   0.027456853     0.5104459   -0.5034401     0.5032452    0.3732048     0.5060612    0.3812337     0.3979514   -0.5950164 
   0.027556878     0.5113398   -0.4996776     0.5058004    0.3827506     0.5072724    0.3796381     0.4006074   -0.5894747 
   0.027656903     0.5163625   -0.5032219     0.5093676    0.3832314     0.5078567    0.3728321     0.4015458   -0.5916954 
   0.027756928     0.5043104   -0.5000845     0.5147364    0.3788200     0.5105397    0.3800593     0.3982952   -0.5953417 
   0.027856953     0.5104760   -0.5021216     0.5098793    0.3801754     0.5119758    0.3755341     0.3967081   -0.5910245 
   0.027956978     0.5030301   -0.4990645     0.5120295    0.3757166     0.5142335    0.3788892     0.3886366   -0.5922915 
   0.028057004     0.5059881   -0.4965127     0.5172315    0.3763549     0.5198315    0.3725134     0.3888369   -0.5911398 
   0.028157029     0.4978942   -0.5026507     0.5190610    0.3682062     0.5168386    0.3767498     0.3810947   -0.5944645 
   0.028257054     0.4961922   -0.5032260     0.5202562    0.3706322     0.5185854    0.3747504     0.3828152   -0.5950166 
   0.028357079     0.4946763   -0.4955756     0.5163386    0.3728288     0.5226631    0.3743273     0.3792836   -0.5883662 
   0.028457104     0.4954294   -0.4972100     0.5252155    0.3744400     0.5271667    0.3764751     0.3819470   -0.5923586 
   0.028557129     0.4920409   -0.5027532     0.5314167    0.3738922     0.5289046    0.3733743     0.3801323   -0.5989166 
   0.028657154     0.4930220   -0.4992809     0.5304826    0.3819644     0.5326664    0.3689279     0.3836389   -0.5923950 
   0.028757179     0.4954284   -0.4992412     0.5319631    0.3698202     0.5342966    0.3676430     0.3735279   -0.5942322 
   0.028857204     0.4874929   -0.5009283     0.5315839    0.3725766     0.5315894    0.3717788     0.3711508   -0.5931008 
   0.028957229     0.4836262   -0.5009882     0.5333836    0.3648832     0.5341821    0.3677289     0.3659500   -0.5923156 
   0.029057254     0.4855644   -0.5027805     0.5288734    0.3696508     0.5326214    0.3675833     0.3666678   -0.5873759 
   0.029157279     0.4800020   -0.5009369     0.5379501    0.3647756     0.5367865    0.3667336     0.3608606   -0.5932432 
   0.029257304     0.4766608   -0.5019034     0.5417461    0.3731511     0.5364777    0.3710089     0.3678593   -0.5923515 
   0.029357329     0.4761744   -0.4982337     0.5437312    0.3692850     0.5413578    0.3717851     0.3624295   -0.5930266 
   0.029457354     0.4761075   -0.4995134     0.5350960    0.3617646     0.5424728    0.3646754     0.3544572   -0.5865318 
   0.029557379     0.4713168   -0.5037929     0.5424732    0.3642662     0.5406463    0.3675765     0.3556085   -0.5888156 
   0.029657404     0.4764087   -0.4999985     0.5457868    0.3646438     0.5473841    0.3639324     0.3527516   -0.5913753 
   0.029757429     0.4691811   -0.5040010     0.5556117    0.3578947     0.5440002    0.3647377     0.3471963   -0.5988879 
   0.029857454     0.4682229   -0.4982357     0.5525934    0.3676624     0.5538944    0.3675638     0.3527541   -0.5932254 
   0.029957479     0.4693752   -0.4978173     0.5490141    0.3631904     0.5506805    0.3617302     0.3500900   -0.5866767 
   0.030057504     0.4661959   -0.5005499     0.5559631    0.3650860     0.5538521    0.3597451     0.3477272   -0.5925591 
   0.030157529     0.4690375   -0.4963408     0.5576167    0.3622436     0.5567825    0.3592159     0.3446406   -0.5905182 
   0.030257554     0.4630559   -0.4932357     0.5581677    0.3569220     0.5609819    0.3592851     0.3385393   -0.5879155 
   0.030357579     0.4625986   -0.4940098     0.5577492    0.3588645     0.5613167    0.3576581     0.3395182   -0.5881702 
   0.030457604     0.4582862   -0.4972635     0.5574768    0.3616863     0.5594445    0.3579696     0.3396597   -0.5864037 
   0.030557629     0.4593924   -0.4967621     0.5608351    0.3628961     0.5665219    0.3553000     0.3390264   -0.5871113 
   0.030657654     0.4538717   -0.4992378     0.5649079    0.3593979     0.5633309    0.3560266     0.3345393   -0.5882791 
   0.030757679     0.4537244   -0.4982165     0.5605516    0.3584700     0.5678731    0.3561738     0.3329787   -0.5849598 
   0.030857704     0.4508786   -0.4995118     0.5687992    0.3623521     0.5663345    0.3545393     0.3349906   -0.5891739 
   0.030957729     0.4499519   -0.5021360     0.5666157    0.3561524     0.5677133    0.3550725     0.3283722   -0.5863302 
   0.031057754     0.4487964   -0.4956751     0.5662477    0.3468971     0.5692427    0.3540947     0.3205242   -0.5828201 
   0.031157779     0.4480382   -0.5036230     0.5687261    0.3544616     0.5664594    0.3568857     0.3255523   -0.5836696 
   0.031257804     0.4456689   -0.4996601     0.5775651    0.3535639     0.5711218    0.3537414     0.3233387   -0.5910797 
   0.031357829     0.4455779   -0.4983205     0.5787634    0.3592076     0.5708919    0.3499258     0.3253598   -0.5879908 
   0.031457854     0.4419637   -0.4954355     0.5759954    0.3546113     0.5797954    0.3472736     0.3188737   -0.5857173 
   0.031557879     0.4407220   -0.4955324     0.5830388    0.3495638     0.5819327    0.3505257     0.3147238   -0.5890866 
   0.031657904     0.4365143   -0.4966531     0.5810697    0.3491831     0.5795987    0.3511605     0.3147202   -0.5849319 
   0.031757929     0.4400319   -0.4971110     0.5747395    0.3517732     0.5802606    0.3470323     0.3150536   -0.5783048 
   0.031857954     0.4385289   -0.4996305     0.5813330    0.3563500     0.5846614    0.3463881     0.3172201   -0.5843681 
   0.031957979     0.4333602   -0.4967160     0.5871454    0.3432318     0.5842795    0.3458233     0.3050242   -0.5844951 
   0.032058004     0.4389253   -0.4985451     0.5933368    0.3490240     0.5787799    0.3407483     0.3052006   -0.5891488 
   0.032158029     0.4346145   -0.4987105     0.5935711    0.3491000     0.5849999    0.3439329     0.3053377   -0.5878298 
   0.032258054     0.4309641   -0.4964729     0.5933729    0.3464558     0.5878025    0.3442806     0.3032032   -0.5862285 
   0.032358079     0.4317925   -0.4954982     0.5902079    0.3438638     0.5907269    0.3394469     0.2983466   -0.5797767 
   0.032458104     0.4295061   -0.4950034     0.5852938    0.3442297     0.5934313    0.3430781     0.3016271   -0.5777748 
   0.032558129     0.4252573   -0.4928261     0.5956283    0.3423384     0.5964999    0.3420299     0.2967256   -0.5828970 
   0.032658154     0.4252783   -0.4988738     0.6002986    0.3433447     0.5920665    0.3375671     0.2934239   -0.5842369 
   0.032758179     0.4220747   -0.4957477     0.5963632    0.3405647     0.5961922    0.3405932     0.2929185   -0.5812935 
   0.032858204     0.4210683   -0.4931162     0.5973259    0.3427976     0.5998312    0.3367768     0.2927929   -0.5807189 
   0.032958229     0.4183624   -0.4956794     0.6046177    0.3380356     0.6014081    0.3362386     0.2861469   -0.5831933 
   0.033058254     0.4162575   -0.4934158     0.6059808    0.3377187     0.6021628    0.3395777     0.2869235   -0.5821989 
   0.033158279     0.4115141   -0.4940583     0.6083992    0.3368880     0.6070929    0.3386346     0.2838696   -0.5819358 
   0.033258304     0.4149602   -0.4973155     0.6098305    0.3371152     0.6001321    0.3382300     0.2812017   -0.5828272 
   0.033358329     0.4126627   -0.4912985     0.6052629    0.3366142     0.6095746    0.3308386     0.2827496   -0.5772885 
   0.033458354     0.4112339   -0.4909546     0.6139438    0.3321423     0.6068766    0.3346823     0.2754888   -0.5809860 
   0.033558379     0.4093046   -0.4934400     0.6117404    0.3411845     0.6109387    0.3324383     0.2833101   -0.5809286 
   0.033658404     0.4079923   -0.4931065     0.6126688    0.3382591     0.6123518    0.3342694     0.2781122   -0.5803468 
   0.033758429     0.4082956   -0.4911679     0.6132727    0.3340484     0.6133049    0.3300850     0.2773360   -0.5782794 
   0.033858454     0.4025162   -0.4922378     0.6246353    0.3308682     0.6134403    0.3335563     0.2672012   -0.5833219 
   0.033958479     0.4051316   -0.4953459     0.6126952    0.3318713     0.6123078    0.3304979     0.2733818   -0.5742884 
   0.034058504     0.4034108   -0.4898522     0.6124727    0.3271731     0.6149792    0.3280602     0.2700964   -0.5712824 
   0.034158529     0.4016230   -0.4896739     0.6181876    0.3286506     0.6189227    0.3256497     0.2698631   -0.5750302 
   0.034258554     0.3981695   -0.4915970     0.6217225    0.3280218     0.6210429    0.3279426     0.2666334   -0.5773388 
   0.034358579     0.3974402   -0.4872040     0.6185474    0.3261460     0.6233109    0.3254914     0.2656288   -0.5717133 
   0.034458604     0.3986559   -0.4915176     0.6233648    0.3253071     0.6196978    0.3247315     0.2637561   -0.5718759 
   0.034558629     0.3947586   -0.4907233     0.6218751    0.3250488     0.6229360    0.3242042     0.2613665   -0.5730596 
   0.034658654     0.3955650   -0.4926254     0.6305662    0.3256825     0.6233733    0.3232723     0.2572293   -0.5767182 
   0.034758679     0.3915274   -0.4901908     0.6308212    0.3260671     0.6260445    0.3217580     0.2570277   -0.5745224 
   0.034858704     0.3903807   -0.4898100     0.6254169    0.3188103     0.6285956    0.3250798     0.2551982   -0.5691678 
   0.034958729     0.3909720   -0.4877093     0.6308774    0.3187982     0.6330602    0.3190411     0.2504981   -0.5715708 
   0.035058754     0.3883166   -0.4872935     0.6376015    0.3190122     0.6319119    0.3218529     0.2475789   -0.5750353 
   0.035158779     0.3900844   -0.4877959     0.6360830    0.3245448     0.6309600    0.3142882     0.2501073   -0.5753838 
   0.035258804     0.3848864   -0.4901557     0.6393153    0.3155209     0.6337013    0.3182118     0.2452767   -0.5705327 
   0.035358829     0.3841979   -0.4848273     0.6326892    0.3182585     0.6369766    0.3147083     0.2498820   -0.5685034 
   0.035458854     0.3818674   -0.4875721     0.6402428    0.3126312     0.6385586    0.3136250     0.2405971   -0.5689567 
   0.035558879     0.3828544   -0.4883910     0.6440635    0.3195237     0.6375524    0.3150165     0.2429340   -0.5740507 
   0.035658904     0.3781303   -0.4885147     0.6404238    0.3164585     0.6392702    0.3138674     0.2435399   -0.5685934 
   0.035758929     0.3771584   -0.4842529     0.6389940    0.3112103     0.6462452    0.3118184     0.2412416   -0.5658259 
   0.035858954     0.3821463   -0.4843073     0.6388111    0.3108181     0.6412116    0.3097949     0.2406892   -0.5663524 
   0.035958979     0.3778268   -0.4856006     0.6436251    0.3148768     0.6439876    0.3080031     0.2383510   -0.5689989 
   0.036059005     0.3770945   -0.4841167     0.6438251    0.3069704     0.6434660    0.3074223     0.2349050   -0.5643005 
   0.036159030     0.3791409   -0.4827658     0.6421155    0.3121166     0.6419983    0.3044318     0.2378898   -0.5654383 
   0.036259055     0.3701802   -0.4861649     0.6558229    0.3093463     0.6487805    0.3087361     0.2269792   -0.5682558 
   0.036359080     0.3669684   -0.4776193     0.6458271    0.3009015     0.6560608    0.3063935     0.2308803   -0.5597435 
   0.036459105     0.3670875   -0.4880446     0.6605691    0.3058503     0.6490618    0.3080781     0.2230719   -0.5698165 
   0.036559130     0.3676486   -0.4798304     0.6516817    0.3016074     0.6553307    0.3028670     0.2242675   -0.5606102 
   0.036659155     0.3640789   -0.4867100     0.6635628    0.3034761     0.6532425    0.3034803     0.2181123   -0.5653976 
   0.036759180     0.3609042   -0.4821916     0.6547257    0.3006324     0.6573394    0.3061259     0.2239814   -0.5612092 
   0.036859205     0.3664002   -0.4823110     0.6552682    0.3039476     0.6534386    0.3004497     0.2240444   -0.5618640 
   0.036959230     0.3602087   -0.4834155     0.6588718    0.2968048     0.6567615    0.3020313     0.2168882   -0.5588364 
   0.037059255     0.3599657   -0.4851134     0.6633862    0.2965281     0.6585561    0.3025279     0.2138111   -0.5595180 
   0.037159280     0.3568112   -0.4792133     0.6554077    0.2966825     0.6632232    0.2982789     0.2196185   -0.5585262 
   0.037259305     0.3552044   -0.4827333     0.6627048    0.2969620     0.6601387    0.2997298     0.2139131   -0.5593446 
   0.037359330     0.3580691   -0.4827262     0.6636663    0.2972398     0.6623243    0.2978691     0.2141184   -0.5604779 
   0.037459355     0.3564918   -0.4786534     0.6592768    0.2940279     0.6645829    0.2951587     0.2135945   -0.5564817 
   0.037559380     0.3543249   -0.4812238     0.6665691    0.2992904     0.6644090    0.2972720     0.2114549   -0.5615914 
   0.037659405     0.3526558   -0.4787818     0.6742023    0.2889719     0.6666633    0.2926949     0.2040297   -0.5560232 
   0.037759430     0.3532336   -0.4780753     0.6664252    0.2914771     0.6639773    0.2937161     0.2087996   -0.5546869 
   0.037859455     0.3494258   -0.4760315     0.6678075    0.2901110     0.6701665    0.2886440     0.2055405   -0.5544305 
   0.037959480     0.3449704   -0.4789612     0.6749385    0.2911003     0.6708281    0.2923212     0.2017957   -0.5567150 
   0.038059505     0.3495096   -0.4757780     0.6749248    0.2908169     0.6677024    0.2894665     0.2014472   -0.5572338 
   0.038159530     0.3460153   -0.4762942     0.6732536    0.2848153     0.6703780    0.2841752     0.2009060   -0.5504112 
   0.038259555     0.3435307   -0.4797485     0.6809045    0.2894915     0.6748679    0.2887986     0.1959674   -0.5574864 
   0.038359580     0.3479888   -0.4730061     0.6732931    0.2880981     0.6721801    0.2837710     0.1998721   -0.5536727 
   0.038459605     0.3423006   -0.4764712     0.6757199    0.2840396     0.6781005    0.2848392     0.1967537   -0.5517839 
   0.038559630     0.3405069   -0.4785617     0.6733834    0.2768221     0.6771267    0.2890000     0.1968910   -0.5468929 
   0.038659655     0.3436998   -0.4787019     0.6816468    0.2790313     0.6741888    0.2859477     0.1919772   -0.5491946 
   0.038759680     0.3399842   -0.4725587     0.6784914    0.2836485     0.6770269    0.2814899     0.1928852   -0.5514506 
   0.038859705     0.3370518   -0.4745055     0.6836041    0.2810018     0.6823546    0.2860256     0.1917744   -0.5519902 
   0.038959730     0.3374863   -0.4696392     0.6754307    0.2835880     0.6826470    0.2771509     0.1963707   -0.5506906 
   0.039059755     0.3381253   -0.4772864     0.6865800    0.2809460     0.6778888    0.2797365     0.1870355   -0.5507090 
   0.039159780     0.3318132   -0.4740865     0.6855757    0.2727587     0.6845684    0.2801523     0.1861887   -0.5468704 
   0.039259805     0.3353340   -0.4735217     0.6923063    0.2755538     0.6834399    0.2773525     0.1804301   -0.5486342 
   0.039359830     0.3327818   -0.4723452     0.6822659    0.2790968     0.6849198    0.2768175     0.1877221   -0.5494578 
   0.039459855     0.3272708   -0.4728664     0.6903507    0.2692726     0.6887737    0.2773819     0.1806933   -0.5433237 
   0.039559880     0.3290174   -0.4702503     0.6877702    0.2717170     0.6906018    0.2718445     0.1818247   -0.5447989 
   0.039659905     0.3283579   -0.4737624     0.6925110    0.2707906     0.6902367    0.2759593     0.1780136   -0.5450478 
   0.039759930     0.3236842   -0.4714203     0.6953829    0.2669475     0.6937602    0.2754049     0.1757793   -0.5421444 
   0.039859955     0.3266402   -0.4698548     0.6917284    0.2728543     0.6943255    0.2725537     0.1785804   -0.5458887 
   0.039959980     0.3230842   -0.4657463     0.6914263    0.2768482     0.6943585    0.2659874     0.1774095   -0.5481796 
   0.040060005     0.3229988   -0.4690342     0.6904108    0.2708850     0.6959921    0.2665146     0.1774745   -0.5448320 
   0.040160030     0.3231097   -0.4746803     0.7061982    0.2778744     0.6952146    0.2688577     0.1685789   -0.5496187 
   0.040260055     0.3195662   -0.4662258     0.6995384    0.2601199     0.6981405    0.2643501     0.1682797   -0.5386977 
   0.040360080     0.3179515   -0.4659488     0.7004314    0.2630734     0.7002602    0.2629224     0.1680627   -0.5398674 
   0.040460105     0.3206678   -0.4712307     0.7070042    0.2743484     0.6966234    0.2663723     0.1633562   -0.5468220 
   0.040560130     0.3182960   -0.4658270     0.6993284    0.2584627     0.7006904    0.2628430     0.1668553   -0.5382479 
   0.040660155     0.3204014   -0.4702043     0.6974699    0.2629399     0.6976115    0.2660836     0.1691618   -0.5384507 
   0.040760180     0.3139370   -0.4660414     0.7040159    0.2607248     0.7035902    0.2611773     0.1639647   -0.5388361 
   0.040860205     0.3132632   -0.4652922     0.7065265    0.2571191     0.7008546    0.2607872     0.1613846   -0.5370070 
   0.040960230     0.3126521   -0.4669400     0.6999954    0.2572026     0.7059598    0.2626893     0.1648331   -0.5371442 
   0.041060255     0.3143562   -0.4638602     0.7012791    0.2582962     0.7069294    0.2587071     0.1635347   -0.5377070 
   0.041160280     0.3112080   -0.4683062     0.7155600    0.2603017     0.7051459    0.2571498     0.1539231   -0.5388184 
   0.041260305     0.3143546   -0.4630108     0.7078448    0.2588518     0.7061453    0.2543733     0.1579655   -0.5382256 
   0.041360330     0.3102150   -0.4647980     0.7129329    0.2519649     0.7056999    0.2575680     0.1551190   -0.5332527 
   0.041460355     0.3069667   -0.4617868     0.7063069    0.2483522     0.7079236    0.2482625     0.1574599   -0.5301578 
   0.041560380     0.3076996   -0.4611853     0.7049227    0.2509707     0.7071623    0.2478783     0.1563142   -0.5327607 
   0.041660405     0.3041651   -0.4637124     0.7085261    0.2491933     0.7110931    0.2517321     0.1539209   -0.5317715 
   0.041760430     0.3018433   -0.4647181     0.7216460    0.2434378     0.7147730    0.2527562     0.1472072   -0.5288996 
   0.041860455     0.3031218   -0.4607238     0.7109859    0.2495696     0.7148088    0.2496461     0.1511368   -0.5326713 
   0.041960480     0.3030059   -0.4615197     0.7172245    0.2497060     0.7158217    0.2471330     0.1472402   -0.5311513 
   0.042060505     0.3002406   -0.4576349     0.7133609    0.2410547     0.7178265    0.2451920     0.1486337   -0.5283365 
   0.042160530     0.2995909   -0.4596619     0.7221242    0.2377464     0.7152631    0.2451927     0.1431901   -0.5247039 
   0.042260555     0.2968664   -0.4580006     0.7237005    0.2440274     0.7178603    0.2434812     0.1430233   -0.5298880 
   0.042360580     0.3027560   -0.4603525     0.7227119    0.2510751     0.7146764    0.2440749     0.1408102   -0.5330268 
   0.042460605     0.2940387   -0.4584385     0.7200139    0.2448343     0.7208657    0.2402916     0.1419915   -0.5293078 
   0.042560630     0.2930148   -0.4607230     0.7209181    0.2359441     0.7204992    0.2428483     0.1418428   -0.5237570 
   0.042660655     0.2941713   -0.4576631     0.7246316    0.2377179     0.7223650    0.2416110     0.1402591   -0.5257838 
   0.042760680     0.2939985   -0.4522933     0.7251081    0.2321285     0.7210531    0.2358786     0.1375923   -0.5207915 
   0.042860705     0.2946514   -0.4580489     0.7290681    0.2354413     0.7225174    0.2411914     0.1359633   -0.5239183 
   0.042960730     0.2914712   -0.4564101     0.7240648    0.2313382     0.7234834    0.2381436     0.1366027   -0.5215489 
   0.043060755     0.2876802   -0.4592414     0.7300292    0.2297392     0.7271959    0.2345688     0.1328737   -0.5195448 
   0.043160780     0.2878057   -0.4575456     0.7358676    0.2243503     0.7285805    0.2367914     0.1286847   -0.5185452 
   0.043260805     0.2884764   -0.4560878     0.7326133    0.2255637     0.7280461    0.2321520     0.1302595   -0.5182762 
   0.043360830     0.2907023   -0.4521379     0.7280465    0.2339360     0.7247614    0.2312400     0.1324285   -0.5236308 
   0.043460855     0.2881401   -0.4520952     0.7307398    0.2336743     0.7289844    0.2308569     0.1312585   -0.5241838 
   0.043560880     0.2870196   -0.4525863     0.7288004    0.2298510     0.7310525    0.2315653     0.1304871   -0.5231054 
   0.043660905     0.2877879   -0.4521498     0.7240821    0.2357448     0.7309806    0.2294734     0.1295896   -0.5266919 
   0.043760930     0.2835085   -0.4558781     0.7373328    0.2355947     0.7334434    0.2320844     0.1227612   -0.5249707 
   0.043860955     0.2881633   -0.4525001     0.7348601    0.2271550     0.7277967    0.2283385     0.1248646   -0.5188118 
   0.043960980     0.2813581   -0.4532998     0.7384107    0.2285981     0.7344787    0.2282514     0.1215615   -0.5206324 
   0.044061006     0.2841686   -0.4497710     0.7329775    0.2238464     0.7350562    0.2262774     0.1239180   -0.5189050 
   0.044161031     0.2815013   -0.4540672     0.7346093    0.2250746     0.7339510    0.2265528     0.1242719   -0.5179157 
   0.044261056     0.2790248   -0.4510016     0.7379309    0.2153956     0.7322029    0.2222960     0.1216146   -0.5108125 
   0.044361081     0.2761897   -0.4474785     0.7291711    0.2143686     0.7382094    0.2192069     0.1246719   -0.5124500 
   0.044461106     0.2782571   -0.4477933     0.7462609    0.2091516     0.7365041    0.2190655     0.1152703   -0.5080985 
   0.044561131     0.2794808   -0.4508292     0.7372079    0.2213506     0.7369429    0.2221625     0.1198954   -0.5159609 
   0.044661156     0.2745598   -0.4493115     0.7448485    0.2151854     0.7410746    0.2200376     0.1135570   -0.5137268 
   0.044761181     0.2748067   -0.4476767     0.7388889    0.2157765     0.7389368    0.2157788     0.1169366   -0.5121512 
   0.044861206     0.2760211   -0.4491362     0.7462568    0.2149492     0.7389896    0.2204230     0.1135498   -0.5126371 
   0.044961231     0.2720486   -0.4481603     0.7484948    0.2087511     0.7421713    0.2163865     0.1087686   -0.5074986 
   0.045061256     0.2715031   -0.4474391     0.7472848    0.2086049     0.7429158    0.2172015     0.1099437   -0.5091506 
   0.045161281     0.2718064   -0.4457384     0.7424918    0.2061954     0.7436573    0.2122737     0.1124761   -0.5064035 
   0.045261306     0.2696038   -0.4448884     0.7495185    0.2096442     0.7435254    0.2107925     0.1070225   -0.5094994 
   0.045361331     0.2710532   -0.4499978     0.7535927    0.2140477     0.7453949    0.2118292     0.1025344   -0.5096352 
   0.045461356     0.2651252   -0.4457339     0.7554660    0.2023502     0.7496437    0.2091819     0.1032571   -0.5038425 
   0.045561381     0.2693464   -0.4469899     0.7513016    0.2076361     0.7440382    0.2117172     0.1064400   -0.5063922 
   0.045661406     0.2680991   -0.4423684     0.7543440    0.2026626     0.7459547    0.2037592     0.1019335   -0.5038869 
   0.045761431     0.2678817   -0.4447457     0.7485119    0.2101248     0.7447404    0.2097919     0.1040139   -0.5081772 
   0.045861456     0.2635759   -0.4418924     0.7483912    0.1971188     0.7490978    0.2030803     0.1053765   -0.5019801 
   0.045961481     0.2608955   -0.4364473     0.7418637    0.1992628     0.7485147    0.2003585     0.1070539   -0.5051160 
   0.046061506     0.2571214   -0.4391518     0.7513930    0.1922611     0.7562181    0.1979290     0.1027799   -0.4992849 
   0.046161531     0.2605304   -0.4365068     0.7466779    0.2013291     0.7540355    0.1968314     0.1014038   -0.5053910 
   0.046261556     0.2578149   -0.4401895     0.7630583    0.1963706     0.7539244    0.2001581     0.0947101   -0.4999680 
   0.046361581     0.2601344   -0.4402528     0.7524847    0.1942767     0.7540222    0.1969533     0.0991473   -0.4997909 
   0.046461606     0.2567665   -0.4407119     0.7579527    0.1934147     0.7550934    0.1993106     0.0963912   -0.4986176 
   0.046561631     0.2563722   -0.4375712     0.7554021    0.1890333     0.7540740    0.1965391     0.0966802   -0.4970149 
   0.046661656     0.2538686   -0.4411722     0.7625257    0.1852557     0.7592775    0.1956440     0.0927666   -0.4942399 
   0.046761681     0.2554532   -0.4354735     0.7611992    0.1866476     0.7578948    0.1924787     0.0922013   -0.4958495 
   0.046861706     0.2522463   -0.4402819     0.7583614    0.1856794     0.7595019    0.1927356     0.0932590   -0.4947941 
   0.046961731     0.2557711   -0.4360053     0.7610302    0.1933564     0.7585632    0.1898028     0.0900796   -0.4982508 
   0.047061756     0.2551526   -0.4353489     0.7587947    0.1949871     0.7585630    0.1906610     0.0884584   -0.5001183 
   0.047161781     0.2519758   -0.4364389     0.7579499    0.1937518     0.7619199    0.1903388     0.0899804   -0.4995939 
   0.047261806     0.2477616   -0.4349146     0.7623512    0.1826237     0.7618020    0.1873949     0.0890250   -0.4927180 
   0.047361831     0.2532445   -0.4341438     0.7641035    0.1865776     0.7617213    0.1871261     0.0841941   -0.4955435 
   0.047461856     0.2493116   -0.4354770     0.7571764    0.1771009     0.7635564    0.1882781     0.0915241   -0.4925676 
   0.047561881     0.2516074   -0.4336979     0.7636993    0.1803332     0.7621352    0.1894065     0.0869164   -0.4918821 
   0.047661906     0.2448387   -0.4330241     0.7637622    0.1719255     0.7649762    0.1828625     0.0861958   -0.4881667 
   0.047761931     0.2457095   -0.4335910     0.7642976    0.1775961     0.7650348    0.1818849     0.0842630   -0.4900196 
   0.047861956     0.2449565   -0.4370670     0.7673501    0.1758306     0.7652792    0.1839489     0.0842804   -0.4886222 
   0.047961981     0.2413991   -0.4311471     0.7647033    0.1705026     0.7664356    0.1789384     0.0843055   -0.4858657 
   0.048062006     0.2429796   -0.4334021     0.7705814    0.1786541     0.7661937    0.1769619     0.0781658   -0.4883980 
   0.048162031     0.2471002   -0.4293633     0.7632535    0.1808126     0.7642435    0.1773067     0.0810641   -0.4903191 
   0.048262056     0.2415554   -0.4288396     0.7706435    0.1751447     0.7694332    0.1767551     0.0779335   -0.4884677 
   0.048362081     0.2434845   -0.4314393     0.7663550    0.1730150     0.7677193    0.1797960     0.0801893   -0.4877926 
   0.048462106     0.2452087   -0.4291669     0.7692133    0.1759346     0.7677134    0.1769742     0.0756985   -0.4876050 
   0.048562131     0.2406171   -0.4268374     0.7746821    0.1685349     0.7662925    0.1735616     0.0762798   -0.4827949 
   0.048662156     0.2399911   -0.4275479     0.7688361    0.1683098     0.7703275    0.1724509     0.0766279   -0.4850600 
   0.048762181     0.2373768   -0.4279080     0.7669988    0.1626766     0.7728814    0.1717079     0.0782928   -0.4831378 
   0.048862206     0.2370220   -0.4310057     0.7798193    0.1660912     0.7738758    0.1730394     0.0704389   -0.4823823 
   0.048962231     0.2361857   -0.4275236     0.7751965    0.1644544     0.7734091    0.1696568     0.0715686   -0.4822038 
   0.049062256     0.2371749   -0.4252355     0.7699851    0.1640609     0.7725549    0.1706397     0.0745630   -0.4833342 
   0.049162281     0.2360224   -0.4237638     0.7737664    0.1664642     0.7750993    0.1660579     0.0698927   -0.4833040 
   0.049262306     0.2367311   -0.4315670     0.7828721    0.1646283     0.7790568    0.1698863     0.0650491   -0.4811856 
   0.049362331     0.2325370   -0.4259512     0.7789713    0.1588045     0.7795822    0.1638725     0.0680495   -0.4802922 
   0.049462356     0.2346649   -0.4256601     0.7776150    0.1573839     0.7756588    0.1656813     0.0671341   -0.4777659 
   0.049562381     0.2306871   -0.4228590     0.7720860    0.1599466     0.7771960    0.1611193     0.0674929   -0.4806215 
   0.049662406     0.2298898   -0.4239034     0.7745695    0.1512640     0.7779751    0.1592567     0.0692968   -0.4768494 
   0.049762431     0.2297056   -0.4243215     0.7759825    0.1513235     0.7773405    0.1620104     0.0687239   -0.4750226 
   0.049862456     0.2326384   -0.4214122     0.7729656    0.1636937     0.7769494    0.1596131     0.0637558   -0.4818865 
   0.049962481     0.2276122   -0.4195192     0.7712077    0.1498636     0.7794263    0.1568525     0.0683257   -0.4772389 
   0.050062506     0.2303886   -0.4281768     0.7855316    0.1538513     0.7801843    0.1586484     0.0593098   -0.4743311 
   0.050162531     0.2272218   -0.4225903     0.7874757    0.1454770     0.7816827    0.1564197     0.0617207   -0.4710442 
   0.050262556     0.2266223   -0.4242337     0.7858114    0.1503484     0.7836738    0.1542626     0.0578470   -0.4720667 
   0.050362581     0.2278326   -0.4239456     0.7908781    0.1565236     0.7834623    0.1526296     0.0522492   -0.4733975 
   0.050462606     0.2263277   -0.4186041     0.7800556    0.1530858     0.7817920    0.1494438     0.0593630   -0.4752877 
   0.050562631     0.2257383   -0.4189639     0.7845840    0.1437341     0.7832975    0.1515403     0.0582389   -0.4701657 
   0.050662656     0.2242740   -0.4169922     0.7814056    0.1428542     0.7835200    0.1504233     0.0596056   -0.4701529 
   0.050762681     0.2214296   -0.4197755     0.7872120    0.1391458     0.7848551    0.1487564     0.0577653   -0.4662797 
   0.050862706     0.2225462   -0.4209861     0.7932130    0.1474321     0.7860752    0.1489287     0.0504241   -0.4681570 
   0.050962731     0.2182407   -0.4176708     0.7910359    0.1427493     0.7893002    0.1468924     0.0536092   -0.4675441 
   0.051062756     0.2222714   -0.4203701     0.7925954    0.1451525     0.7877828    0.1456159     0.0496137   -0.4684698 
   0.051162781     0.2220378   -0.4156027     0.7839223    0.1455410     0.7838014    0.1477655     0.0538176   -0.4705291 
   0.051262806     0.2197248   -0.4182181     0.7910924    0.1410551     0.7907030    0.1445147     0.0497634   -0.4669073 
   0.051362831     0.2203709   -0.4200481     0.7983233    0.1464679     0.7897005    0.1416443     0.0435159   -0.4658280 
   0.051462856     0.2189989   -0.4199186     0.8001010    0.1387920     0.7892700    0.1433612     0.0465907   -0.4616419 
   0.051562881     0.2159859   -0.4170298     0.7898608    0.1329629     0.7931864    0.1412269     0.0502098   -0.4646342 
   0.051662906     0.2160873   -0.4169987     0.7896659    0.1306750     0.7916060    0.1408467     0.0504712   -0.4635835 
   0.051762931     0.2201196   -0.4139067     0.7921614    0.1498595     0.7886621    0.1384449     0.0413420   -0.4685266 
   0.051862956     0.2106429   -0.4139675     0.7941581    0.1302515     0.7946258    0.1345033     0.0467613   -0.4613568 
   0.051962981     0.2157914   -0.4101089     0.7857063    0.1295562     0.7890535    0.1364933     0.0495173   -0.4633094 
   0.052063007     0.2153472   -0.4144621     0.7967696    0.1300583     0.7925045    0.1362856     0.0438791   -0.4589107 
   0.052163032     0.2148775   -0.4120136     0.7929247    0.1231922     0.7946189    0.1324153     0.0457508   -0.4576777 
   0.052263057     0.2128137   -0.4154772     0.7991238    0.1295017     0.7929836    0.1365190     0.0426781   -0.4576504 
   0.052363082     0.2129587   -0.4123749     0.7990895    0.1272041     0.7962456    0.1315983     0.0406142   -0.4578520 
   0.052463107     0.2100782   -0.4130332     0.7933370    0.1253625     0.7958384    0.1318141     0.0431172   -0.4589332 
   0.052563132     0.2098005   -0.4109553     0.7981083    0.1211927     0.7957765    0.1307212     0.0423009   -0.4555002 
   0.052663157     0.2067649   -0.4082003     0.7947444    0.1134866     0.7963315    0.1256754     0.0440084   -0.4537967 
   0.052763182     0.2098683   -0.4087357     0.7925488    0.1297022     0.7975894    0.1258328     0.0373392   -0.4605933 
   0.052863207     0.2102443   -0.4113362     0.7987862    0.1245931     0.7973046    0.1282052     0.0373560   -0.4575653 
   0.052963232     0.2107271   -0.4085759     0.8035221    0.1228602     0.7970710    0.1258122     0.0345905   -0.4534182 
   0.053063257     0.2069176   -0.4076564     0.7919825    0.1181279     0.8002582    0.1239656     0.0402216   -0.4575775 
   0.053163282     0.2052919   -0.4075541     0.8038285    0.1221545     0.8018612    0.1213481     0.0322708   -0.4543828 
   0.053263307     0.2077820   -0.4104068     0.8061645    0.1253469     0.8008626    0.1219972     0.0304252   -0.4540634 
   0.053363332     0.2044839   -0.4062751     0.7987528    0.1127138     0.7986000    0.1195157     0.0355147   -0.4504856 
   0.053463357     0.2029981   -0.4078631     0.8088530    0.1096518     0.8060853    0.1183899     0.0330009   -0.4478392 
   0.053563382     0.2051725   -0.4088359     0.8117346    0.1072115     0.8015004    0.1177362     0.0319404   -0.4456543 
   0.053663407     0.2038631   -0.4031499     0.8074182    0.1145768     0.8021996    0.1172955     0.0294949   -0.4488778 
   0.053763432     0.2057969   -0.4041657     0.8073613    0.1148866     0.8002796    0.1146384     0.0282488   -0.4487601 
   0.053863457     0.1997191   -0.4061283     0.8058482    0.1018939     0.8058599    0.1129581     0.0319139   -0.4449957 
   0.053963482     0.2017644   -0.4018979     0.8051349    0.1101070     0.8035611    0.1143939     0.0287412   -0.4487889 
   0.054063507     0.1998069   -0.4053288     0.8073822    0.1082666     0.8047239    0.1108021     0.0279556   -0.4461782 
   0.054163532     0.2022287   -0.4008280     0.8017229    0.1108963     0.8041762    0.1125617     0.0282115   -0.4498968 
   0.054263557     0.1955610   -0.4042681     0.8125204    0.1066215     0.8103691    0.1057763     0.0226606   -0.4437464 
   0.054363582     0.1920268   -0.3999357     0.8086235    0.0999952     0.8078305    0.1081680     0.0277857   -0.4441113 
   0.054463607     0.1974401   -0.3989124     0.8067678    0.1042928     0.8050281    0.1074409     0.0266376   -0.4441548 
   0.054563632     0.1973933   -0.4034736     0.8092481    0.1071188     0.8093114    0.1065011     0.0224394   -0.4452890 
   0.054663657     0.1967054   -0.3992712     0.8072618    0.1009910     0.8093461    0.1065476     0.0256147   -0.4443778 
   0.054763682     0.1950351   -0.4029726     0.8129138    0.1026255     0.8094929    0.1054585     0.0211159   -0.4413953 
   0.054863707     0.2002894   -0.4012195     0.8066300    0.1073264     0.8067738    0.1080189     0.0228444   -0.4447747 
   0.054963732     0.1933094   -0.4013653     0.8094625    0.0946280     0.8104668    0.1049408     0.0246821   -0.4401929 
   0.055063757     0.1954091   -0.4005175     0.8155622    0.1034445     0.8108391    0.1023845     0.0173935   -0.4404068 
   0.055163782     0.1903636   -0.3958566     0.8015141    0.0894250     0.8105543    0.0986880     0.0244157   -0.4416362 
   0.055263807     0.1934777   -0.3998596     0.8181738    0.0932308     0.8121337    0.0999715     0.0188393   -0.4365768 
   0.055363832     0.1942481   -0.3972423     0.8106910    0.1009675     0.8137001    0.0997388     0.0171801   -0.4419648 
   0.055463857     0.1867490   -0.3994106     0.8132117    0.0886291     0.8153229    0.0979299     0.0204411   -0.4376954 
   0.055563882     0.1864398   -0.3963906     0.8160980    0.0854177     0.8114489    0.0899161     0.0176880   -0.4320671 
   0.055663907     0.1910130   -0.3943296     0.8086752    0.0944130     0.8146600    0.0948855     0.0167646   -0.4400026 
   0.055763932     0.1945580   -0.3979705     0.8200951    0.0977240     0.8133993    0.0953626     0.0112472   -0.4346098 
   0.055863957     0.1867359   -0.3954343     0.8166801    0.0814235     0.8118814    0.0907423     0.0184455   -0.4314461 
   0.055963982     0.1887246   -0.3949008     0.8134642    0.0847271     0.8124549    0.0919693     0.0164304   -0.4336054 
   0.056064007     0.1878794   -0.3910590     0.8104358    0.0771061     0.8152154    0.0898054     0.0181317   -0.4342572 
   0.056164032     0.1854054   -0.3943998     0.8210801    0.0830418     0.8160368    0.0891943     0.0129650   -0.4303302 
   0.056264057     0.1881931   -0.3930715     0.8123156    0.0870097     0.8138229    0.0885189     0.0134438   -0.4337245 
   0.056364082     0.1873198   -0.3928358     0.8166816    0.0860870     0.8156079    0.0889227     0.0120330   -0.4326049 
   0.056464107     0.1836153   -0.3949381     0.8224570    0.0794378     0.8185434    0.0842821     0.0104738   -0.4279294 
   0.056564132     0.1850733   -0.3872364     0.8119593    0.0810638     0.8159121    0.0836475     0.0116026   -0.4324529 
   0.056664157     0.1819434   -0.3924151     0.8242315    0.0754881     0.8160300    0.0837200     0.0099624   -0.4247538 
   0.056764182     0.1834302   -0.3909081     0.8193966    0.0754100     0.8143960    0.0801560     0.0104644   -0.4266356 
   0.056864207     0.1816007   -0.3855972     0.8111071    0.0721460     0.8140947    0.0796701     0.0121268   -0.4293093 
   0.056964232     0.1795308   -0.3927819     0.8180361    0.0697145     0.8193914    0.0807965     0.0108466   -0.4265092 
   0.057064257     0.1809003   -0.3855065     0.8149161    0.0718013     0.8181281    0.0766899     0.0087634   -0.4281322 
   0.057164282     0.1805377   -0.3894294     0.8196473    0.0762850     0.8186597    0.0758834     0.0049867   -0.4264494 
   0.057264307     0.1785658   -0.3908635     0.8212184    0.0759550     0.8199753    0.0783135     0.0055391   -0.4255386 
   0.057364332     0.1780707   -0.3883941     0.8179621    0.0659403     0.8187875    0.0751929     0.0087489   -0.4241550 
   0.057464357     0.1830720   -0.3863010     0.8174054    0.0804121     0.8199587    0.0761853     0.0023237   -0.4265743 
   0.057564382     0.1828881   -0.3857998     0.8204554    0.0810607     0.8206003    0.0741558    -0.0010787   -0.4260796 
   0.057664407     0.1800055   -0.3848657     0.8216971    0.0669912     0.8209676    0.0705384     0.0036503   -0.4222538 
   0.057764432     0.1776616   -0.3872998     0.8283216    0.0663678     0.8224521    0.0696594     0.0020684   -0.4182608 
   0.057864457     0.1784573   -0.3882127     0.8274456    0.0674371     0.8208312    0.0697132     0.0017820   -0.4190767 
   0.057964482     0.1753746   -0.3828100     0.8222087    0.0702497     0.8225775    0.0667794    -0.0010768   -0.4215637 
   0.058064507     0.1750397   -0.3845754     0.8135975    0.0607702     0.8215514    0.0676901     0.0044555   -0.4232132 
   0.058164532     0.1774400   -0.3856265     0.8219803    0.0683575     0.8228383    0.0668212    -0.0019470   -0.4208654 
   0.058264557     0.1726064   -0.3863363     0.8235976    0.0557676     0.8260631    0.0639164     0.0015253   -0.4179598 
   0.058364582     0.1753805   -0.3800001     0.8156804    0.0640434     0.8204790    0.0637860    -0.0010956   -0.4198901 
   0.058464607     0.1737019   -0.3811912     0.8264491    0.0595597     0.8217402    0.0621219    -0.0013796   -0.4158939 
   0.058564632     0.1731114   -0.3829837     0.8255462    0.0576645     0.8251742    0.0634786    -0.0009619   -0.4166941 
   0.058664657     0.1744617   -0.3806770     0.8178258    0.0592583     0.8232487    0.0610015    -0.0025405   -0.4166268 
   0.058764682     0.1753303   -0.3799717     0.8236267    0.0577859     0.8231164    0.0607115    -0.0033787   -0.4148452 
   0.058864707     0.1712603   -0.3819215     0.8307086    0.0569395     0.8273261    0.0573941    -0.0063364   -0.4143421 
   0.058964732     0.1715158   -0.3804036     0.8211924    0.0558532     0.8232805    0.0584069    -0.0033747   -0.4159791 
   0.059064757     0.1687876   -0.3799903     0.8319374    0.0553341     0.8282028    0.0541416    -0.0066900   -0.4112216 
   0.059164782     0.1714676   -0.3741134     0.8202005    0.0547404     0.8247532    0.0512553    -0.0081558   -0.4155949 
   0.059264807     0.1686953   -0.3790261     0.8316758    0.0495877     0.8261637    0.0515447    -0.0067214   -0.4093583 
   0.059364832     0.1680560   -0.3765699     0.8231819    0.0480486     0.8251364    0.0537135    -0.0040691   -0.4125454 
   0.059464857     0.1668026   -0.3716167     0.8205289    0.0434087     0.8260992    0.0502682    -0.0048601   -0.4135133 
   0.059564882     0.1682525   -0.3789241     0.8325564    0.0468031     0.8291916    0.0524534    -0.0074615   -0.4088163 
   0.059664907     0.1656909   -0.3755333     0.8301386    0.0438337     0.8302724    0.0471729    -0.0098572   -0.4095729 
   0.059764932     0.1659205   -0.3747689     0.8256544    0.0441836     0.8289296    0.0482428    -0.0088348   -0.4102335 
   0.059864957     0.1708250   -0.3719741     0.8259245    0.0440900     0.8294073    0.0494559    -0.0094549   -0.4097584 
   0.059964982     0.1662651   -0.3799186     0.8309597    0.0464949     0.8336006    0.0494153    -0.0106672   -0.4074217 
   0.060065008     0.1679520   -0.3726059     0.8254837    0.0483956     0.8291862    0.0450189    -0.0136974   -0.4092006 
   0.060165033     0.1626873   -0.3726132     0.8235826    0.0333681     0.8282548    0.0428940    -0.0072962   -0.4078704 
   0.060265058     0.1649355   -0.3735911     0.8287355    0.0418281     0.8294287    0.0439616    -0.0125130   -0.4057257 
   0.060365083     0.1605078   -0.3704793     0.8310357    0.0358493     0.8286214    0.0422993    -0.0102822   -0.4034194 
   0.060465108     0.1636484   -0.3765581     0.8359736    0.0362102     0.8315870    0.0411513    -0.0120686   -0.4010727 
   0.060565133     0.1598195   -0.3743601     0.8394532    0.0333369     0.8320764    0.0401187    -0.0119973   -0.3995146 
   0.060665158     0.1643171   -0.3745629     0.8391030    0.0381959     0.8353823    0.0411920    -0.0165235   -0.4005859 
   0.060765183     0.1615492   -0.3685904     0.8292242    0.0351300     0.8298327    0.0362550    -0.0148660   -0.4032702 
   0.060865208     0.1616123   -0.3706402     0.8274844    0.0343535     0.8326384    0.0373720    -0.0157037   -0.4025039 
   0.060965233     0.1627428   -0.3708421     0.8379236    0.0343043     0.8343019    0.0356135    -0.0176634   -0.3989777 
   0.061065258     0.1590375   -0.3729276     0.8387553    0.0265747     0.8336106    0.0325199    -0.0148790   -0.3967420 
   0.061165283     0.1570942   -0.3667795     0.8320769    0.0220577     0.8317478    0.0311590    -0.0133701   -0.3986036 
   0.061265308     0.1565787   -0.3669901     0.8325726    0.0230376     0.8318769    0.0309838    -0.0136542   -0.3988406 
   0.061365333     0.1602601   -0.3664687     0.8334884    0.0262559     0.8320880    0.0304373    -0.0180066   -0.3973487 
   0.061465358     0.1574031   -0.3692682     0.8382342    0.0314098     0.8354390    0.0310946    -0.0197463   -0.3956535 
   0.061565383     0.1572528   -0.3640873     0.8307647    0.0286593     0.8315093    0.0272715    -0.0199742   -0.3975642 
   0.061665408     0.1550878   -0.3683957     0.8460274    0.0192339     0.8343582    0.0256471    -0.0166327   -0.3900332 
   0.061765433     0.1537424   -0.3693624     0.8440647    0.0152246     0.8337753    0.0263727    -0.0162880   -0.3902297 
   0.061865458     0.1580631   -0.3655537     0.8408868    0.0247225     0.8351461    0.0264594    -0.0225162   -0.3923936 
   0.061965483     0.1579460   -0.3631307     0.8337146    0.0266913     0.8374271    0.0255071    -0.0228075   -0.3968137 
   0.062065508     0.1514824   -0.3612985     0.8332523    0.0137295     0.8349546    0.0228390    -0.0171339   -0.3940013 
   0.062165533     0.1548180   -0.3632296     0.8397644    0.0179491     0.8366628    0.0231025    -0.0215951   -0.3904535 
   0.062265558     0.1513950   -0.3674651     0.8389373    0.0189583     0.8352045    0.0203800    -0.0227183   -0.3902852 
   0.062365583     0.1515921   -0.3610208     0.8306591    0.0157952     0.8352892    0.0187337    -0.0226098   -0.3932160 
   0.062465608     0.1559711   -0.3647963     0.8406851    0.0142553     0.8374333    0.0209546    -0.0228463   -0.3887885 
   0.062565633     0.1501206   -0.3635079     0.8377433    0.0109573     0.8386447    0.0155433    -0.0231604   -0.3909065 
   0.062665658     0.1521205   -0.3614441     0.8365324    0.0083327     0.8394791    0.0149039    -0.0231159   -0.3903471 
   0.062765683     0.1496870   -0.3605908     0.8392478    0.0029275     0.8394218    0.0152288    -0.0206838   -0.3885582 
   0.062865708     0.1494384   -0.3595877     0.8326968    0.0034203     0.8397538    0.0135832    -0.0224734   -0.3922471 
   0.062965733     0.1480018   -0.3603083     0.8318016    0.0024350     0.8384250    0.0121142    -0.0219149   -0.3903482 
   0.063065758     0.1519119   -0.3631681     0.8436900    0.0071177     0.8370876    0.0124369    -0.0245811   -0.3831306 
   0.063165783     0.1527804   -0.3608862     0.8454490    0.0123980     0.8411427    0.0129581    -0.0291626   -0.3841880 
   0.063265808     0.1521648   -0.3586981     0.8423264    0.0126381     0.8387589    0.0123673    -0.0300867   -0.3844183 
   0.063365833     0.1518238   -0.3619387     0.8458868    0.0059968     0.8397244    0.0089054    -0.0282893   -0.3806538 
   0.063465858     0.1493113   -0.3541410     0.8316694    0.0039526     0.8373626    0.0073808    -0.0288317   -0.3870286 
   0.063565883     0.1495181   -0.3594098     0.8350921    0.0026101     0.8399134    0.0088419    -0.0283026   -0.3854227 
   0.063665908     0.1480187   -0.3551667     0.8359580    0.0005148     0.8400773    0.0036753    -0.0286845   -0.3839714 
   0.063765933     0.1440080   -0.3593579     0.8458417   -0.0037354     0.8384929    0.0027675    -0.0274410   -0.3785677 
   0.063865958     0.1467257   -0.3543870     0.8352251   -0.0023498     0.8389480    0.0015915    -0.0292642   -0.3826586 
   0.063965983     0.1443236   -0.3568935     0.8411747   -0.0050439     0.8417912    0.0025405    -0.0285211   -0.3814693 
   0.064066008     0.1433909   -0.3538360     0.8403188   -0.0046957     0.8424119    0.0008926    -0.0304167   -0.3812620 
   0.064166033     0.1454470   -0.3586511     0.8443547   -0.0023274     0.8433106    0.0024830    -0.0315346   -0.3781585 
   0.064266058     0.1457236   -0.3545289     0.8438706   -0.0052039     0.8406842   -0.0034852    -0.0327964   -0.3778144 
   0.064366083     0.1438905   -0.3561386     0.8515310   -0.0097284     0.8419369   -0.0010051    -0.0297271   -0.3746387 
   0.064466108     0.1451905   -0.3536262     0.8465795   -0.0079104     0.8412082   -0.0039185    -0.0319790   -0.3751955 
   0.064566133     0.1443412   -0.3515977     0.8391950   -0.0074569     0.8401542   -0.0027571    -0.0325222   -0.3768337 
   0.064666158     0.1441261   -0.3511934     0.8407936   -0.0054162     0.8413147   -0.0071638    -0.0365019   -0.3765776 
   0.064766183     0.1446415   -0.3444629     0.8311938   -0.0081250     0.8406245   -0.0061900    -0.0357775   -0.3819050 
   0.064866208     0.1444016   -0.3524500     0.8442346   -0.0134433     0.8455765   -0.0055939    -0.0332834   -0.3758063 
   0.064966233     0.1413002   -0.3528720     0.8470005   -0.0155617     0.8444761   -0.0082515    -0.0329279   -0.3735428 
   0.065066258     0.1422109   -0.3552649     0.8491490   -0.0185963     0.8446851   -0.0093588    -0.0326357   -0.3718504 
   0.065166283     0.1395691   -0.3519001     0.8482344   -0.0185189     0.8451551   -0.0124657    -0.0336302   -0.3724931 
   0.065266308     0.1410663   -0.3502073     0.8474246   -0.0139249     0.8458605   -0.0125797    -0.0370556   -0.3716942 
   0.065366333     0.1403758   -0.3437659     0.8350168   -0.0195229     0.8413567   -0.0143861    -0.0368374   -0.3757948 
   0.065466358     0.1387030   -0.3467579     0.8433073   -0.0210093     0.8462096   -0.0156313    -0.0369494   -0.3732721 
   0.065566383     0.1390965   -0.3484971     0.8441945   -0.0152559     0.8445987   -0.0172477    -0.0403969   -0.3700206 
   0.065666408     0.1374721   -0.3460752     0.8398565   -0.0223776     0.8432544   -0.0189912    -0.0380683   -0.3718274 
   0.065766433     0.1417507   -0.3424793     0.8358467   -0.0177435     0.8411510   -0.0177902    -0.0414731   -0.3726901 
   0.065866458     0.1369530   -0.3469659     0.8429582   -0.0284093     0.8436490   -0.0215876    -0.0375098   -0.3693673 
   0.065966483     0.1396670   -0.3448098     0.8410650   -0.0207772     0.8439736   -0.0186167    -0.0403700   -0.3692442 
   0.066066508     0.1397606   -0.3469039     0.8505422   -0.0182487     0.8469027   -0.0213538    -0.0425387   -0.3653259 
   0.066166533     0.1348043   -0.3398803     0.8324178   -0.0318532     0.8445521   -0.0217056    -0.0390702   -0.3743805 
   0.066266558     0.1394768   -0.3453016     0.8420666   -0.0236284     0.8478981   -0.0228242    -0.0420456   -0.3678724 
   0.066366583     0.1384073   -0.3424503     0.8444694   -0.0220874     0.8448030   -0.0219326    -0.0428096   -0.3656402 
   0.066466608     0.1399057   -0.3429058     0.8447620   -0.0240955     0.8458910   -0.0252480    -0.0441532   -0.3662173 
   0.066566633     0.1346359   -0.3428619     0.8412380   -0.0286897     0.8463303   -0.0281981    -0.0433210   -0.3666621 
   0.066666658     0.1322966   -0.3450591     0.8503801   -0.0371223     0.8452038   -0.0278093    -0.0388239   -0.3618704 
   0.066766683     0.1354648   -0.3458089     0.8485266   -0.0276287     0.8467756   -0.0271404    -0.0434266   -0.3620214 
   0.066866708     0.1354062   -0.3419589     0.8417862   -0.0330435     0.8448562   -0.0284510    -0.0422166   -0.3641072 
   0.066966733     0.1349416   -0.3437517     0.8469177   -0.0295959     0.8461049   -0.0298584    -0.0455092   -0.3609007 
   0.067066758     0.1334870   -0.3426952     0.8496211   -0.0406339     0.8486921   -0.0309928    -0.0413617   -0.3613003 
   0.067166783     0.1336194   -0.3435429     0.8485745   -0.0351393     0.8475937   -0.0324408    -0.0450071   -0.3600512 
   0.067266808     0.1320028   -0.3429784     0.8479604   -0.0371445     0.8464184   -0.0363280    -0.0448287   -0.3590970 
   0.067366833     0.1328763   -0.3392830     0.8483637   -0.0395319     0.8477343   -0.0357725    -0.0456034   -0.3594911 
   0.067466858     0.1353226   -0.3394203     0.8456807   -0.0372247     0.8470654   -0.0346296    -0.0464077   -0.3586541 
   0.067566883     0.1308020   -0.3394063     0.8460795   -0.0437151     0.8478377   -0.0363197    -0.0439183   -0.3595137 
   0.067666908     0.1314297   -0.3376790     0.8465170   -0.0418899     0.8486292   -0.0377700    -0.0465355   -0.3601316 
   0.067766933     0.1309298   -0.3410188     0.8554931   -0.0408065     0.8516452   -0.0388105    -0.0460441   -0.3548078 
   0.067866958     0.1299212   -0.3376677     0.8435076   -0.0460601     0.8467521   -0.0377677    -0.0450951   -0.3590127 
   0.067966983     0.1300080   -0.3388741     0.8511324   -0.0479809     0.8476681   -0.0407661    -0.0451368   -0.3543029 
   0.068067009     0.1308594   -0.3347984     0.8397271   -0.0432789     0.8480862   -0.0411678    -0.0506683   -0.3586437 
   0.068167034     0.1287122   -0.3341505     0.8441418   -0.0465489     0.8486387   -0.0439883    -0.0495277   -0.3576493 
   0.068267059     0.1272739   -0.3356639     0.8462318   -0.0527937     0.8506579   -0.0426863    -0.0458539   -0.3575394 
   0.068367084     0.1278863   -0.3368238     0.8516954   -0.0474470     0.8526550   -0.0452920    -0.0486211   -0.3538450 
   0.068467109     0.1276685   -0.3334864     0.8439178   -0.0476786     0.8488157   -0.0447590    -0.0499207   -0.3555048 
   0.068567134     0.1279158   -0.3357648     0.8456336   -0.0541007     0.8487005   -0.0456007    -0.0482057   -0.3542123 
   0.068667159     0.1300561   -0.3327631     0.8462555   -0.0502314     0.8491936   -0.0450602    -0.0508733   -0.3528886 
   0.068767184     0.1286194   -0.3354086     0.8480061   -0.0513881     0.8517746   -0.0495238    -0.0518493   -0.3516720 
   0.068867209     0.1299311   -0.3356126     0.8546491   -0.0504943     0.8490708   -0.0512866    -0.0523476   -0.3472028 
   0.068967234     0.1290476   -0.3324797     0.8482949   -0.0493020     0.8492408   -0.0501707    -0.0538156   -0.3486904 
   0.069067259     0.1277965   -0.3335238     0.8532120   -0.0557106     0.8515097   -0.0518696    -0.0509759   -0.3482246 
   0.069167284     0.1265232   -0.3326302     0.8492142   -0.0601034     0.8505021   -0.0536733    -0.0496721   -0.3499605 
   0.069267309     0.1275425   -0.3296848     0.8458090   -0.0524817     0.8498412   -0.0547797    -0.0558267   -0.3496227 
   0.069367334     0.1272781   -0.3313469     0.8490003   -0.0520935     0.8517561   -0.0563471    -0.0555333   -0.3467779 
   0.069467359     0.1222035   -0.3309781     0.8452413   -0.0594713     0.8489672   -0.0550522    -0.0528044   -0.3486089 
   0.069567384     0.1234005   -0.3307151     0.8527700   -0.0627312     0.8488693   -0.0584200    -0.0522667   -0.3442954 
   0.069667409     0.1245507   -0.3280200     0.8421575   -0.0617832     0.8498770   -0.0603188    -0.0557650   -0.3480386 
   0.069767434     0.1243920   -0.3284359     0.8473811   -0.0597360     0.8511707   -0.0551760    -0.0541695   -0.3462808 
   0.069867459     0.1239923   -0.3281727     0.8495873   -0.0668640     0.8482043   -0.0614109    -0.0536706   -0.3450182 
   0.069967484     0.1235012   -0.3303814     0.8496441   -0.0680029     0.8506637   -0.0618135    -0.0534629   -0.3453313 
   0.070067509     0.1215497   -0.3279315     0.8459362   -0.0684458     0.8541887   -0.0631687    -0.0550240   -0.3469906 
   0.070167534     0.1238385   -0.3277471     0.8491597   -0.0681293     0.8485627   -0.0671426    -0.0569013   -0.3421660 
   0.070267559     0.1187367   -0.3264815     0.8474331   -0.0757358     0.8526238   -0.0662288    -0.0529055   -0.3452185 
   0.070367584     0.1241739   -0.3251755     0.8475415   -0.0630446     0.8519544   -0.0635774    -0.0595653   -0.3423403 
   0.070467609     0.1208426   -0.3287923     0.8530959   -0.0727213     0.8510326   -0.0686134    -0.0552557   -0.3413549 
   0.070567634     0.1220428   -0.3270395     0.8554014   -0.0731586     0.8524209   -0.0689096    -0.0554026   -0.3395537 
   0.070667659     0.1167044   -0.3259677     0.8503312   -0.0823506     0.8495878   -0.0717561    -0.0535636   -0.3423366 
   0.070767684     0.1218802   -0.3231213     0.8489827   -0.0729064     0.8525875   -0.0697165    -0.0591542   -0.3401294 
   0.070867709     0.1182162   -0.3268617     0.8514047   -0.0799703     0.8531821   -0.0703579    -0.0540935   -0.3405138 
   0.070967734     0.1212705   -0.3264034     0.8600218   -0.0731722     0.8513062   -0.0732549    -0.0574998   -0.3340484 
   0.071067759     0.1186989   -0.3261912     0.8499861   -0.0788003     0.8534934   -0.0717514    -0.0570632   -0.3394717 
   0.071167784     0.1156506   -0.3248240     0.8515827   -0.0855567     0.8517527   -0.0753792    -0.0548179   -0.3389437 
   0.071267809     0.1156643   -0.3256054     0.8506538   -0.0892746     0.8506272   -0.0783461    -0.0556515   -0.3381880 
   0.071367834     0.1161338   -0.3259226     0.8576567   -0.0826138     0.8527310   -0.0768400    -0.0559216   -0.3349451 
   0.071467859     0.1194627   -0.3208461     0.8508188   -0.0780353     0.8516567   -0.0779637    -0.0606923   -0.3346677 
   0.071567884     0.1169755   -0.3216219     0.8520831   -0.0820734     0.8529292   -0.0796023    -0.0600246   -0.3349688 
   0.071667909     0.1158034   -0.3237356     0.8528671   -0.0889714     0.8556945   -0.0834947    -0.0587418   -0.3362772 
   0.071767934     0.1161968   -0.3221693     0.8557788   -0.0870718     0.8534200   -0.0812855    -0.0586731   -0.3328411 
   0.071867959     0.1167645   -0.3204475     0.8546712   -0.0807983     0.8526680   -0.0802575    -0.0616335   -0.3311963 
   0.071967984     0.1140403   -0.3196267     0.8508672   -0.0930715     0.8516842   -0.0855300    -0.0599829   -0.3334082 
   0.072068009     0.1157488   -0.3212457     0.8508312   -0.0899226     0.8517210   -0.0835312    -0.0601359   -0.3324714 
   0.072168034     0.1147014   -0.3205402     0.8511313   -0.0893436     0.8535202   -0.0841808    -0.0612497   -0.3323492 
   0.072268059     0.1155605   -0.3180166     0.8513401   -0.0919803     0.8517098   -0.0863021    -0.0612260   -0.3308717 
   0.072368084     0.1148451   -0.3197697     0.8514745   -0.0905502     0.8535727   -0.0887663    -0.0634671   -0.3302547 
   0.072468109     0.1147321   -0.3186092     0.8512913   -0.0893277     0.8530235   -0.0871415    -0.0635811   -0.3299818 
   0.072568134     0.1158698   -0.3197977     0.8552191   -0.0877541     0.8542191   -0.0897047    -0.0641236   -0.3273532 
   0.072668159     0.1164412   -0.3155627     0.8509514   -0.0903864     0.8521096   -0.0867796    -0.0642029   -0.3279247 
   0.072768184     0.1152090   -0.3177884     0.8540499   -0.0958467     0.8543890   -0.0891972    -0.0620894   -0.3283543 
   0.072868209     0.1101595   -0.3156897     0.8474941   -0.1015574     0.8519167   -0.0924777    -0.0634735   -0.3309210 
   0.072968234     0.1127253   -0.3192314     0.8554182   -0.1019051     0.8518197   -0.0947747    -0.0605906   -0.3262032 
   0.073068259     0.1107399   -0.3136600     0.8501201   -0.0969324     0.8517128   -0.0924996    -0.0650730   -0.3278094 
   0.073168284     0.1118459   -0.3154334     0.8508266   -0.0983006     0.8530985   -0.0956955    -0.0657162   -0.3255576 
   0.073268309     0.1119366   -0.3164541     0.8547129   -0.1046631     0.8518208   -0.0950568    -0.0624024   -0.3256233 
   0.073368334     0.1111573   -0.3149019     0.8521888   -0.1047010     0.8525961   -0.0960728    -0.0629991   -0.3261771 
   0.073468359     0.1101407   -0.3126197     0.8492137   -0.1049369     0.8551041   -0.0991325    -0.0650247   -0.3267619 
   0.073568384     0.1106342   -0.3140554     0.8522688   -0.1039714     0.8532616   -0.0986677    -0.0651698   -0.3239503 
   0.073668409     0.1136483   -0.3145095     0.8584228   -0.0998812     0.8560246   -0.1005075    -0.0659031   -0.3207402 
   0.073768434     0.1093928   -0.3128524     0.8523396   -0.1034168     0.8558155   -0.1024641    -0.0669088   -0.3230802 
   0.073868459     0.1102363   -0.3129668     0.8554038   -0.1074274     0.8541858   -0.1015011    -0.0651382   -0.3210073 
   0.073968484     0.1104660   -0.3127254     0.8523463   -0.1085208     0.8545812   -0.1050429    -0.0678745   -0.3219411 
   0.074068509     0.1058056   -0.3105958     0.8479951   -0.1151538     0.8514227   -0.1037386    -0.0661003   -0.3249608 
   0.074168534     0.1086380   -0.3114386     0.8543634   -0.1133981     0.8525745   -0.1025731    -0.0646244   -0.3212935 
   0.074268559     0.1079383   -0.3127559     0.8557488   -0.1136521     0.8546220   -0.1084000    -0.0668391   -0.3198673 
   0.074368584     0.1123507   -0.3114655     0.8529769   -0.1083640     0.8579985   -0.1089136    -0.0702488   -0.3193864 
   0.074468609     0.1085172   -0.3072350     0.8514702   -0.1128218     0.8513029   -0.1058086    -0.0677926   -0.3189064 
   0.074568634     0.1082813   -0.3107514     0.8581349   -0.1121184     0.8545274   -0.1106854    -0.0662675   -0.3165646 
   0.074668659     0.1078376   -0.3093251     0.8492889   -0.1153263     0.8530692   -0.1113234    -0.0704704   -0.3187672 
   0.074768684     0.1084547   -0.3079503     0.8524631   -0.1177344     0.8551073   -0.1123555    -0.0689795   -0.3183488 
   0.074868709     0.1058445   -0.3066938     0.8499182   -0.1222582     0.8522457   -0.1139364    -0.0694369   -0.3197376 
   0.074968734     0.1077386   -0.3034060     0.8473451   -0.1185839     0.8533422   -0.1119763    -0.0715229   -0.3191341 
   0.075068759     0.1071749   -0.3084515     0.8557691   -0.1213361     0.8533349   -0.1139520    -0.0683799   -0.3148765 
   0.075168784     0.1068996   -0.3069586     0.8485991   -0.1167367     0.8544354   -0.1148114    -0.0724503   -0.3151230 
   0.075268809     0.1049019   -0.3047296     0.8479636   -0.1214807     0.8526881   -0.1155793    -0.0714553   -0.3160498 
   0.075368834     0.1069618   -0.3066393     0.8530267   -0.1196308     0.8572373   -0.1163207    -0.0707462   -0.3141533 
   0.075468859     0.1057172   -0.3070120     0.8582371   -0.1247427     0.8579047   -0.1156961    -0.0666240   -0.3134551 
   0.075568884     0.1080224   -0.3041967     0.8501737   -0.1177885     0.8567689   -0.1170670    -0.0735689   -0.3123759 
   0.075668909     0.1050620   -0.3071573     0.8569136   -0.1250479     0.8530917   -0.1213866    -0.0702353   -0.3111757 
   0.075768934     0.1056130   -0.3053235     0.8523999   -0.1242820     0.8539779   -0.1215504    -0.0717943   -0.3117465 
   0.075868959     0.1024497   -0.3045687     0.8564632   -0.1350833     0.8550405   -0.1225686    -0.0686004   -0.3137261 
   0.075968984     0.1048539   -0.3072595     0.8563850   -0.1300490     0.8565300   -0.1242443    -0.0704758   -0.3116122 
   0.076069010     0.1059502   -0.3032271     0.8494850   -0.1273270     0.8532020   -0.1229983    -0.0733968   -0.3100275 
   0.076169035     0.1024210   -0.3052359     0.8549161   -0.1340751     0.8535479   -0.1259497    -0.0707478   -0.3104191 
   0.076269060     0.1039517   -0.3035121     0.8530512   -0.1302159     0.8543541   -0.1265361    -0.0734797   -0.3084773 
   0.076369085     0.1052962   -0.3016295     0.8504964   -0.1313921     0.8561255   -0.1280493    -0.0746843   -0.3101300 
   0.076469110     0.1046563   -0.3024682     0.8538490   -0.1294386     0.8544044   -0.1305093    -0.0750791   -0.3059567 
   0.076569135     0.1029066   -0.2988129     0.8491849   -0.1297988     0.8556577   -0.1279643    -0.0761187   -0.3075500 
   0.076669160     0.1055320   -0.2993973     0.8519140   -0.1303681     0.8569537   -0.1296415    -0.0763184   -0.3064340 
   0.076769185     0.1037887   -0.3038037     0.8559088   -0.1316599     0.8559445   -0.1308359    -0.0732322   -0.3046779 
   0.076869210     0.1036471   -0.3011478     0.8518687   -0.1326404     0.8524442   -0.1309917    -0.0750438   -0.3036583 
   0.076969235     0.1001646   -0.2998789     0.8499927   -0.1426392     0.8559552   -0.1346040    -0.0745610   -0.3085138 
   0.077069260     0.1040812   -0.2960703     0.8471984   -0.1308389     0.8546679   -0.1317487    -0.0785781   -0.3035149 
   0.077169285     0.1038681   -0.2960490     0.8463595   -0.1385044     0.8541400   -0.1353662    -0.0795681   -0.3059411 
   0.077269310     0.1029113   -0.2976629     0.8542510   -0.1348211     0.8547375   -0.1348306    -0.0765727   -0.3015600 
   0.077369335     0.1031163   -0.2999825     0.8574356   -0.1432118     0.8577827   -0.1380911    -0.0742481   -0.3043953 
   0.077469360     0.1026214   -0.2966285     0.8520874   -0.1373499     0.8526633   -0.1379076    -0.0779633   -0.3011818 
   0.077569385     0.0995901   -0.2982894     0.8502898   -0.1464797     0.8538385   -0.1400587    -0.0758668   -0.3038217 
   0.077669410     0.1023524   -0.2971295     0.8543960   -0.1440187     0.8581094   -0.1395931    -0.0758625   -0.3039517 
   0.077769435     0.0991107   -0.2968095     0.8509390   -0.1478775     0.8540797   -0.1407954    -0.0761257   -0.3031387 
   0.077869460     0.0990840   -0.2969450     0.8556982   -0.1472940     0.8560520   -0.1416320    -0.0750579   -0.3016965 
   0.077969485     0.0999577   -0.2956909     0.8505969   -0.1472323     0.8556399   -0.1443990    -0.0787908   -0.3013793 
   0.078069510     0.0988282   -0.2941009     0.8454973   -0.1479408     0.8531714   -0.1433685    -0.0806824   -0.3013783 
   0.078169535     0.0997777   -0.2938707     0.8482327   -0.1479385     0.8548472   -0.1441211    -0.0802099   -0.3005097 
   0.078269560     0.0990532   -0.2945426     0.8477625   -0.1459848     0.8543627   -0.1443718    -0.0801329   -0.2976876 
   0.078369585     0.0993128   -0.2951480     0.8543011   -0.1507636     0.8560719   -0.1482140    -0.0784798   -0.2982892 
   0.078469610     0.1033463   -0.2921613     0.8495860   -0.1446854     0.8579427   -0.1487122    -0.0827232   -0.2964946 
   0.078569635     0.0976755   -0.2946797     0.8569258   -0.1496580     0.8536924   -0.1497357    -0.0777575   -0.2948859 
   0.078669660     0.1001580   -0.2914780     0.8481637   -0.1501873     0.8559786   -0.1492495    -0.0808584   -0.2960735 
   0.078769685     0.0975524   -0.2908851     0.8495831   -0.1560966     0.8535640   -0.1482494    -0.0793203   -0.2973797 
   0.078869710     0.0969773   -0.2931195     0.8482260   -0.1573514     0.8532261   -0.1528264    -0.0812552   -0.2969444 
   0.078969735     0.1008382   -0.2936057     0.8563089   -0.1497466     0.8561875   -0.1537874    -0.0796059   -0.2907729 
   0.079069760     0.0959822   -0.2897226     0.8500218   -0.1597704     0.8544638   -0.1532598    -0.0802701   -0.2966955 
   0.079169785     0.0958511   -0.2910767     0.8523697   -0.1604404     0.8537118   -0.1550107    -0.0797319   -0.2951247 
   0.079269810     0.0969673   -0.2886915     0.8500028   -0.1588025     0.8560700   -0.1565789    -0.0818691   -0.2947507 
   0.079369835     0.0952384   -0.2909383     0.8527012   -0.1636272     0.8538652   -0.1604779    -0.0808499   -0.2935164 
   0.079469860     0.0961551   -0.2882210     0.8480833   -0.1586872     0.8574755   -0.1562357    -0.0825288   -0.2935084 
   0.079569885     0.0952785   -0.2852649     0.8399587   -0.1632577     0.8572206   -0.1574282    -0.0863398   -0.2959066 
   0.079669910     0.0968557   -0.2877160     0.8489513   -0.1604071     0.8558661   -0.1595164    -0.0834549   -0.2910194 
   0.079769935     0.0938548   -0.2875584     0.8459730   -0.1670037     0.8523110   -0.1589866    -0.0821103   -0.2935136 
   0.079869960     0.0952620   -0.2896958     0.8531828   -0.1665967     0.8543227   -0.1610506    -0.0803817   -0.2921010 
   0.079969985     0.0952062   -0.2904534     0.8529499   -0.1694660     0.8556514   -0.1649601    -0.0810722   -0.2919253 
   0.080070010     0.0938673   -0.2905782     0.8550110   -0.1687646     0.8506272   -0.1647734    -0.0795026   -0.2887689 
   0.080170035     0.0963776   -0.2888165     0.8578869   -0.1679163     0.8546008   -0.1646381    -0.0800635   -0.2883521 
   0.080270060     0.0967679   -0.2859981     0.8480452   -0.1662346     0.8542394   -0.1663721    -0.0847974   -0.2878333 
   0.080370085     0.0947654   -0.2840976     0.8454329   -0.1678598     0.8534551   -0.1675112    -0.0862317   -0.2880279 
   0.080470110     0.0975985   -0.2879600     0.8552945   -0.1681213     0.8555965   -0.1703412    -0.0822615   -0.2863931 
   0.080570135     0.0964367   -0.2868982     0.8555200   -0.1706145     0.8550765   -0.1684141    -0.0805426   -0.2859578 
   0.080670160     0.0944855   -0.2858999     0.8508071   -0.1680979     0.8535939   -0.1716936    -0.0850196   -0.2852165 
   0.080770185     0.0926029   -0.2857501     0.8526636   -0.1784954     0.8504445   -0.1733383    -0.0828003   -0.2875397 
   0.080870210     0.0944130   -0.2828068     0.8483604   -0.1708455     0.8541049   -0.1703785    -0.0855464   -0.2847005 
   0.080970235     0.0917769   -0.2863500     0.8518757   -0.1807062     0.8547256   -0.1747925    -0.0831180   -0.2877595 
   0.081070260     0.0926111   -0.2832260     0.8508885   -0.1775961     0.8534390   -0.1745412    -0.0841138   -0.2852609 
   0.081170285     0.0935552   -0.2840237     0.8495422   -0.1729930     0.8550802   -0.1753029    -0.0859598   -0.2834852 
   0.081270310     0.0915681   -0.2866405     0.8548332   -0.1846205     0.8534513   -0.1769898    -0.0814353   -0.2864105 
   0.081370335     0.0919367   -0.2826173     0.8472491   -0.1788630     0.8520731   -0.1766007    -0.0868742   -0.2828551 
   0.081470360     0.0933473   -0.2832973     0.8526911   -0.1773994     0.8531510   -0.1761057    -0.0834902   -0.2814463 
   0.081570385     0.0913550   -0.2812032     0.8443457   -0.1791783     0.8516774   -0.1772960    -0.0883405   -0.2815129 
   0.081670410     0.0948568   -0.2826464     0.8538994   -0.1783615     0.8552426   -0.1787200    -0.0841215   -0.2798840 
   0.081770435     0.0896990   -0.2804279     0.8454560   -0.1876590     0.8508321   -0.1795739    -0.0867056   -0.2831077 
   0.081870460     0.0913480   -0.2776008     0.8463083   -0.1815183     0.8531117   -0.1809126    -0.0881966   -0.2799334 
   0.081970485     0.0931913   -0.2793221     0.8505023   -0.1828594     0.8532346   -0.1812288    -0.0856893   -0.2796161 
   0.082070510     0.0906641   -0.2806859     0.8475692   -0.1881109     0.8532470   -0.1836030    -0.0871968   -0.2816618 
   0.082170535     0.0892204   -0.2803707     0.8456928   -0.1908221     0.8541260   -0.1832053    -0.0871417   -0.2823882 
   0.082270560     0.0912766   -0.2814761     0.8542637   -0.1889469     0.8506853   -0.1866303    -0.0846923   -0.2782770 
   0.082370585     0.0895634   -0.2784547     0.8450106   -0.1872291     0.8532058   -0.1857618    -0.0889600   -0.2780314 
   0.082470610     0.0909189   -0.2805468     0.8572302   -0.1871254     0.8540774   -0.1874107    -0.0824804   -0.2761815 
   0.082570635     0.0895746   -0.2780131     0.8464029   -0.1908078     0.8541365   -0.1879281    -0.0879558   -0.2779853 
   0.082670660     0.0869431   -0.2778004     0.8465483   -0.1967454     0.8527552   -0.1899802    -0.0875511   -0.2807504 
   0.082770685     0.0883190   -0.2786471     0.8507112   -0.1946358     0.8528635   -0.1898666    -0.0865249   -0.2770673 
   0.082870710     0.0890882   -0.2785072     0.8517460   -0.1928500     0.8526271   -0.1914012    -0.0861024   -0.2751082 
   0.082970735     0.0875472   -0.2780647     0.8494670   -0.1966648     0.8502077   -0.1918651    -0.0872105   -0.2762271 
   0.083070760     0.0895121   -0.2766250     0.8458704   -0.1936965     0.8522727   -0.1947383    -0.0900813   -0.2737557 
   0.083170785     0.0891117   -0.2773843     0.8510537   -0.1957518     0.8523368   -0.1926551    -0.0864755   -0.2750376 
   0.083270810     0.0858235   -0.2743518     0.8449122   -0.1983691     0.8511475   -0.1931210    -0.0895707   -0.2743774 
   0.083370835     0.0873055   -0.2772713     0.8498869   -0.1969522     0.8498364   -0.1945670    -0.0869190   -0.2731486 
   0.083470860     0.0857197   -0.2757823     0.8471115   -0.2019171     0.8504319   -0.1982770    -0.0901780   -0.2746730 
   0.083570885     0.0903271   -0.2733020     0.8496636   -0.1954812     0.8525530   -0.1964763    -0.0875608   -0.2704154 
   0.083670910     0.0873955   -0.2749627     0.8485800   -0.2048664     0.8540998   -0.1999478    -0.0885292   -0.2749248 
   0.083770935     0.0858432   -0.2755117     0.8486655   -0.2038645     0.8490694   -0.2000321    -0.0887356   -0.2722540 
   0.083870960     0.0850777   -0.2744077     0.8462521   -0.2048893     0.8508395   -0.2005972    -0.0906603   -0.2725307 
   0.083970985     0.0850517   -0.2737496     0.8437868   -0.2078421     0.8531232   -0.2031612    -0.0924400   -0.2742382 
   0.084071011     0.0846485   -0.2724368     0.8423591   -0.2102037     0.8497310   -0.2008664    -0.0922594   -0.2729581 
   0.084171036     0.0879649   -0.2732140     0.8515365   -0.2067019     0.8509200   -0.2046827    -0.0878646   -0.2703039 
   0.084271061     0.0860615   -0.2737291     0.8465576   -0.2079366     0.8529769   -0.2067841    -0.0905950   -0.2704102 
   0.084371086     0.0848401   -0.2740366     0.8444844   -0.2108633     0.8490841   -0.2077773    -0.0918460   -0.2698546 
   0.084471111     0.0839862   -0.2727415     0.8457328   -0.2175707     0.8503094   -0.2057034    -0.0909249   -0.2732268 
   0.084571136     0.0868663   -0.2721649     0.8470322   -0.2109255     0.8513355   -0.2049313    -0.0899216   -0.2684206 
   0.084671161     0.0851140   -0.2729841     0.8491856   -0.2170647     0.8509016   -0.2112315    -0.0895577   -0.2716416 
   0.084771186     0.0852876   -0.2746322     0.8510579   -0.2137790     0.8501774   -0.2109316    -0.0891085   -0.2685790 
   0.084871211     0.0857875   -0.2719413     0.8485324   -0.2110985     0.8528064   -0.2094372    -0.0899006   -0.2664426 
   0.084971236     0.0855048   -0.2698911     0.8491538   -0.2125424     0.8511509   -0.2084432    -0.0888155   -0.2662071 
   0.085071261     0.0851237   -0.2711597     0.8460389   -0.2180552     0.8503962   -0.2150351    -0.0924041   -0.2680777 
   0.085171286     0.0851591   -0.2706210     0.8443453   -0.2128457     0.8492603   -0.2167078    -0.0939879   -0.2638881 
   0.085271311     0.0844630   -0.2683492     0.8442900   -0.2134028     0.8483430   -0.2135583    -0.0928370   -0.2633110 
   0.085371336     0.0845404   -0.2702305     0.8484769   -0.2174216     0.8504879   -0.2155985    -0.0906374   -0.2651986 
   0.085471361     0.0852224   -0.2701573     0.8493299   -0.2192292     0.8509887   -0.2176784    -0.0909691   -0.2653524 
   0.085571386     0.0829330   -0.2682064     0.8486689   -0.2192778     0.8488292   -0.2163099    -0.0907463   -0.2645163 
   0.085671411     0.0827670   -0.2680517     0.8431882   -0.2193998     0.8497770   -0.2168421    -0.0938738   -0.2630438 
   0.085771436     0.0828460   -0.2674434     0.8419471   -0.2225836     0.8514718   -0.2184591    -0.0948723   -0.2638524 
   0.085871461     0.0830201   -0.2703412     0.8482400   -0.2263065     0.8478212   -0.2203252    -0.0917696   -0.2653982 
   0.085971486     0.0816444   -0.2663598     0.8439770   -0.2207799     0.8473253   -0.2170213    -0.0922159   -0.2603493 
   0.086071511     0.0804806   -0.2685573     0.8416286   -0.2285200     0.8453534   -0.2207613    -0.0951349   -0.2629232 
   0.086171536     0.0831530   -0.2658776     0.8404372   -0.2256363     0.8505040   -0.2224897    -0.0954085   -0.2618945 
   0.086271561     0.0828491   -0.2671808     0.8486699   -0.2247466     0.8479908   -0.2249059    -0.0910724   -0.2598139 
   0.086371586     0.0807481   -0.2646478     0.8399100   -0.2288213     0.8516674   -0.2232402    -0.0959124   -0.2627517 
   0.086471611     0.0803656   -0.2671122     0.8455169   -0.2333380     0.8477445   -0.2257622    -0.0932144   -0.2634103 
   0.086571636     0.0828396   -0.2663716     0.8425202   -0.2322223     0.8499570   -0.2272672    -0.0949921   -0.2618531 
   0.086671661     0.0822423   -0.2643814     0.8425109   -0.2275344     0.8488957   -0.2252532    -0.0946458   -0.2577236 
   0.086771686     0.0811222   -0.2661326     0.8463680   -0.2310082     0.8469140   -0.2267456    -0.0928408   -0.2589113 
   0.086871711     0.0826413   -0.2669998     0.8464339   -0.2342739     0.8479838   -0.2307356    -0.0924869   -0.2601754 
   0.086971736     0.0798082   -0.2636430     0.8416727   -0.2327782     0.8467664   -0.2289196    -0.0953453   -0.2572610 
   0.087071761     0.0829998   -0.2630467     0.8432442   -0.2324866     0.8513471   -0.2291636    -0.0939118   -0.2576709 
   0.087171786     0.0823726   -0.2636509     0.8456016   -0.2329770     0.8470420   -0.2323357    -0.0939009   -0.2562771 
   0.087271811     0.0809579   -0.2628836     0.8453470   -0.2423385     0.8488637   -0.2299033    -0.0942184   -0.2605616 
   0.087371836     0.0814834   -0.2639371     0.8448780   -0.2344634     0.8463121   -0.2349177    -0.0941527   -0.2554605 
   0.087471861     0.0809039   -0.2625090     0.8391998   -0.2391980     0.8468558   -0.2332205    -0.0972500   -0.2562417 
   0.087571886     0.0789927   -0.2627223     0.8419358   -0.2411694     0.8441693   -0.2364577    -0.0966505   -0.2565954 
   0.087671911     0.0810258   -0.2626348     0.8427695   -0.2387069     0.8475225   -0.2400609    -0.0962379   -0.2544484 
   0.087771936     0.0806251   -0.2612160     0.8412189   -0.2364794     0.8476613   -0.2388715    -0.0963035   -0.2520117 
   0.087871961     0.0811309   -0.2619222     0.8478820   -0.2376180     0.8479634   -0.2393611    -0.0926118   -0.2534984 
   0.087971986     0.0789044   -0.2600443     0.8367739   -0.2447740     0.8464626   -0.2408489    -0.0997923   -0.2540706 
   0.088072011     0.0794538   -0.2595405     0.8384855   -0.2428561     0.8480939   -0.2379803    -0.0967487   -0.2527426 
   0.088172036     0.0791633   -0.2608151     0.8383695   -0.2433163     0.8476095   -0.2425353    -0.0987254   -0.2522293 
   0.088272061     0.0783486   -0.2599367     0.8395451   -0.2470343     0.8446900   -0.2408112    -0.0971093   -0.2529508 
   0.088372086     0.0795580   -0.2600237     0.8426277   -0.2426449     0.8436577   -0.2428570    -0.0960928   -0.2493104 
   0.088472111     0.0775458   -0.2586912     0.8390930   -0.2454375     0.8430900   -0.2435384    -0.0976428   -0.2504561 
   0.088572136     0.0777924   -0.2606864     0.8404223   -0.2529950     0.8447256   -0.2473039    -0.0990929   -0.2533831 
   0.088672161     0.0799392   -0.2606783     0.8471593   -0.2487158     0.8452218   -0.2459732    -0.0934928   -0.2523941 
   0.088772186     0.0794756   -0.2614716     0.8469093   -0.2497632     0.8481026   -0.2486214    -0.0937478   -0.2526942 
   0.088872211     0.0758669   -0.2581142     0.8383337   -0.2514676     0.8445643   -0.2464874    -0.0983226   -0.2503580 
   0.088972236     0.0764046   -0.2578207     0.8413643   -0.2523904     0.8400728   -0.2471751    -0.0970896   -0.2488570 
   0.089072261     0.0774881   -0.2566552     0.8378067   -0.2490273     0.8420223   -0.2518929    -0.0996200   -0.2460521 
   0.089172286     0.0781450   -0.2588131     0.8391126   -0.2543951     0.8442150   -0.2527576    -0.0993626   -0.2488417 
   0.089272311     0.0761835   -0.2563698     0.8383884   -0.2542375     0.8448413   -0.2513491    -0.0989493   -0.2483476 
   0.089372336     0.0784469   -0.2555681     0.8362883   -0.2531612     0.8470268   -0.2525733    -0.0991314   -0.2466991 
   0.089472361     0.0789974   -0.2552913     0.8382356   -0.2514454     0.8454983   -0.2534032    -0.0978350   -0.2450542 
   0.089572386     0.0788107   -0.2554422     0.8388702   -0.2477713     0.8468457   -0.2535790    -0.0963129   -0.2423766 
   0.089672411     0.0760772   -0.2556848     0.8351924   -0.2544600     0.8433009   -0.2577213    -0.1009820   -0.2441316 
   0.089772436     0.0751586   -0.2572492     0.8387743   -0.2597084     0.8431491   -0.2563133    -0.0994031   -0.2465684 
   0.089872461     0.0758644   -0.2562017     0.8375672   -0.2600666     0.8421743   -0.2554680    -0.0996446   -0.2452672 
   0.089972486     0.0768740   -0.2559263     0.8390962   -0.2599418     0.8416335   -0.2583591    -0.0989935   -0.2443695 
   0.090072511     0.0766049   -0.2557727     0.8367523   -0.2615609     0.8428993   -0.2607237    -0.1001115   -0.2448259 
   0.090172536     0.0756292   -0.2550934     0.8376949   -0.2614402     0.8436265   -0.2585672    -0.0990944   -0.2444457 
   0.090272561     0.0760313   -0.2549941     0.8373673   -0.2630465     0.8391064   -0.2604952    -0.1000192   -0.2436403 
   0.090372586     0.0760270   -0.2549095     0.8364601   -0.2665684     0.8417285   -0.2600288    -0.1005141   -0.2438953 
   0.090472611     0.0754379   -0.2529365     0.8311223   -0.2638108     0.8413793   -0.2640484    -0.1028642   -0.2409386 
   0.090572636     0.0739932   -0.2538757     0.8334537   -0.2685878     0.8380816   -0.2650205    -0.1034093   -0.2420140 
   0.090672661     0.0746693   -0.2525304     0.8343326   -0.2672628     0.8411163   -0.2627764    -0.1014169   -0.2412872 
   0.090772686     0.0751254   -0.2529102     0.8319566   -0.2652362     0.8404428   -0.2672183    -0.1027100   -0.2388802 
   0.090872711     0.0737473   -0.2546085     0.8372071   -0.2730785     0.8391324   -0.2680811    -0.1014713   -0.2436985 
   0.090972736     0.0746995   -0.2528488     0.8368280   -0.2663965     0.8401787   -0.2671735    -0.0996041   -0.2395039 
   0.091072761     0.0738397   -0.2492634     0.8300457   -0.2673144     0.8403728   -0.2658197    -0.1034250   -0.2370564 
   0.091172786     0.0739345   -0.2524403     0.8341625   -0.2736026     0.8381035   -0.2698091    -0.1028868   -0.2404630 
   0.091272811     0.0749411   -0.2525850     0.8375849   -0.2676152     0.8382987   -0.2715752    -0.0986627   -0.2381052 
   0.091372836     0.0748713   -0.2509651     0.8356498   -0.2698925     0.8406730   -0.2727136    -0.1010757   -0.2378009 
   0.091472861     0.0738502   -0.2512553     0.8354848   -0.2711727     0.8389264   -0.2725522    -0.1008409   -0.2379075 
   0.091572886     0.0748970   -0.2512961     0.8340660   -0.2702050     0.8413741   -0.2760353    -0.1008690   -0.2358374 
   0.091672911     0.0717924   -0.2513669     0.8349475   -0.2789857     0.8392040   -0.2734077    -0.1022257   -0.2395094 
   0.091772936     0.0717849   -0.2508984     0.8312172   -0.2764981     0.8391862   -0.2749485    -0.1031975   -0.2369533 
   0.091872961     0.0738577   -0.2521649     0.8363564   -0.2742535     0.8372694   -0.2792346    -0.1007520   -0.2360730 
   0.091972986     0.0739369   -0.2498578     0.8334674   -0.2764263     0.8382649   -0.2806681    -0.1025211   -0.2355246 
   0.092073012     0.0735852   -0.2501266     0.8365294   -0.2796390     0.8390849   -0.2766026    -0.1006267   -0.2371486 
   0.092173037     0.0709352   -0.2479018     0.8284830   -0.2807763     0.8362036   -0.2762301    -0.1048396   -0.2341522 
   0.092273062     0.0730727   -0.2502379     0.8378494   -0.2783707     0.8352452   -0.2816284    -0.1001324   -0.2346798 
   0.092373087     0.0740743   -0.2474537     0.8324869   -0.2764362     0.8357866   -0.2810081    -0.1022487   -0.2312521 
   0.092473112     0.0707364   -0.2475828     0.8321215   -0.2869413     0.8372753   -0.2775639    -0.1043535   -0.2362611 
   0.092573137     0.0722578   -0.2489684     0.8334403   -0.2830231     0.8346201   -0.2836337    -0.1020725   -0.2331775 
   0.092673162     0.0710946   -0.2488974     0.8314989   -0.2832888     0.8357196   -0.2831279    -0.1029172   -0.2322944 
   0.092773187     0.0705901   -0.2469155     0.8300766   -0.2834239     0.8351055   -0.2825413    -0.1032006   -0.2308318 
   0.092873212     0.0714719   -0.2463064     0.8286304   -0.2839209     0.8338719   -0.2872232    -0.1047469   -0.2302376 
   0.092973237     0.0728104   -0.2470456     0.8332890   -0.2827969     0.8349691   -0.2859205    -0.1012935   -0.2300285 
   0.093073262     0.0722029   -0.2464009     0.8326803   -0.2823258     0.8323225   -0.2897105    -0.1017571   -0.2292344 
   0.093173287     0.0687093   -0.2455984     0.8289427   -0.2889660     0.8309292   -0.2882482    -0.1058848   -0.2294623 
   0.093273312     0.0702795   -0.2460980     0.8292565   -0.2938007     0.8324463   -0.2877960    -0.1058330   -0.2308656 
   0.093373337     0.0716373   -0.2453763     0.8296879   -0.2854708     0.8349487   -0.2893392    -0.1026494   -0.2277054 
   0.093473362     0.0710034   -0.2463656     0.8312268   -0.2913310     0.8368573   -0.2913574    -0.1038634   -0.2313544 
   0.093573387     0.0692065   -0.2457667     0.8292609   -0.2945609     0.8347856   -0.2889408    -0.1054916   -0.2302383 
   0.093673412     0.0682627   -0.2448688     0.8265840   -0.2934803     0.8344651   -0.2902676    -0.1063700   -0.2277598 
   0.093773437     0.0708663   -0.2433359     0.8260748   -0.2898871     0.8322234   -0.2941008    -0.1050792   -0.2254413 
   0.093873462     0.0717101   -0.2439580     0.8280371   -0.2921422     0.8362268   -0.2945865    -0.1042675   -0.2268814 
   0.093973487     0.0709350   -0.2446783     0.8314799   -0.2913028     0.8337008   -0.2953375    -0.1016949   -0.2267128 
   0.094073512     0.0690913   -0.2449551     0.8305054   -0.2997785     0.8296000   -0.2942090    -0.1060608   -0.2290659 
   0.094173537     0.0681703   -0.2435145     0.8260213   -0.2992303     0.8324412   -0.2956353    -0.1077464   -0.2270005 
   0.094273562     0.0694272   -0.2410105     0.8261228   -0.2949170     0.8331870   -0.2953881    -0.1044428   -0.2240088 
   0.094373587     0.0708452   -0.2420716     0.8313134   -0.2949360     0.8304471   -0.2972800    -0.1024464   -0.2252561 
   0.094473612     0.0699103   -0.2417487     0.8262509   -0.2951385     0.8315800   -0.3012856    -0.1048453   -0.2228549 
   0.094573637     0.0683579   -0.2419356     0.8249429   -0.2995828     0.8325981   -0.3015781    -0.1065696   -0.2239216 
   0.094673662     0.0683763   -0.2418818     0.8275633   -0.2995628     0.8277293   -0.3000313    -0.1045161   -0.2236137 
   0.094773687     0.0685048   -0.2427535     0.8265522   -0.3037027     0.8314654   -0.3037700    -0.1059685   -0.2249611 
   0.094873712     0.0678227   -0.2405889     0.8263056   -0.3022578     0.8275632   -0.3005708    -0.1059213   -0.2220325 
   0.094973737     0.0691235   -0.2412443     0.8256991   -0.3021448     0.8306994   -0.2993535    -0.1040101   -0.2226809 
   0.095073762     0.0688548   -0.2408320     0.8275912   -0.3007202     0.8292584   -0.3047818    -0.1037280   -0.2220760 
   0.095173787     0.0680300   -0.2408524     0.8300834   -0.3015408     0.8270364   -0.3045295    -0.1032035   -0.2223271 
   0.095273812     0.0677995   -0.2398607     0.8237980   -0.3030616     0.8308851   -0.3054894    -0.1051429   -0.2200191 
   0.095373837     0.0674573   -0.2413015     0.8283694   -0.3068976     0.8283921   -0.3084404    -0.1056956   -0.2228982 
   0.095473862     0.0678415   -0.2415612     0.8243386   -0.3062569     0.8291391   -0.3084380    -0.1053484   -0.2198105 
   0.095573887     0.0671231   -0.2409963     0.8253707   -0.3090212     0.8278415   -0.3092581    -0.1066599   -0.2209691 
   0.095673912     0.0681963   -0.2386521     0.8273233   -0.3039508     0.8259689   -0.3092429    -0.1031808   -0.2191627 
   0.095773937     0.0663463   -0.2380601     0.8225750   -0.3092611     0.8270719   -0.3110374    -0.1077290   -0.2185079 
   0.095873962     0.0650240   -0.2379963     0.8208921   -0.3121367     0.8273609   -0.3120281    -0.1085968   -0.2186743 
   0.095973987     0.0661012   -0.2377041     0.8238694   -0.3152153     0.8232028   -0.3094959    -0.1084291   -0.2194290 
   0.096074012     0.0677810   -0.2382374     0.8254281   -0.3103513     0.8260275   -0.3131334    -0.1051882   -0.2180000 
   0.096174037     0.0677808   -0.2369100     0.8259395   -0.3128386     0.8276688   -0.3118151    -0.1059481   -0.2187792 
   0.096274062     0.0661823   -0.2353951     0.8196458   -0.3136545     0.8245580   -0.3123458    -0.1077177   -0.2142465 
   0.096374087     0.0664948   -0.2375051     0.8261634   -0.3173629     0.8249362   -0.3142881    -0.1069046   -0.2191917 
   0.096474112     0.0650892   -0.2367803     0.8218023   -0.3184818     0.8241228   -0.3134289    -0.1085815   -0.2170170 
   0.096574137     0.0662938   -0.2377362     0.8230006   -0.3198580     0.8220019   -0.3160712    -0.1085206   -0.2167540 
   0.096674162     0.0661480   -0.2352055     0.8186770   -0.3141384     0.8259441   -0.3186863    -0.1064350   -0.2127636 
   0.096774187     0.0647405   -0.2361548     0.8207963   -0.3208100     0.8277079   -0.3182298    -0.1082392   -0.2170099 
   0.096874212     0.0655854   -0.2350826     0.8214449   -0.3191302     0.8227125   -0.3186926    -0.1079797   -0.2144622 
   0.096974237     0.0656107   -0.2353584     0.8229791   -0.3211651     0.8240216   -0.3162746    -0.1071027   -0.2148954 
   0.097074262     0.0650543   -0.2343955     0.8208072   -0.3176361     0.8232001   -0.3187503    -0.1051799   -0.2119867 
   0.097174287     0.0662666   -0.2351267     0.8247672   -0.3218225     0.8225694   -0.3217444    -0.1064165   -0.2153717 
   0.097274312     0.0642884   -0.2346927     0.8200638   -0.3223736     0.8215314   -0.3225996    -0.1078515   -0.2123835 
   0.097374337     0.0652658   -0.2341502     0.8225356   -0.3216970     0.8238721   -0.3228858    -0.1062379   -0.2137785 
   0.097474362     0.0653010   -0.2328605     0.8199542   -0.3209113     0.8229505   -0.3248261    -0.1061513   -0.2116281 
   0.097574387     0.0648406   -0.2339185     0.8210683   -0.3247167     0.8244407   -0.3260189    -0.1072102   -0.2135083 
   0.097674412     0.0658950   -0.2331603     0.8224267   -0.3249560     0.8235648   -0.3245173    -0.1059715   -0.2132825 
   0.097774437     0.0650535   -0.2330713     0.8163270   -0.3248530     0.8230194   -0.3273231    -0.1080190   -0.2094510 
   0.097874462     0.0648790   -0.2311540     0.8188623   -0.3229388     0.8241809   -0.3283867    -0.1052039   -0.2098527 
   0.097974487     0.0640998   -0.2321618     0.8181546   -0.3284853     0.8208012   -0.3267331    -0.1083811   -0.2097226 
   0.098074512     0.0654242   -0.2314529     0.8232826   -0.3252299     0.8246017   -0.3275236    -0.1046962   -0.2115562 
   0.098174537     0.0631559   -0.2317296     0.8153592   -0.3300374     0.8177040   -0.3270544    -0.1089497   -0.2075061 
   0.098274562     0.0631227   -0.2315495     0.8160372   -0.3298962     0.8200691   -0.3283735    -0.1071460   -0.2072805 
   0.098374587     0.0638406   -0.2314674     0.8228223   -0.3318979     0.8209917   -0.3305240    -0.1071644   -0.2117317 
   0.098474612     0.0626649   -0.2303652     0.8132378   -0.3325257     0.8194244   -0.3323379    -0.1093960   -0.2060748 
   0.098574637     0.0634081   -0.2311483     0.8192255   -0.3331295     0.8207309   -0.3319557    -0.1077250   -0.2095167 
   0.098674662     0.0636017   -0.2297977     0.8134781   -0.3310074     0.8199054   -0.3338027    -0.1071789   -0.2046026 
   0.098774687     0.0631141   -0.2285362     0.8148862   -0.3302138     0.8196801   -0.3348505    -0.1066793   -0.2052712 
   0.098874712     0.0629911   -0.2313339     0.8178128   -0.3376789     0.8213739   -0.3367457    -0.1086372   -0.2086243 
   0.098974737     0.0629142   -0.2291052     0.8156088   -0.3329459     0.8186552   -0.3373693    -0.1070039   -0.2058450 
   0.099074762     0.0638082   -0.2263872     0.8154072   -0.3316205     0.8183200   -0.3360711    -0.1054398   -0.2036665 
   0.099174787     0.0621077   -0.2284614     0.8141798   -0.3379491     0.8138991   -0.3370131    -0.1086135   -0.2036316 
   0.099274812     0.0622047   -0.2276832     0.8150257   -0.3402514     0.8172823   -0.3378705    -0.1099376   -0.2051092 
   0.099374837     0.0621166   -0.2279351     0.8141360   -0.3378983     0.8180524   -0.3386317    -0.1079931   -0.2039855 
   0.099474862     0.0637071   -0.2279053     0.8190449   -0.3373599     0.8200808   -0.3409225    -0.1060617   -0.2065456 
   0.099574887     0.0627289   -0.2288495     0.8159975   -0.3427036     0.8153232   -0.3413624    -0.1100970   -0.2045868 
   0.099674912     0.0633237   -0.2272603     0.8178119   -0.3401021     0.8153673   -0.3423361    -0.1079311   -0.2057538 
   0.099774937     0.0624172   -0.2270465     0.8135666   -0.3406113     0.8164992   -0.3423869    -0.1076149   -0.2029307 
   0.099874962     0.0609307   -0.2278986     0.8112707   -0.3460410     0.8174082   -0.3423606    -0.1107232   -0.2017335 
   0.099974987     0.0619295   -0.2261895     0.8143952   -0.3426744     0.8151636   -0.3437246    -0.1074718   -0.2028508 
   0.100075013     0.0608650   -0.2283004     0.8151157   -0.3505371     0.8140335   -0.3452721    -0.1119936   -0.2042973 
   0.100175038     0.0616023   -0.2254499     0.8139029   -0.3459407     0.8128832   -0.3445807    -0.1088805   -0.2020703 
   0.100275063     0.0610197   -0.2251606     0.8114867   -0.3418796     0.8129338   -0.3461148    -0.1063954   -0.1999769 
   0.100375088     0.0609348   -0.2261111     0.8151973   -0.3460328     0.8133076   -0.3481101    -0.1083204   -0.2025712 
   0.100475113     0.0604567   -0.2255268     0.8108161   -0.3434212     0.8148383   -0.3489261    -0.1068351   -0.1994392 
   0.100575138     0.0607498   -0.2260747     0.8112971   -0.3505992     0.8137530   -0.3481939    -0.1102710   -0.1996531 
   0.100675163     0.0608678   -0.2239309     0.8102614   -0.3492925     0.8148135   -0.3459177    -0.1081564   -0.1989034 
   0.100775188     0.0600978   -0.2227168     0.8065050   -0.3474599     0.8129662   -0.3525025    -0.1084990   -0.1962708 
   0.100875213     0.0621392   -0.2234896     0.8149258   -0.3495547     0.8084357   -0.3488933    -0.1078633   -0.2002419 
   0.100975238     0.0595518   -0.2244572     0.8109061   -0.3553347     0.8118140   -0.3510553    -0.1112412   -0.1986898 
   0.101075263     0.0598613   -0.2228675     0.8113381   -0.3502235     0.8112737   -0.3508015    -0.1068763   -0.1978489 
   0.101175288     0.0593234   -0.2235196     0.8102132   -0.3572721     0.8110029   -0.3527580    -0.1115666   -0.1970514 
   0.101275313     0.0596503   -0.2236080     0.8124055   -0.3542936     0.8080815   -0.3567042    -0.1099656   -0.1991872 
   0.101375338     0.0613521   -0.2212554     0.8102607   -0.3501025     0.8084125   -0.3542999    -0.1062094   -0.1966925 
   0.101475363     0.0582103   -0.2224550     0.8040648   -0.3590093     0.8069943   -0.3581752    -0.1123496   -0.1939820 
   0.101575388     0.0591574   -0.2217627     0.8111945   -0.3548974     0.8102019   -0.3556584    -0.1081532   -0.1978029 
   0.101675413     0.0599609   -0.2237295     0.8116188   -0.3588741     0.8089676   -0.3594006    -0.1102813   -0.1975062 
   0.101775438     0.0593366   -0.2227674     0.8116736   -0.3584038     0.8105178   -0.3599520    -0.1091926   -0.1980653 
   0.101875463     0.0588118   -0.2216680     0.8048990   -0.3608243     0.8111634   -0.3583757    -0.1106248   -0.1936142 
   0.101975488     0.0592051   -0.2212342     0.8063615   -0.3599029     0.8105989   -0.3597731    -0.1096601   -0.1940468 
   0.102075513     0.0590537   -0.2217879     0.8106719   -0.3604209     0.8109412   -0.3649806    -0.1102009   -0.1973544 
   0.102175538     0.0591497   -0.2192801     0.8067839   -0.3605340     0.8072540   -0.3598257    -0.1093493   -0.1935393 
   0.102275563     0.0577999   -0.2191963     0.8072676   -0.3590806     0.8050754   -0.3604815    -0.1087475   -0.1926260 
   0.102375588     0.0589248   -0.2203779     0.8115276   -0.3615980     0.8064463   -0.3638411    -0.1094199   -0.1963964 
   0.102475613     0.0593524   -0.2188713     0.8077419   -0.3615219     0.8068680   -0.3633777    -0.1088321   -0.1937459 
   0.102575638     0.0575476   -0.2180820     0.8023219   -0.3645917     0.8034052   -0.3628995    -0.1104997   -0.1894539 
   0.102675663     0.0597140   -0.2190345     0.8093339   -0.3660425     0.8026886   -0.3675119    -0.1114059   -0.1939890 
   0.102775688     0.0590054   -0.2184072     0.8065755   -0.3650646     0.8043363   -0.3668638    -0.1093109   -0.1923175 
   0.102875713     0.0595542   -0.2174490     0.8077821   -0.3614759     0.8064129   -0.3706403    -0.1074567   -0.1934460 
   0.102975738     0.0589339   -0.2192791     0.8029473   -0.3705165     0.8069105   -0.3656784    -0.1111398   -0.1894128 
   0.103075763     0.0586793   -0.2177549     0.8079416   -0.3644567     0.8027759   -0.3681943    -0.1078498   -0.1924624 
   0.103175788     0.0572725   -0.2175494     0.8045287   -0.3689583     0.8029073   -0.3682383    -0.1100341   -0.1901411 
   0.103275813     0.0582938   -0.2170156     0.8052726   -0.3668455     0.8056754   -0.3709794    -0.1080839   -0.1911744 
   0.103375838     0.0593386   -0.2191551     0.8087757   -0.3729179     0.8039424   -0.3710341    -0.1116675   -0.1924715 
   0.103475863     0.0567129   -0.2167601     0.8027379   -0.3725511     0.8054545   -0.3699405    -0.1104417   -0.1890642 
   0.103575888     0.0588303   -0.2165307     0.8059032   -0.3719837     0.8026056   -0.3707504    -0.1106825   -0.1902373 
   0.103675913     0.0568218   -0.2147723     0.7998943   -0.3704380     0.8039368   -0.3725576    -0.1083954   -0.1867485 
   0.103775938     0.0591956   -0.2166434     0.8088382   -0.3742588     0.8010857   -0.3762467    -0.1113534   -0.1920759 
   0.103875963     0.0574091   -0.2141354     0.8006938   -0.3726528     0.8022300   -0.3743617    -0.1087128   -0.1872998 
   0.103975988     0.0578882   -0.2155504     0.8031211   -0.3739419     0.8029277   -0.3758407    -0.1092194   -0.1881821 
   0.104076013     0.0581126   -0.2145930     0.8017270   -0.3727029     0.8021236   -0.3763815    -0.1077560   -0.1871189 
   0.104176038     0.0587990   -0.2145441     0.8075058   -0.3742475     0.8023115   -0.3757599    -0.1087981   -0.1905025 
   0.104276063     0.0569053   -0.2151398     0.7998430   -0.3769780     0.8037038   -0.3767403    -0.1097153   -0.1859395 
   0.104376088     0.0564430   -0.2129515     0.7984279   -0.3768468     0.8006881   -0.3739113    -0.1087299   -0.1839997 
   0.104476113     0.0574383   -0.2140189     0.8023710   -0.3771779     0.8004466   -0.3778959    -0.1092262   -0.1871515 
   0.104576138     0.0565300   -0.2130282     0.7981377   -0.3795871     0.8011808   -0.3785607    -0.1101705   -0.1844108 
   0.104676163     0.0566239   -0.2119866     0.7972248   -0.3766825     0.7988306   -0.3792896    -0.1074182   -0.1829482 
   0.104776188     0.0576236   -0.2149701     0.8039708   -0.3820411     0.8012297   -0.3800033    -0.1110409   -0.1877699 
   0.104876213     0.0556438   -0.2134380     0.7972047   -0.3831488     0.7965091   -0.3799768    -0.1106150   -0.1818131 
   0.104976238     0.0564288   -0.2124661     0.7960597   -0.3828434     0.8013400   -0.3787812    -0.1088444   -0.1818525 
   0.105076263     0.0568690   -0.2124435     0.7994229   -0.3832918     0.7976618   -0.3823179    -0.1103330   -0.1835762 
   0.105176288     0.0566361   -0.2128029     0.7993939   -0.3851399     0.7997992   -0.3862969    -0.1107289   -0.1841750 
   0.105276313     0.0557907   -0.2111660     0.7971958   -0.3840859     0.7955788   -0.3856152    -0.1098568   -0.1822968 
   0.105376338     0.0556881   -0.2113349     0.7973065   -0.3878816     0.7972538   -0.3873877    -0.1121561   -0.1812263 
   0.105476363     0.0562300   -0.2112723     0.7968770   -0.3801075     0.7981896   -0.3847288    -0.1060529   -0.1829792 
   0.105576388     0.0558118   -0.2099627     0.7915230   -0.3848188     0.8008576   -0.3851430    -0.1067610   -0.1788738 
   0.105676413     0.0567120   -0.2129354     0.7983883   -0.3917139     0.7990212   -0.3866327    -0.1123904   -0.1819196 
   0.105776438     0.0558008   -0.2092374     0.7988930   -0.3866432     0.7937670   -0.3901993    -0.1101160   -0.1834131 
   0.105876463     0.0548419   -0.2096600     0.7945184   -0.3867505     0.7948866   -0.3884655    -0.1083633   -0.1795056 
   0.105976488     0.0553088   -0.2106092     0.7995551   -0.3916273     0.7945717   -0.3877064    -0.1115263   -0.1824464 
   0.106076513     0.0550119   -0.2100792     0.7935036   -0.3935082     0.7956799   -0.3876585    -0.1106120   -0.1779217 
   0.106176538     0.0553613   -0.2093512     0.7943934   -0.3938846     0.7928934   -0.3922067    -0.1119319   -0.1786961 
   0.106276563     0.0553435   -0.2092139     0.7945286   -0.3907462     0.7944188   -0.3919651    -0.1090288   -0.1798269 
   0.106376588     0.0545047   -0.2083334     0.7925824   -0.3938992     0.7925864   -0.3945380    -0.1106307   -0.1778541 
   0.106476613     0.0548340   -0.2088152     0.7936332   -0.3924643     0.7958380   -0.3921652    -0.1082289   -0.1784427 
   0.106576638     0.0552306   -0.2086528     0.7953410   -0.3971936     0.7934638   -0.3936267    -0.1120574   -0.1788552 
   0.106676663     0.0559440   -0.2079690     0.7935824   -0.3932678     0.7922829   -0.3960311    -0.1088349   -0.1782016 
   0.106776688     0.0550332   -0.2072127     0.7931182   -0.3930098     0.7910341   -0.3939810    -0.1082866   -0.1779322 
   0.106876713     0.0553930   -0.2090807     0.7982516   -0.3983726     0.7916290   -0.3969019    -0.1120134   -0.1805899 
   0.106976738     0.0558388   -0.2073229     0.7963118   -0.3946472     0.7925367   -0.3960397    -0.1088026   -0.1800780 
   0.107076763     0.0545032   -0.2086216     0.7919044   -0.4021525     0.7901663   -0.3965991    -0.1123773   -0.1753125 
   0.107176788     0.0541622   -0.2068271     0.7865506   -0.4001130     0.7917915   -0.3956191    -0.1085211   -0.1719947 
   0.107276813     0.0547392   -0.2062548     0.7912375   -0.3965629     0.7918606   -0.4000796    -0.1084982   -0.1763318 
   0.107376838     0.0541979   -0.2067406     0.7911544   -0.3976997     0.7888970   -0.4007311    -0.1080566   -0.1766806 
   0.107476863     0.0543237   -0.2067851     0.7893240   -0.4014192     0.7896152   -0.3990896    -0.1090743   -0.1747811 
   0.107576888     0.0557247   -0.2070006     0.7904778   -0.4013430     0.7933378   -0.4012012    -0.1086725   -0.1752640 
   0.107676913     0.0544378   -0.2061369     0.7894254   -0.4025694     0.7897456   -0.4015226    -0.1093899   -0.1738702 
   0.107776938     0.0531438   -0.2067139     0.7894754   -0.4045261     0.7915581   -0.4010888    -0.1101136   -0.1737572 
   0.107876963     0.0535006   -0.2055628     0.7874361   -0.4063515     0.7898468   -0.4037350    -0.1102688   -0.1722110 
   0.107976988     0.0549047   -0.2046200     0.7909957   -0.4048255     0.7875775   -0.4014551    -0.1099597   -0.1745270 
   0.108077014     0.0542299   -0.2051547     0.7904170   -0.4057842     0.7873672   -0.4044544    -0.1103115   -0.1738949 
   0.108177039     0.0520682   -0.2039160     0.7841038   -0.4068712     0.7862396   -0.4051210    -0.1093471   -0.1703948 
   0.108277064     0.0528405   -0.2040455     0.7885857   -0.4066457     0.7885883   -0.4073424    -0.1096544   -0.1732471 
   0.108377089     0.0532395   -0.2022984     0.7843157   -0.4063246     0.7885697   -0.4068880    -0.1080281   -0.1708141 
   0.108477114     0.0533686   -0.2045566     0.7878456   -0.4106455     0.7876272   -0.4052106    -0.1111188   -0.1714419 
   0.108577139     0.0519516   -0.2046337     0.7858692   -0.4106519     0.7903427   -0.4074795    -0.1099149   -0.1708473 
   0.108677164     0.0527039   -0.2021932     0.7841544   -0.4056592     0.7892241   -0.4094705    -0.1059233   -0.1720938 
   0.108777189     0.0528692   -0.2010601     0.7838171   -0.4069378     0.7853360   -0.4082842    -0.1065471   -0.1708869 
   0.108877214     0.0538426   -0.2031430     0.7850731   -0.4138288     0.7844841   -0.4082691    -0.1103897   -0.1689217 
   0.108977239     0.0538579   -0.2018899     0.7885517   -0.4104167     0.7865282   -0.4131758    -0.1095942   -0.1725409 
   0.109077264     0.0537711   -0.2017369     0.7853552   -0.4086673     0.7886865   -0.4078775    -0.1065717   -0.1716736 
   0.109177289     0.0520245   -0.2018774     0.7833440   -0.4134450     0.7856162   -0.4123051    -0.1085217   -0.1692107 
   0.109277314     0.0537359   -0.2021603     0.7873454   -0.4176810     0.7821199   -0.4112394    -0.1120275   -0.1684390 
   0.109377339     0.0525073   -0.2012635     0.7846565   -0.4133125     0.7866930   -0.4151483    -0.1086286   -0.1701963 
   0.109477364     0.0526493   -0.2003888     0.7851844   -0.4125006     0.7841914   -0.4152490    -0.1082067   -0.1706976 
   0.109577389     0.0519126   -0.2015925     0.7820676   -0.4180848     0.7843331   -0.4147087    -0.1094583   -0.1676312 
   0.109677414     0.0517886   -0.2010889     0.7803286   -0.4159775     0.7830693   -0.4164452    -0.1074574   -0.1671034 
   0.109777439     0.0526356   -0.2004808     0.7827609   -0.4179128     0.7812116   -0.4171372    -0.1097775   -0.1676623 
   0.109877464     0.0527272   -0.2003155     0.7855250   -0.4173286     0.7807860   -0.4191298    -0.1102248   -0.1698364 
   0.109977489     0.0522391   -0.1999813     0.7826369   -0.4138883     0.7818708   -0.4181015    -0.1069004   -0.1695128 
   0.110077514     0.0518299   -0.1994015     0.7822754   -0.4196318     0.7828090   -0.4188667    -0.1091448   -0.1672129 
   0.110177539     0.0511950   -0.1993620     0.7816129   -0.4189000     0.7832990   -0.4207809    -0.1089960   -0.1670902 
   0.110277564     0.0517350   -0.1987562     0.7795791   -0.4180447     0.7817625   -0.4199755    -0.1066944   -0.1672566 
   0.110377589     0.0519368   -0.1987123     0.7808236   -0.4217528     0.7784901   -0.4210140    -0.1094469   -0.1658017 
   0.110477614     0.0517680   -0.1989674     0.7829787   -0.4219085     0.7815694   -0.4215380    -0.1101836   -0.1671578 
   0.110577639     0.0521970   -0.1987002     0.7792282   -0.4247296     0.7821612   -0.4207373    -0.1090280   -0.1641851 
   0.110677664     0.0527071   -0.1992718     0.7824304   -0.4199274     0.7806619   -0.4220886    -0.1084205   -0.1686050 
   0.110777689     0.0523789   -0.1992902     0.7837336   -0.4267280     0.7805691   -0.4221838    -0.1117478   -0.1656760 
   0.110877714     0.0503986   -0.1963444     0.7778208   -0.4245855     0.7828168   -0.4273654    -0.1091945   -0.1648490 
   0.110977739     0.0518472   -0.1990018     0.7845841   -0.4285436     0.7773179   -0.4225866    -0.1129067   -0.1654330 
   0.111077764     0.0502384   -0.1979264     0.7747658   -0.4251744     0.7808819   -0.4278626    -0.1068854   -0.1643926 
   0.111177789     0.0515034   -0.1960272     0.7796521   -0.4273429     0.7751992   -0.4295965    -0.1108946   -0.1647973 
   0.111277814     0.0513830   -0.1968173     0.7795722   -0.4303211     0.7760289   -0.4286351    -0.1111353   -0.1636333 
   0.111377839     0.0521100   -0.1968260     0.7795742   -0.4300251     0.7754486   -0.4275263    -0.1108366   -0.1642544 
   0.111477864     0.0521441   -0.1965914     0.7796054   -0.4300798     0.7763758   -0.4241491    -0.1103615   -0.1630243 
   0.111577889     0.0509073   -0.1973606     0.7790266   -0.4315464     0.7794931   -0.4276277    -0.1104766   -0.1625627 
   0.111677914     0.0519531   -0.1949671     0.7752680   -0.4278333     0.7769788   -0.4311226    -0.1069706   -0.1635806 
   0.111777939     0.0511007   -0.1962664     0.7781852   -0.4324503     0.7777917   -0.4298651    -0.1106682   -0.1627431 
   0.111877964     0.0524430   -0.1955287     0.7792364   -0.4297129     0.7717187   -0.4315208    -0.1102583   -0.1647029 
   0.111977989     0.0514563   -0.1943195     0.7777747   -0.4308496     0.7738814   -0.4339616    -0.1101810   -0.1635739 
   0.112078014     0.0512924   -0.1948918     0.7754226   -0.4322267     0.7756296   -0.4322986    -0.1088884   -0.1624571 
   0.112178039     0.0503672   -0.1946892     0.7705218   -0.4341679     0.7762434   -0.4311650    -0.1066102   -0.1601642 
   0.112278064     0.0508083   -0.1940582     0.7727500   -0.4343402     0.7722740   -0.4333024    -0.1076464   -0.1598424 
   0.112378089     0.0503436   -0.1941202     0.7718830   -0.4361409     0.7739962   -0.4344384    -0.1082219   -0.1596643 
   0.112478114     0.0512875   -0.1949971     0.7741298   -0.4396563     0.7720135   -0.4321810    -0.1097749   -0.1590791 
   0.112578139     0.0494839   -0.1934930     0.7680926   -0.4407382     0.7708297   -0.4341542    -0.1077019   -0.1559850 
   0.112678164     0.0515712   -0.1945956     0.7723253   -0.4398898     0.7731178   -0.4361999    -0.1088233   -0.1588077 
   0.112778189     0.0519450   -0.1949402     0.7762465   -0.4454387     0.7696547   -0.4339293    -0.1133847   -0.1570005 
   0.112878214     0.0498498   -0.1930890     0.7738388   -0.4404047     0.7737960   -0.4402151    -0.1104158   -0.1594879 
   0.112978239     0.0498621   -0.1930107     0.7695225   -0.4408770     0.7711456   -0.4347118    -0.1079023   -0.1570343 
   0.113078264     0.0500327   -0.1930521     0.7736792   -0.4403940     0.7717444   -0.4373591    -0.1104647   -0.1587803 
   0.113178289     0.0504187   -0.1927707     0.7735507   -0.4421536     0.7715038   -0.4406396    -0.1105414   -0.1585932 
   0.113278314     0.0500337   -0.1917434     0.7687249   -0.4444706     0.7708695   -0.4399146    -0.1086752   -0.1561689 
   0.113378339     0.0505455   -0.1928285     0.7708415   -0.4447027     0.7711067   -0.4399239    -0.1095701   -0.1564587 
   0.113478364     0.0500862   -0.1913191     0.7726005   -0.4426998     0.7695227   -0.4441882    -0.1103479   -0.1588648 
   0.113578389     0.0488391   -0.1903739     0.7688651   -0.4406199     0.7719334   -0.4433751    -0.1073978   -0.1591024 
   0.113678414     0.0506035   -0.1907243     0.7702940   -0.4452856     0.7698063   -0.4425364    -0.1088834   -0.1570836 
   0.113778439     0.0500771   -0.1923580     0.7737721   -0.4477705     0.7707596   -0.4437005    -0.1125631   -0.1568178 
   0.113878464     0.0487867   -0.1893929     0.7694916   -0.4376157     0.7706760   -0.4469174    -0.1070071   -0.1612444 
   0.113978489     0.0497107   -0.1912757     0.7663077   -0.4473254     0.7680268   -0.4446751    -0.1074447   -0.1550399 
   0.114078514     0.0491254   -0.1902295     0.7716601   -0.4480344     0.7691156   -0.4447693    -0.1107586   -0.1564016 
   0.114178539     0.0491708   -0.1905991     0.7649640   -0.4497535     0.7658831   -0.4436415    -0.1080853   -0.1538815 
   0.114278564     0.0497535   -0.1903233     0.7702389   -0.4488766     0.7711152   -0.4459310    -0.1104253   -0.1561085 
   0.114378589     0.0495410   -0.1909234     0.7657757   -0.4551961     0.7659166   -0.4464016    -0.1095826   -0.1514622 
   0.114478614     0.0492750   -0.1900747     0.7688472   -0.4527516     0.7653137   -0.4488876    -0.1107610   -0.1541404 
   0.114578639     0.0503858   -0.1897898     0.7645790   -0.4505171     0.7680009   -0.4463484    -0.1077775   -0.1543643 
   0.114678664     0.0486057   -0.1896595     0.7662941   -0.4547745     0.7655686   -0.4516650    -0.1099969   -0.1528129 
   0.114778689     0.0489805   -0.1899486     0.7665550   -0.4570915     0.7665951   -0.4532469    -0.1107360   -0.1515447 
   0.114878714     0.0503538   -0.1899514     0.7665704   -0.4556986     0.7625554   -0.4493807    -0.1103975   -0.1521656 
   0.114978739     0.0488175   -0.1891668     0.7632994   -0.4556744     0.7670700   -0.4504058    -0.1080562   -0.1513275 
   0.115078764     0.0492782   -0.1887737     0.7617073   -0.4569931     0.7636303   -0.4499506    -0.1076288   -0.1508344 
   0.115178789     0.0487844   -0.1894755     0.7682615   -0.4632544     0.7640787   -0.4548124    -0.1130106   -0.1489758 
   0.115278814     0.0476592   -0.1876585     0.7578205   -0.4601068     0.7637854   -0.4548221    -0.1064760   -0.1488977 
   0.115378839     0.0478221   -0.1867497     0.7628137   -0.4557194     0.7644607   -0.4555086    -0.1084147   -0.1521357 
   0.115478864     0.0494560   -0.1873349     0.7643563   -0.4579508     0.7651843   -0.4542307    -0.1092271   -0.1518594 
   0.115578889     0.0474256   -0.1872050     0.7573872   -0.4612666     0.7615032   -0.4545494    -0.1068614   -0.1485583 
   0.115678914     0.0487572   -0.1857403     0.7612688   -0.4545386     0.7620945   -0.4545255    -0.1068565   -0.1532352 
   0.115778939     0.0484244   -0.1861630     0.7618508   -0.4607534     0.7605510   -0.4578393    -0.1094032   -0.1504037 
   0.115878964     0.0484669   -0.1856570     0.7595320   -0.4597781     0.7615647   -0.4588233    -0.1072567   -0.1507361 
   0.115978989     0.0487251   -0.1867444     0.7606028   -0.4620411     0.7586974   -0.4559299    -0.1087074   -0.1494110 
   0.116079015     0.0480051   -0.1858776     0.7574738   -0.4659030     0.7619336   -0.4591012    -0.1068204   -0.1472299 
   0.116179040     0.0484169   -0.1854479     0.7581789   -0.4636640     0.7584500   -0.4619525    -0.1075578   -0.1490332 
   0.116279065     0.0478525   -0.1853573     0.7585928   -0.4602109     0.7624484   -0.4582627    -0.1068675   -0.1507806 
   0.116379090     0.0480883   -0.1855490     0.7560929   -0.4625775     0.7584375   -0.4599393    -0.1064334   -0.1490601 
   0.116479115     0.0494933   -0.1861787     0.7657397   -0.4640831     0.7589213   -0.4609544    -0.1124336   -0.1496305 
   0.116579140     0.0490244   -0.1836363     0.7572562   -0.4611271     0.7558614   -0.4611538    -0.1070889   -0.1504309 
   0.116679165     0.0476765   -0.1840279     0.7580878   -0.4648110     0.7576852   -0.4647191    -0.1079509   -0.1497226 
   0.116779190     0.0481381   -0.1841377     0.7568070   -0.4635613     0.7574109   -0.4612105    -0.1073018   -0.1498876 
   0.116879215     0.0479776   -0.1837268     0.7571328   -0.4665762     0.7558876   -0.4644306    -0.1086429   -0.1474966 
   0.116979240     0.0478339   -0.1833262     0.7561044   -0.4672119     0.7566977   -0.4655516    -0.1073635   -0.1480027 
   0.117079265     0.0492822   -0.1832753     0.7574363   -0.4670894     0.7535948   -0.4629521    -0.1082667   -0.1479261 
   0.117179290     0.0488364   -0.1838900     0.7589241   -0.4652794     0.7569280   -0.4625075    -0.1088699   -0.1493060 
   0.117279315     0.0480969   -0.1823571     0.7552623   -0.4640156     0.7565116   -0.4677729    -0.1068941   -0.1498190 
   0.117379340     0.0474536   -0.1821698     0.7551938   -0.4684696     0.7541430   -0.4706543    -0.1084678   -0.1479355 
   0.117479365     0.0479791   -0.1833099     0.7550911   -0.4729835     0.7541612   -0.4705192    -0.1081684   -0.1456774 
   0.117579390     0.0477460   -0.1835155     0.7566670   -0.4718489     0.7544683   -0.4657796    -0.1097098   -0.1457746 
   0.117679415     0.0471198   -0.1829402     0.7574031   -0.4699697     0.7583262   -0.4704939    -0.1094423   -0.1476778 
   0.117779440     0.0472042   -0.1816302     0.7527587   -0.4708631     0.7533044   -0.4704365    -0.1074153   -0.1473286 
   0.117879465     0.0479339   -0.1814353     0.7563785   -0.4756562     0.7531850   -0.4722331    -0.1101614   -0.1445645 
   0.117979490     0.0481528   -0.1819799     0.7571498   -0.4766396     0.7516746   -0.4711789    -0.1102210   -0.1439241 
   0.118079515     0.0478459   -0.1819506     0.7481332   -0.4748003     0.7524749   -0.4698033    -0.1050728   -0.1446751 
   0.118179540     0.0473374   -0.1819616     0.7532661   -0.4765396     0.7508807   -0.4731441    -0.1089830   -0.1443986 
   0.118279565     0.0462688   -0.1815618     0.7483982   -0.4792004     0.7523264   -0.4745369    -0.1062505   -0.1426961 
   0.118379590     0.0469261   -0.1798940     0.7506706   -0.4719971     0.7530313   -0.4749549    -0.1078256   -0.1474653 
   0.118479615     0.0485040   -0.1803208     0.7567459   -0.4777550     0.7498761   -0.4758818    -0.1115313   -0.1438418 
   0.118579640     0.0479182   -0.1804146     0.7526683   -0.4816138     0.7501342   -0.4736407    -0.1090859   -0.1413360 
   0.118679665     0.0463118   -0.1803692     0.7481391   -0.4791224     0.7514561   -0.4741516    -0.1060900   -0.1430337 
   0.118779690     0.0477581   -0.1783670     0.7494329   -0.4763550     0.7466226   -0.4784249    -0.1074314   -0.1451842 
   0.118879715     0.0457894   -0.1801916     0.7471912   -0.4813290     0.7523980   -0.4756869    -0.1061364   -0.1426728 
   0.118979740     0.0458550   -0.1809049     0.7423127   -0.4843684     0.7510725   -0.4751754    -0.1034960   -0.1401204 
   0.119079765     0.0473593   -0.1801633     0.7485908   -0.4843855     0.7467499   -0.4779110    -0.1080918   -0.1406584 
   0.119179790     0.0465603   -0.1797916     0.7522362   -0.4839599     0.7493609   -0.4802302    -0.1098769   -0.1410483 
   0.119279815     0.0462820   -0.1786174     0.7464933   -0.4803686     0.7500945   -0.4810351    -0.1068934   -0.1433030 
   0.119379840     0.0457196   -0.1774684     0.7506346   -0.4799079     0.7507846   -0.4841668    -0.1094800   -0.1445603 
   0.119479865     0.0457614   -0.1789266     0.7460679   -0.4815799     0.7508115   -0.4791680    -0.1065804   -0.1430915 
   0.119579890     0.0447056   -0.1785959     0.7467834   -0.4899804     0.7501804   -0.4814012    -0.1071043   -0.1376979 
   0.119679915     0.0463385   -0.1783734     0.7454605   -0.4851874     0.7436541   -0.4814833    -0.1075572   -0.1410395 
   0.119779940     0.0458868   -0.1775569     0.7434891   -0.4810584     0.7471077   -0.4825512    -0.1062001   -0.1440260 
   0.119879965     0.0457956   -0.1772539     0.7446743   -0.4834336     0.7468237   -0.4847246    -0.1073935   -0.1423283 
   0.119979990     0.0454609   -0.1770499     0.7418967   -0.4832296     0.7482049   -0.4850896    -0.1060639   -0.1428552 
   0.120080015     0.0459740   -0.1766837     0.7427946   -0.4874171     0.7471741   -0.4851413    -0.1065001   -0.1404096 
   0.120180040     0.0461517   -0.1784208     0.7445992   -0.4917652     0.7467030   -0.4839596    -0.1077058   -0.1376455 
   0.120280065     0.0458800   -0.1765398     0.7438473   -0.4879070     0.7433248   -0.4873933    -0.1075684   -0.1403697 
   0.120380090     0.0453717   -0.1765353     0.7425942   -0.4886687     0.7464891   -0.4869068    -0.1068804   -0.1401969 
   0.120480115     0.0469984   -0.1757775     0.7409634   -0.4880109     0.7423714   -0.4856309    -0.1063097   -0.1402662 
   0.120580140     0.0457863   -0.1768946     0.7433673   -0.4967185     0.7454116   -0.4848599    -0.1071100   -0.1350839 
   0.120680165     0.0467268   -0.1753787     0.7441230   -0.4946489     0.7421849   -0.4916834    -0.1084369   -0.1369693 
   0.120780190     0.0458026   -0.1768916     0.7386516   -0.4916109     0.7422023   -0.4864179    -0.1055929   -0.1386950 
   0.120880215     0.0449777   -0.1755162     0.7413785   -0.4924143     0.7442845   -0.4909090    -0.1071676   -0.1390545 
   0.120980240     0.0443821   -0.1750790     0.7393131   -0.4964289     0.7439896   -0.4920124    -0.1061703   -0.1364738 
   0.121080265     0.0459972   -0.1760941     0.7417586   -0.4952185     0.7411417   -0.4904041    -0.1082079   -0.1366078 
   0.121180290     0.0456363   -0.1755281     0.7392284   -0.4985439     0.7415470   -0.4897840    -0.1063287   -0.1354798 
   0.121280315     0.0447530   -0.1755081     0.7397741   -0.4927883     0.7427250   -0.4908354    -0.1082133   -0.1386811 
   0.121380340     0.0461077   -0.1742634     0.7393535   -0.4931571     0.7382170   -0.4923829    -0.1072788   -0.1385664 
   0.121480365     0.0448658   -0.1741318     0.7354062   -0.4947166     0.7401766   -0.4960988    -0.1059041   -0.1384487 
   0.121580390     0.0462003   -0.1750948     0.7434602   -0.4993306     0.7375707   -0.4938482    -0.1102524   -0.1343428 
   0.121680415     0.0455637   -0.1748821     0.7404815   -0.5008435     0.7401754   -0.4948119    -0.1083696   -0.1349684 
   0.121780440     0.0460340   -0.1734797     0.7405443   -0.4973747     0.7385057   -0.4967756    -0.1090684   -0.1365747 
   0.121880465     0.0457659   -0.1736827     0.7450619   -0.5004295     0.7380195   -0.4971685    -0.1114883   -0.1337738 
   0.121980490     0.0451421   -0.1733671     0.7391580   -0.4978271     0.7370093   -0.4972910    -0.1090872   -0.1368860 
   0.122080515     0.0445314   -0.1733049     0.7370233   -0.5039731     0.7399616   -0.4962271    -0.1065674   -0.1329452 
   0.122180540     0.0451892   -0.1729652     0.7388806   -0.4992495     0.7387753   -0.4992764    -0.1091489   -0.1358179 
   0.122280565     0.0456125   -0.1725624     0.7393977   -0.4999584     0.7386610   -0.4989953    -0.1097263   -0.1350758 
   0.122380590     0.0443881   -0.1726498     0.7350460   -0.5052101     0.7391188   -0.4994674    -0.1065563   -0.1331218 
   0.122480615     0.0453316   -0.1740642     0.7365729   -0.5020912     0.7373352   -0.4962977    -0.1078887   -0.1336712 
   0.122580640     0.0442034   -0.1726160     0.7346838   -0.5071548     0.7402189   -0.5053161    -0.1064571   -0.1324576 
   0.122680665     0.0450566   -0.1720768     0.7373500   -0.5043898     0.7370789   -0.5017675    -0.1091345   -0.1330324 
   0.122780690     0.0451433   -0.1719408     0.7383733   -0.5051210     0.7368813   -0.5037062    -0.1101053   -0.1325990 
   0.122880715     0.0454980   -0.1720333     0.7376729   -0.5049629     0.7342492   -0.5025111    -0.1097626   -0.1329447 
   0.122980740     0.0438243   -0.1710440     0.7325191   -0.5055128     0.7357488   -0.5045370    -0.1069460   -0.1339688 
   0.123080765     0.0433957   -0.1699167     0.7293452   -0.5046629     0.7353273   -0.5096613    -0.1057975   -0.1349501 
   0.123180790     0.0434943   -0.1698505     0.7338879   -0.5077466     0.7379107   -0.5067631    -0.1078009   -0.1317769 
   0.123280815     0.0441899   -0.1709618     0.7320941   -0.5108262     0.7340942   -0.5061707    -0.1066918   -0.1308013 
   0.123380840     0.0444840   -0.1698105     0.7309628   -0.5048360     0.7347358   -0.5105636    -0.1078128   -0.1342662 
   0.123480865     0.0446042   -0.1695533     0.7321504   -0.5085612     0.7333858   -0.5105264    -0.1082670   -0.1320529 
   0.123580890     0.0445708   -0.1712233     0.7345775   -0.5163770     0.7335328   -0.5086771    -0.1079551   -0.1277280 
   0.123680915     0.0449458   -0.1695077     0.7290510   -0.5078399     0.7310978   -0.5090345    -0.1070315   -0.1333259 
   0.123780940     0.0446498   -0.1714255     0.7350368   -0.5127472     0.7332204   -0.5052735    -0.1091952   -0.1282713 
   0.123880965     0.0429170   -0.1702014     0.7278147   -0.5136229     0.7354683   -0.5093933    -0.1058026   -0.1310884 
   0.123980990     0.0427461   -0.1691827     0.7273996   -0.5143462     0.7352344   -0.5109742    -0.1054556   -0.1299690 
   0.124081016     0.0439061   -0.1691750     0.7313125   -0.5143242     0.7343502   -0.5128199    -0.1081779   -0.1293058 
   0.124181041     0.0446898   -0.1688344     0.7291039   -0.5140022     0.7275715   -0.5114545    -0.1081466   -0.1296736 
   0.124281066     0.0441072   -0.1692294     0.7278957   -0.5124600     0.7306869   -0.5108953    -0.1079377   -0.1307088 
   0.124381091     0.0439719   -0.1685945     0.7276529   -0.5143195     0.7306769   -0.5121067    -0.1074217   -0.1296351 
   0.124481116     0.0441497   -0.1666614     0.7300494   -0.5106446     0.7279795   -0.5139564    -0.1101628   -0.1309489 
   0.124581141     0.0438933   -0.1678312     0.7292418   -0.5150664     0.7313076   -0.5127420    -0.1085994   -0.1288496 
   0.124681166     0.0446136   -0.1673821     0.7306478   -0.5178661     0.7276876   -0.5166650    -0.1089448   -0.1273981 
   0.124781191     0.0435515   -0.1679369     0.7275974   -0.5184308     0.7279561   -0.5159575    -0.1081781   -0.1276815 
   0.124881216     0.0437303   -0.1663582     0.7249333   -0.5167877     0.7284904   -0.5172323    -0.1073744   -0.1293560 
   0.124981241     0.0432563   -0.1669596     0.7254942   -0.5173380     0.7305069   -0.5173658    -0.1075946   -0.1280933 
   0.125081266     0.0437757   -0.1665235     0.7205586   -0.5181153     0.7259381   -0.5180712    -0.1057464   -0.1287279 
   0.125181291     0.0446974   -0.1663420     0.7266351   -0.5198779     0.7249623   -0.5172822    -0.1081846   -0.1266231 
   0.125281316     0.0427693   -0.1674630     0.7214662   -0.5198890     0.7260649   -0.5182774    -0.1061668   -0.1289249 
   0.125381341     0.0442520   -0.1665017     0.7243097   -0.5222017     0.7254891   -0.5202811    -0.1072526   -0.1268001 
   0.125481366     0.0431234   -0.1663362     0.7245180   -0.5226474     0.7278272   -0.5180028    -0.1072079   -0.1261903 
   0.125581391     0.0442409   -0.1666631     0.7233297   -0.5201474     0.7248231   -0.5191368    -0.1081524   -0.1279533 
   0.125681416     0.0441675   -0.1661302     0.7238735   -0.5239518     0.7200524   -0.5214424    -0.1076629   -0.1250812 
   0.125781441     0.0440252   -0.1660543     0.7209460   -0.5231539     0.7216766   -0.5213243    -0.1072925   -0.1264566 
   0.125881466     0.0435167   -0.1656516     0.7207775   -0.5246145     0.7237109   -0.5232894    -0.1065805   -0.1253744 
   0.125981491     0.0424014   -0.1658853     0.7203581   -0.5287400     0.7265683   -0.5213243    -0.1060951   -0.1235818 
   0.126081516     0.0437173   -0.1640242     0.7199461   -0.5246753     0.7213503   -0.5269032    -0.1074822   -0.1258159 
   0.126181541     0.0427555   -0.1642697     0.7227125   -0.5244519     0.7281731   -0.5256898    -0.1089555   -0.1250473 
   0.126281566     0.0421582   -0.1653582     0.7192293   -0.5280339     0.7215655   -0.5270612    -0.1058021   -0.1248084 
   0.126381591     0.0436768   -0.1657173     0.7175463   -0.5300114     0.7225347   -0.5225290    -0.1057469   -0.1241283 
   0.126481616     0.0426837   -0.1636095     0.7214715   -0.5275615     0.7236472   -0.5273260    -0.1085764   -0.1240220 
   0.126581641     0.0414216   -0.1643366     0.7187073   -0.5272699     0.7258574   -0.5248666    -0.1073290   -0.1248840 
   0.126681666     0.0423790   -0.1631166     0.7195103   -0.5280914     0.7231296   -0.5281051    -0.1082121   -0.1240798 
   0.126781691     0.0425403   -0.1641072     0.7177242   -0.5310423     0.7233036   -0.5293387    -0.1062313   -0.1230689 
   0.126881716     0.0426487   -0.1636102     0.7169309   -0.5322828     0.7217487   -0.5288591    -0.1058158   -0.1222351 
   0.126981741     0.0416471   -0.1627696     0.7165808   -0.5352531     0.7229680   -0.5293650    -0.1054270   -0.1216085 
   0.127081766     0.0434459   -0.1635910     0.7170429   -0.5351523     0.7173175   -0.5285534    -0.1065508   -0.1206637 
   0.127181791     0.0418252   -0.1624073     0.7173299   -0.5339074     0.7217756   -0.5321528    -0.1068330   -0.1215775 
   0.127281816     0.0426534   -0.1626576     0.7174827   -0.5318757     0.7188992   -0.5299037    -0.1080086   -0.1220108 
   0.127381841     0.0411767   -0.1630851     0.7132736   -0.5339102     0.7168674   -0.5299285    -0.1064247   -0.1223284 
   0.127481866     0.0421175   -0.1623878     0.7151785   -0.5372546     0.7183301   -0.5323270    -0.1057202   -0.1204865 
   0.127581891     0.0420132   -0.1624268     0.7165343   -0.5368181     0.7188089   -0.5328541    -0.1072260   -0.1196469 
   0.127681916     0.0424978   -0.1625743     0.7140178   -0.5370430     0.7184449   -0.5333917    -0.1059128   -0.1208603 
   0.127781941     0.0424475   -0.1622813     0.7164935   -0.5351706     0.7152624   -0.5317070    -0.1083596   -0.1210047 
   0.127881966     0.0425728   -0.1617533     0.7097698   -0.5370176     0.7141362   -0.5347713    -0.1051979   -0.1223348 
   0.127981991     0.0424829   -0.1622745     0.7134253   -0.5394039     0.7164453   -0.5376737    -0.1061683   -0.1198240 
   0.128082016     0.0420314   -0.1609446     0.7162607   -0.5378773     0.7193979   -0.5354285    -0.1086364   -0.1185617 
   0.128182041     0.0428610   -0.1602829     0.7152793   -0.5391356     0.7142474   -0.5404389    -0.1076365   -0.1190770 
   0.128282066     0.0423508   -0.1607500     0.7108263   -0.5398252     0.7145285   -0.5368873    -0.1059792   -0.1196719 
   0.128382091     0.0411515   -0.1602081     0.7058890   -0.5398244     0.7162257   -0.5400736    -0.1044374   -0.1216559 
   0.128482116     0.0413992   -0.1600289     0.7087178   -0.5363690     0.7136835   -0.5375640    -0.1072986   -0.1221193 
   0.128582141     0.0418813   -0.1611561     0.7108479   -0.5424399     0.7162086   -0.5394567    -0.1060818   -0.1184425 
   0.128682166     0.0423535   -0.1596832     0.7127547   -0.5453797     0.7129781   -0.5438061    -0.1061236   -0.1169123 
   0.128782191     0.0425015   -0.1595172     0.7104995   -0.5403587     0.7125905   -0.5421751    -0.1072166   -0.1189175 
   0.128882216     0.0412125   -0.1590906     0.7089429   -0.5437010     0.7142888   -0.5434917    -0.1058703   -0.1186731 
   0.128982241     0.0408890   -0.1595438     0.7067776   -0.5441666     0.7129260   -0.5411500    -0.1052181   -0.1192031 
   0.129082266     0.0414654   -0.1592772     0.7090188   -0.5434119     0.7133758   -0.5434206    -0.1066143   -0.1176482 
   0.129182291     0.0423671   -0.1583699     0.7068732   -0.5415635     0.7100381   -0.5464694    -0.1065935   -0.1191632 
   0.129282316     0.0410397   -0.1584720     0.7095614   -0.5416989     0.7122544   -0.5432516    -0.1084304   -0.1179131 
   0.129382341     0.0419733   -0.1587173     0.7100987   -0.5457881     0.7115563   -0.5447386    -0.1080471   -0.1161970 
   0.129482366     0.0415683   -0.1591041     0.7065246   -0.5482111     0.7104112   -0.5433768    -0.1051277   -0.1158224 
   0.129582391     0.0419330   -0.1585287     0.7110429   -0.5494375     0.7104391   -0.5447531    -0.1069511   -0.1139854 
   0.129682416     0.0413782   -0.1585911     0.7070006   -0.5493152     0.7094455   -0.5471154    -0.1060187   -0.1147459 
   0.129782441     0.0411368   -0.1579295     0.7084538   -0.5499809     0.7106139   -0.5461712    -0.1056951   -0.1139858 
   0.129882466     0.0420898   -0.1576919     0.7065941   -0.5538759     0.7072641   -0.5481377    -0.1049630   -0.1130547 
   0.129982491     0.0421357   -0.1571784     0.7058970   -0.5487741     0.7091841   -0.5494248    -0.1064438   -0.1146044 
   0.130082516     0.0424009   -0.1581698     0.7075126   -0.5539742     0.7055174   -0.5486796    -0.1052530   -0.1124500 
   0.130182541     0.0424329   -0.1567529     0.7041274   -0.5538059     0.7086093   -0.5520538    -0.1049456   -0.1137310 
   0.130282566     0.0414249   -0.1571934     0.7027388   -0.5520837     0.7048237   -0.5501804    -0.1057652   -0.1153015 
   0.130382591     0.0414858   -0.1556481     0.7023013   -0.5528039     0.7054358   -0.5533038    -0.1058238   -0.1145615 
   0.130482616     0.0417321   -0.1566637     0.7057493   -0.5532972     0.7049958   -0.5511956    -0.1073188   -0.1126977 
   0.130582641     0.0411623   -0.1555948     0.7007931   -0.5543487     0.7039322   -0.5518371    -0.1051394   -0.1147908 
   0.130682666     0.0415535   -0.1555435     0.7026930   -0.5562354     0.7058612   -0.5573649    -0.1053473   -0.1127343 
   0.130782691     0.0415164   -0.1564267     0.7004763   -0.5549849     0.7053552   -0.5521076    -0.1054184   -0.1135227 
   0.130882716     0.0418432   -0.1544664     0.7024144   -0.5539956     0.7034106   -0.5561348    -0.1072440   -0.1125549 
   0.130982741     0.0416307   -0.1551069     0.7017460   -0.5565624     0.7039520   -0.5552714    -0.1064491   -0.1117077 
   0.131082766     0.0409560   -0.1548427     0.6984118   -0.5534644     0.7034020   -0.5545032    -0.1065057   -0.1144576 
   0.131182791     0.0407291   -0.1546074     0.7022688   -0.5555054     0.7083347   -0.5558508    -0.1070629   -0.1118401 
   0.131282816     0.0408697   -0.1547271     0.6976489   -0.5617199     0.7020848   -0.5567160    -0.1029671   -0.1114849 
   0.131382841     0.0407829   -0.1543961     0.6979974   -0.5594594     0.7035213   -0.5592717    -0.1045424   -0.1122721 
   0.131482866     0.0408843   -0.1546626     0.6977587   -0.5602816     0.7022883   -0.5586676    -0.1045763   -0.1111679 
   0.131582891     0.0415582   -0.1547060     0.6989417   -0.5620358     0.7021083   -0.5597926    -0.1048429   -0.1102290 
   0.131682916     0.0410554   -0.1551056     0.6987154   -0.5649081     0.7004814   -0.5584229    -0.1032451   -0.1091889 
   0.131782941     0.0412621   -0.1532065     0.6929003   -0.5623540     0.6997430   -0.5615205    -0.1030275   -0.1131365 
   0.131882966     0.0412405   -0.1533287     0.6975224   -0.5584909     0.6989673   -0.5606470    -0.1064745   -0.1105739 
   0.131982991     0.0402489   -0.1531810     0.6921723   -0.5595727     0.7007632   -0.5632523    -0.1054625   -0.1130755 
   0.132083017     0.0412341   -0.1519371     0.6960209   -0.5661150     0.6983389   -0.5641275    -0.1036382   -0.1091441 
   0.132183042     0.0408909   -0.1529467     0.6921260   -0.5648210     0.6985325   -0.5641307    -0.1045851   -0.1120864 
   0.132283067     0.0408569   -0.1519794     0.6939210   -0.5650411     0.6984069   -0.5652519    -0.1040419   -0.1099820 
   0.132383092     0.0403451   -0.1530315     0.6902816   -0.5667111     0.6969541   -0.5632880    -0.1039067   -0.1107637 
   0.132483117     0.0412650   -0.1519679     0.6959724   -0.5663812     0.6972528   -0.5643346    -0.1048146   -0.1080072 
   0.132583142     0.0398372   -0.1524879     0.6924910   -0.5678623     0.6954848   -0.5671497    -0.1031490   -0.1085325 
   0.132683167     0.0410955   -0.1521539     0.6937416   -0.5694134     0.6951743   -0.5660415    -0.1030739   -0.1077503 
   0.132783192     0.0400165   -0.1514064     0.6883698   -0.5676610     0.6964158   -0.5663101    -0.1036087   -0.1102222 
   0.132883217     0.0395203   -0.1522374     0.6914377   -0.5686076     0.6979243   -0.5665241    -0.1039631   -0.1083793 
   0.132983242     0.0405665   -0.1504392     0.6890193   -0.5658513     0.6938086   -0.5693491    -0.1053511   -0.1101041 
   0.133083267     0.0410293   -0.1527249     0.6908633   -0.5746539     0.6953223   -0.5678696    -0.1016080   -0.1068807 
   0.133183292     0.0403994   -0.1512270     0.6902602   -0.5706124     0.6929348   -0.5681940    -0.1031656   -0.1077826 
   0.133283317     0.0405369   -0.1511320     0.6873125   -0.5666515     0.6945639   -0.5687010    -0.1058766   -0.1094153 
   0.133383342     0.0402610   -0.1500341     0.6914604   -0.5714865     0.6961322   -0.5713415    -0.1051068   -0.1067278 
   0.133483367     0.0400272   -0.1502518     0.6894791   -0.5710938     0.6934488   -0.5733959    -0.1042212   -0.1071356 
   0.133583392     0.0415203   -0.1501769     0.6862198   -0.5713434     0.6896490   -0.5710282    -0.1043713   -0.1086664 
   0.133683417     0.0407024   -0.1506492     0.6893796   -0.5737762     0.6890661   -0.5691350    -0.1038652   -0.1056409 
   0.133783442     0.0401387   -0.1502555     0.6833546   -0.5700009     0.6919879   -0.5708244    -0.1046221   -0.1094542 
   0.133883467     0.0407752   -0.1500029     0.6887558   -0.5754026     0.6927999   -0.5724333    -0.1025214   -0.1052870 
   0.133983492     0.0403150   -0.1494552     0.6847274   -0.5765320     0.6920468   -0.5738903    -0.1024029   -0.1067027 
   0.134083517     0.0408782   -0.1495952     0.6852280   -0.5761773     0.6901800   -0.5743938    -0.1033026   -0.1061471 
   0.134183542     0.0398583   -0.1483396     0.6873108   -0.5756654     0.6897697   -0.5766369    -0.1039400   -0.1043920 
   0.134283567     0.0398762   -0.1498693     0.6839466   -0.5791795     0.6859288   -0.5765007    -0.1018374   -0.1055033 
   0.134383592     0.0403336   -0.1491655     0.6839362   -0.5747650     0.6877019   -0.5760739    -0.1043776   -0.1056648 
   0.134483617     0.0385972   -0.1481983     0.6851083   -0.5753174     0.6909030   -0.5744834    -0.1042240   -0.1051396 
   0.134583642     0.0395414   -0.1489910     0.6845542   -0.5807580     0.6887538   -0.5770247    -0.1019329   -0.1040065 
   0.134683667     0.0399559   -0.1477173     0.6827933   -0.5784894     0.6875874   -0.5779164    -0.1036775   -0.1042776 
   0.134783692     0.0402634   -0.1477735     0.6839876   -0.5802247     0.6866260   -0.5801195    -0.1027353   -0.1034000 
   0.134883717     0.0400563   -0.1478921     0.6822808   -0.5796021     0.6887007   -0.5773192    -0.1037653   -0.1038268 
   0.134983742     0.0399303   -0.1480262     0.6780536   -0.5797140     0.6823375   -0.5793737    -0.1030520   -0.1059210 
   0.135083767     0.0405139   -0.1473053     0.6797149   -0.5837638     0.6853730   -0.5806759    -0.1011112   -0.1045356 
   0.135183792     0.0392223   -0.1472625     0.6837640   -0.5817099     0.6849099   -0.5800965    -0.1026581   -0.1019018 
   0.135283817     0.0403666   -0.1468484     0.6795968   -0.5791475     0.6875341   -0.5819305    -0.1042232   -0.1037965 
   0.135383842     0.0395443   -0.1472246     0.6803561   -0.5822917     0.6837975   -0.5808514    -0.1027590   -0.1029687 
   0.135483867     0.0394836   -0.1457856     0.6755459   -0.5812335     0.6836479   -0.5825256    -0.1028465   -0.1049341 
   0.135583892     0.0397647   -0.1457766     0.6809148   -0.5809744     0.6851238   -0.5849352    -0.1039933   -0.1015697 
   0.135683917     0.0391591   -0.1469075     0.6771845   -0.5826820     0.6825208   -0.5851963    -0.1036854   -0.1036261 
   0.135783942     0.0408876   -0.1468763     0.6761163   -0.5853685     0.6797773   -0.5862175    -0.1017441   -0.1034116 
   0.135883967     0.0397925   -0.1460481     0.6753510   -0.5874200     0.6833898   -0.5843561    -0.1016899   -0.1028598 
   0.135983992     0.0391456   -0.1457959     0.6759767   -0.5893639     0.6825948   -0.5854852    -0.1002342   -0.1024375 
   0.136084017     0.0398477   -0.1458356     0.6758183   -0.5893281     0.6808925   -0.5859638    -0.1004308   -0.1018830 
   0.136184042     0.0404280   -0.1462647     0.6782658   -0.5908669     0.6800757   -0.5863720    -0.1007966   -0.0996758 
   0.136284067     0.0396513   -0.1452014     0.6736122   -0.5945277     0.6820387   -0.5871453    -0.0988107   -0.1019135 
   0.136384092     0.0408791   -0.1453054     0.6755137   -0.5900154     0.6778343   -0.5902424    -0.1019679   -0.1002789 
   0.136484117     0.0392653   -0.1449026     0.6710945   -0.5856810     0.6805748   -0.5892833    -0.1038952   -0.1024488 
   0.136584142     0.0394699   -0.1450635     0.6760288   -0.5885898     0.6795863   -0.5885351    -0.1030071   -0.0993701 
   0.136684167     0.0395364   -0.1450743     0.6777476   -0.5927812     0.6773474   -0.5903983    -0.1014009   -0.0978952 
   0.136784192     0.0388962   -0.1450113     0.6712079   -0.5896503     0.6786608   -0.5891218    -0.1013234   -0.1010156 
   0.136884217     0.0402069   -0.1440134     0.6721098   -0.5906475     0.6766943   -0.5914915    -0.1027416   -0.1005836 
   0.136984242     0.0402073   -0.1449125     0.6737621   -0.5939819     0.6771173   -0.5888574    -0.1009501   -0.0993657 
   0.137084267     0.0398617   -0.1438582     0.6738820   -0.5955940     0.6757717   -0.5921832    -0.1000922   -0.0982479 
   0.137184292     0.0385813   -0.1430435     0.6709074   -0.5899320     0.6793073   -0.5946200    -0.1034312   -0.0995620 
   0.137284317     0.0401207   -0.1427777     0.6726851   -0.5948023     0.6741870   -0.5955686    -0.1010597   -0.0979145 
   0.137384342     0.0396508   -0.1426906     0.6698099   -0.5954434     0.6756533   -0.5941911    -0.1003416   -0.0992564 
   0.137484367     0.0397351   -0.1439355     0.6705747   -0.5963859     0.6765018   -0.5961719    -0.1006345   -0.0983466 
   0.137584392     0.0397003   -0.1428850     0.6688887   -0.5945953     0.6728141   -0.5975412    -0.1013930   -0.0991632 
   0.137684417     0.0399802   -0.1429882     0.6718555   -0.5965842     0.6719206   -0.5961307    -0.1008496   -0.0964814 
   0.137784442     0.0400887   -0.1434351     0.6682879   -0.5995550     0.6744942   -0.5953100    -0.0993020   -0.0976277 
   0.137884467     0.0400635   -0.1416421     0.6674178   -0.5991996     0.6738496   -0.5986174    -0.0998099   -0.0991824 
   0.137984492     0.0396760   -0.1429031     0.6656948   -0.5976239     0.6684840   -0.5986062    -0.1015686   -0.0987523 
   0.138084517     0.0391440   -0.1414807     0.6651350   -0.5977101     0.6726259   -0.6007280    -0.1010821   -0.0980788 
   0.138184542     0.0393965   -0.1421758     0.6674741   -0.5986238     0.6718196   -0.5972394    -0.1010824   -0.0964315 
   0.138284567     0.0397427   -0.1415356     0.6704792   -0.6014315     0.6710131   -0.5994571    -0.0995042   -0.0945178 
   0.138384592     0.0400795   -0.1407493     0.6690582   -0.5977337     0.6696736   -0.6015941    -0.1026065   -0.0953032 
   0.138484617     0.0401437   -0.1415855     0.6649806   -0.6023231     0.6690760   -0.6007170    -0.0989023   -0.0966028 
   0.138584642     0.0391576   -0.1405609     0.6667294   -0.5993986     0.6716067   -0.6015089    -0.1010630   -0.0956202 
   0.138684667     0.0391019   -0.1411792     0.6636362   -0.5983076     0.6683568   -0.6005034    -0.1022323   -0.0962221 
   0.138784692     0.0401465   -0.1412413     0.6644749   -0.6036904     0.6679102   -0.6038125    -0.0997932   -0.0958121 
   0.138884717     0.0398500   -0.1401984     0.6628640   -0.5983266     0.6676382   -0.6004595    -0.1026370   -0.0955671 
   0.138984742     0.0400770   -0.1411718     0.6617418   -0.6043508     0.6645318   -0.6033564    -0.0995194   -0.0962835 
   0.139084767     0.0390883   -0.1405430     0.6595982   -0.6019845     0.6669863   -0.6046364    -0.1007339   -0.0963463 
   0.139184792     0.0386387   -0.1394906     0.6599725   -0.6036981     0.6663602   -0.6042613    -0.1007490   -0.0956809 
   0.139284817     0.0398382   -0.1397845     0.6604686   -0.6067010     0.6659168   -0.6071845    -0.0987185   -0.0952099 
   0.139384842     0.0408319   -0.1410631     0.6601698   -0.6081898     0.6647745   -0.6078274    -0.0989197   -0.0952098 
   0.139484867     0.0396931   -0.1390239     0.6630606   -0.6080316     0.6663830   -0.6068106    -0.0992645   -0.0938458 
   0.139584892     0.0399280   -0.1400164     0.6614605   -0.6060944     0.6658692   -0.6083108    -0.0992856   -0.0930350 
   0.139684917     0.0399736   -0.1391601     0.6621590   -0.6074483     0.6648442   -0.6084540    -0.0994142   -0.0932514 
   0.139784942     0.0400176   -0.1391867     0.6635571   -0.6060377     0.6640404   -0.6069124    -0.0995689   -0.0918464 
   0.139884967     0.0395948   -0.1388509     0.6621438   -0.6125824     0.6661704   -0.6073297    -0.0970218   -0.0920652 
   0.139984992     0.0390661   -0.1384183     0.6571856   -0.6111654     0.6616302   -0.6089596    -0.0978814   -0.0944732 
   0.140085018     0.0389919   -0.1389857     0.6560056   -0.6144891     0.6628137   -0.6070436    -0.0965633   -0.0943669 
   0.140185043     0.0404649   -0.1381172     0.6588793   -0.6157012     0.6621426   -0.6122720    -0.0966244   -0.0925842 
   0.140285068     0.0392779   -0.1374784     0.6556950   -0.6131994     0.6620443   -0.6136059    -0.0979145   -0.0932453 
   0.140385093     0.0395438   -0.1379526     0.6582727   -0.6094108     0.6620792   -0.6107583    -0.0994157   -0.0921077 
   0.140485118     0.0395835   -0.1375291     0.6525744   -0.6171507     0.6593523   -0.6144761    -0.0971110   -0.0942735 
   0.140585143     0.0401356   -0.1387375     0.6581862   -0.6112737     0.6569181   -0.6105282    -0.0987637   -0.0908711 
   0.140685168     0.0389247   -0.1383602     0.6533918   -0.6120443     0.6590551   -0.6113666    -0.0995843   -0.0934922 
   0.140785193     0.0401581   -0.1370765     0.6595445   -0.6172005     0.6604394   -0.6145623    -0.0963180   -0.0898417 
   0.140885218     0.0391182   -0.1374919     0.6532560   -0.6148050     0.6587993   -0.6146739    -0.0985201   -0.0922753 
   0.140985243     0.0402410   -0.1368352     0.6553131   -0.6112590     0.6572057   -0.6139329    -0.1000085   -0.0903647 
   0.141085268     0.0390937   -0.1368333     0.6531211   -0.6118343     0.6585836   -0.6142920    -0.1002149   -0.0908974 
   0.141185293     0.0392721   -0.1373123     0.6536335   -0.6148999     0.6561643   -0.6147137    -0.0987499   -0.0900628 
   0.141285318     0.0399819   -0.1374058     0.6507059   -0.6182617     0.6526750   -0.6175228    -0.0970496   -0.0920867 
   0.141385343     0.0387173   -0.1368388     0.6499306   -0.6201895     0.6536505   -0.6154074    -0.0967458   -0.0921204 
   0.141485368     0.0395325   -0.1363100     0.6485763   -0.6185463     0.6546909   -0.6180072    -0.0973219   -0.0914662 
   0.141585393     0.0391924   -0.1355481     0.6520763   -0.6159557     0.6568712   -0.6188125    -0.0987420   -0.0895478 
   0.141685418     0.0398338   -0.1371120     0.6485717   -0.6196654     0.6555717   -0.6197425    -0.0979047   -0.0907031 
   0.141785443     0.0387509   -0.1360324     0.6486444   -0.6233679     0.6546990   -0.6199991    -0.0961124   -0.0910074 
   0.141885468     0.0393855   -0.1358392     0.6486424   -0.6193641     0.6531805   -0.6174027    -0.0979731   -0.0903443 
   0.141985493     0.0390957   -0.1363834     0.6425332   -0.6210996     0.6500406   -0.6207661    -0.0980099   -0.0929458 
   0.142085518     0.0396574   -0.1355333     0.6470773   -0.6237465     0.6537097   -0.6242303    -0.0962790   -0.0899905 
   0.142185543     0.0394905   -0.1358168     0.6487636   -0.6241308     0.6522358   -0.6222964    -0.0962356   -0.0885990 
   0.142285568     0.0400196   -0.1354659     0.6476890   -0.6216055     0.6518745   -0.6237803    -0.0973172   -0.0890988 
   0.142385593     0.0402947   -0.1350255     0.6444851   -0.6236479     0.6504827   -0.6228796    -0.0967924   -0.0897977 
   0.142485618     0.0394372   -0.1343070     0.6493939   -0.6225147     0.6528765   -0.6233624    -0.0970543   -0.0870528 
   0.142585643     0.0388147   -0.1350660     0.6447755   -0.6264708     0.6472442   -0.6242414    -0.0956256   -0.0899681 
   0.142685668     0.0408507   -0.1349111     0.6456290   -0.6240332     0.6503863   -0.6297697    -0.0968279   -0.0882991 
   0.142785693     0.0397284   -0.1340107     0.6445242   -0.6270103     0.6494774   -0.6255944    -0.0957992   -0.0892750 
   0.142885718     0.0397753   -0.1336189     0.6451766   -0.6276312     0.6491371   -0.6287776    -0.0964562   -0.0879785 
   0.142985743     0.0393365   -0.1343962     0.6450100   -0.6283847     0.6483479   -0.6260354    -0.0953359   -0.0884380 
   0.143085768     0.0400785   -0.1340832     0.6422098   -0.6256638     0.6472801   -0.6275738    -0.0974525   -0.0880050 
   0.143185793     0.0399008   -0.1337425     0.6396604   -0.6287720     0.6478835   -0.6297706    -0.0963221   -0.0898345 
   0.143285818     0.0401299   -0.1337171     0.6421560   -0.6330277     0.6467725   -0.6292679    -0.0939095   -0.0889392 
   0.143385843     0.0398910   -0.1341977     0.6455813   -0.6270421     0.6451635   -0.6311411    -0.0965395   -0.0846283 
   0.143485868     0.0398090   -0.1337015     0.6385226   -0.6299852     0.6473331   -0.6300097    -0.0961791   -0.0885095 
   0.143585893     0.0392015   -0.1332673     0.6386164   -0.6291712     0.6434451   -0.6280866    -0.0966974   -0.0875106 
   0.143685918     0.0388909   -0.1328698     0.6396841   -0.6303267     0.6479122   -0.6299006    -0.0959340   -0.0874972 
   0.143785943     0.0392643   -0.1331828     0.6369235   -0.6322426     0.6452492   -0.6323260    -0.0960050   -0.0883356 
   0.143885968     0.0404534   -0.1332045     0.6368756   -0.6281447     0.6436957   -0.6326635    -0.0968810   -0.0868860 
   0.143985993     0.0404430   -0.1324188     0.6367923   -0.6307812     0.6433133   -0.6336161    -0.0968205   -0.0865726 
   0.144086018     0.0397157   -0.1322782     0.6414753   -0.6329626     0.6445675   -0.6331474    -0.0946507   -0.0847248 
   0.144186043     0.0395992   -0.1332844     0.6323776   -0.6346373     0.6427307   -0.6346228    -0.0964767   -0.0884171 
   0.144286068     0.0394944   -0.1316378     0.6394977   -0.6352011     0.6403041   -0.6324138    -0.0939813   -0.0847429 
   0.144386093     0.0394617   -0.1318582     0.6354700   -0.6297179     0.6405663   -0.6353068    -0.0975729   -0.0854377 
   0.144486118     0.0395767   -0.1320965     0.6305955   -0.6362293     0.6431064   -0.6322686    -0.0953248   -0.0888838 
   0.144586143     0.0394213   -0.1314723     0.6362691   -0.6338465     0.6416316   -0.6372667    -0.0963286   -0.0839460 
   0.144686168     0.0392473   -0.1307752     0.6334472   -0.6396724     0.6410468   -0.6377273    -0.0938885   -0.0862316 
   0.144786193     0.0394161   -0.1311880     0.6349462   -0.6361782     0.6403489   -0.6392788    -0.0950309   -0.0844456 
   0.144886218     0.0388929   -0.1313474     0.6322335   -0.6329176     0.6382387   -0.6391792    -0.0969296   -0.0846497 
   0.144986243     0.0401003   -0.1313044     0.6305398   -0.6375833     0.6365707   -0.6401092    -0.0955215   -0.0853608 
   0.145086268     0.0397565   -0.1309607     0.6354139   -0.6398748     0.6403414   -0.6381009    -0.0927263   -0.0837757 
   0.145186293     0.0393665   -0.1311290     0.6344062   -0.6426461     0.6377200   -0.6404639    -0.0923880   -0.0847846 
   0.145286318     0.0396652   -0.1305310     0.6304711   -0.6412015     0.6380951   -0.6390896    -0.0938865   -0.0850808 
   0.145386343     0.0396854   -0.1307458     0.6345840   -0.6420320     0.6370598   -0.6407896    -0.0923217   -0.0832435 
   0.145486368     0.0390128   -0.1295823     0.6342298   -0.6442072     0.6356759   -0.6404309    -0.0917722   -0.0831213 
   0.145586393     0.0396615   -0.1291300     0.6307396   -0.6428909     0.6353555   -0.6393965    -0.0935479   -0.0843666 
   0.145686418     0.0396398   -0.1298185     0.6271556   -0.6372588     0.6362694   -0.6396760    -0.0973616   -0.0837360 
   0.145786443     0.0396945   -0.1290656     0.6308134   -0.6425418     0.6342137   -0.6416781    -0.0935058   -0.0834073 
   0.145886468     0.0393273   -0.1292283     0.6275510   -0.6441870     0.6335390   -0.6435472    -0.0930948   -0.0846831 
   0.145986493     0.0395406   -0.1303982     0.6291882   -0.6477257     0.6320253   -0.6435248    -0.0915311   -0.0840767 
   0.146086518     0.0401591   -0.1294856     0.6258426   -0.6430273     0.6329683   -0.6454058    -0.0946939   -0.0835936 
   0.146186543     0.0394858   -0.1295636     0.6281558   -0.6433884     0.6327605   -0.6456686    -0.0934649   -0.0823558 
   0.146286568     0.0392081   -0.1290868     0.6277544   -0.6437796     0.6324255   -0.6463676    -0.0933416   -0.0820654 
   0.146386593     0.0398274   -0.1301204     0.6265939   -0.6446769     0.6310533   -0.6457462    -0.0939616   -0.0824834 
   0.146486618     0.0392735   -0.1288608     0.6271005   -0.6440855     0.6294296   -0.6446674    -0.0933671   -0.0813455 
   0.146586643     0.0403048   -0.1284932     0.6268816   -0.6495270     0.6311485   -0.6498231    -0.0913339   -0.0820107 
   0.146686668     0.0404679   -0.1282642     0.6238736   -0.6466619     0.6304501   -0.6488321    -0.0940635   -0.0818974 
   0.146786693     0.0396779   -0.1295296     0.6251855   -0.6489428     0.6283044   -0.6469127    -0.0923848   -0.0816985 
   0.146886718     0.0403829   -0.1279734     0.6249437   -0.6438740     0.6302713   -0.6523279    -0.0943807   -0.0789825 
   0.146986743     0.0397441   -0.1273375     0.6191099   -0.6483757     0.6291273   -0.6501830    -0.0946218   -0.0827411 
   0.147086768     0.0392265   -0.1276069     0.6207261   -0.6482318     0.6271550   -0.6505541    -0.0939760   -0.0818800 
   0.147186793     0.0396347   -0.1289077     0.6222779   -0.6486182     0.6242021   -0.6503052    -0.0932293   -0.0809103 
   0.147286818     0.0394512   -0.1273148     0.6204571   -0.6477765     0.6244454   -0.6487023    -0.0941141   -0.0807825 
   0.147386843     0.0396002   -0.1276053     0.6228247   -0.6489291     0.6228966   -0.6522641    -0.0932806   -0.0801436 
   0.147486868     0.0398738   -0.1275251     0.6194342   -0.6504661     0.6249135   -0.6560693    -0.0931430   -0.0813996 
   0.147586893     0.0391969   -0.1279987     0.6233515   -0.6531053     0.6239991   -0.6524832    -0.0907621   -0.0805656 
   0.147686918     0.0394787   -0.1263625     0.6192626   -0.6554001     0.6247495   -0.6514773    -0.0918292   -0.0821545 
   0.147786943     0.0393518   -0.1270985     0.6195666   -0.6518272     0.6219366   -0.6522407    -0.0923499   -0.0796006 
   0.147886968     0.0391827   -0.1255162     0.6201510   -0.6527827     0.6237445   -0.6538454    -0.0918139   -0.0797238 
   0.147986993     0.0395433   -0.1267801     0.6169204   -0.6520346     0.6209301   -0.6530533    -0.0927653   -0.0798842 
   0.148087019     0.0403744   -0.1270695     0.6176190   -0.6510057     0.6226732   -0.6564547    -0.0929394   -0.0785510 
   0.148187044     0.0401611   -0.1267706     0.6177632   -0.6554055     0.6228393   -0.6559005    -0.0912186   -0.0803857 
   0.148287069     0.0401754   -0.1265071     0.6181998   -0.6574929     0.6196545   -0.6558186    -0.0902672   -0.0797833 
   0.148387094     0.0403042   -0.1265612     0.6133525   -0.6529856     0.6195480   -0.6599715    -0.0934391   -0.0789713 
   0.148487119     0.0402306   -0.1261319     0.6130901   -0.6591808     0.6218351   -0.6569950    -0.0914723   -0.0810588 
   0.148587144     0.0402785   -0.1257083     0.6183118   -0.6558827     0.6198794   -0.6570088    -0.0902945   -0.0771050 
   0.148687169     0.0399457   -0.1256330     0.6122621   -0.6584600     0.6212525   -0.6590621    -0.0915243   -0.0800817 
   0.148787194     0.0399934   -0.1244725     0.6106292   -0.6620387     0.6201645   -0.6572340    -0.0906911   -0.0816764 
   0.148887219     0.0391678   -0.1248707     0.6168423   -0.6533311     0.6180686   -0.6577803    -0.0922925   -0.0755583 
   0.148987244     0.0392609   -0.1252755     0.6139672   -0.6604598     0.6187828   -0.6573930    -0.0896534   -0.0796833 
   0.149087269     0.0407235   -0.1247992     0.6107222   -0.6610649     0.6204540   -0.6631447    -0.0912538   -0.0792726 
   0.149187294     0.0400438   -0.1255144     0.6127566   -0.6615193     0.6176761   -0.6621256    -0.0901435   -0.0796754 
   0.149287319     0.0394435   -0.1247223     0.6121562   -0.6640175     0.6148972   -0.6618363    -0.0892450   -0.0802766 
   0.149387344     0.0396739   -0.1240854     0.6145724   -0.6573753     0.6141953   -0.6641276    -0.0901780   -0.0755209 
   0.149487369     0.0395463   -0.1250038     0.6062595   -0.6632860     0.6151825   -0.6620938    -0.0911899   -0.0808544 
   0.149587394     0.0392525   -0.1240975     0.6069550   -0.6601961     0.6143043   -0.6633696    -0.0916356   -0.0786379 
   0.149687419     0.0405252   -0.1245418     0.6087920   -0.6651689     0.6156226   -0.6653665    -0.0904408   -0.0790711 
   0.149787444     0.0398217   -0.1245819     0.6045759   -0.6612642     0.6150505   -0.6662800    -0.0928527   -0.0781325 
   0.149887469     0.0394370   -0.1247726     0.6055509   -0.6640388     0.6120150   -0.6649504    -0.0913148   -0.0784604 
   0.149987494     0.0410972   -0.1243919     0.6071206   -0.6655253     0.6119773   -0.6673852    -0.0898480   -0.0772353 
   0.150087519     0.0396600   -0.1242107     0.6041158   -0.6663851     0.6118156   -0.6683477    -0.0909685   -0.0787664 
   0.150187544     0.0405048   -0.1230173     0.6050239   -0.6632219     0.6138531   -0.6650954    -0.0913670   -0.0768862 
   0.150287569     0.0394649   -0.1244650     0.6042643   -0.6683037     0.6096306   -0.6675435    -0.0894641   -0.0787590 
   0.150387594     0.0398446   -0.1241338     0.6032621   -0.6662799     0.6079596   -0.6696728    -0.0905693   -0.0775374 
   0.150487619     0.0397581   -0.1242974     0.6049269   -0.6689456     0.6087517   -0.6690848    -0.0893583   -0.0772819 
   0.150587644     0.0395593   -0.1233721     0.6030535   -0.6661068     0.6084394   -0.6687574    -0.0908179   -0.0757845 
   0.150687669     0.0392920   -0.1227778     0.6025282   -0.6684686     0.6075323   -0.6674520    -0.0898041   -0.0771365 
   0.150787694     0.0408853   -0.1223795     0.6058752   -0.6703714     0.6103821   -0.6708750    -0.0884154   -0.0766279 
   0.150887719     0.0388539   -0.1232360     0.6040932   -0.6673546     0.6066470   -0.6691747    -0.0889627   -0.0751247 
   0.150987744     0.0411353   -0.1214086     0.6049295   -0.6698940     0.6091020   -0.6708392    -0.0876820   -0.0754314 
   0.151087769     0.0397113   -0.1227544     0.5928397   -0.6688423     0.6054233   -0.6672258    -0.0934920   -0.0784824 
   0.151187794     0.0399707   -0.1220307     0.6034921   -0.6725625     0.6062878   -0.6701329    -0.0877326   -0.0761785 
   0.151287819     0.0402426   -0.1227416     0.5985771   -0.6729737     0.6059452   -0.6749352    -0.0889067   -0.0770745 
   0.151387844     0.0406266   -0.1226068     0.5998698   -0.6708667     0.6030981   -0.6744969    -0.0892493   -0.0751342 
   0.151487869     0.0400758   -0.1227736     0.5972723   -0.6686941     0.6027675   -0.6760783    -0.0905127   -0.0742420 
   0.151587894     0.0388091   -0.1220928     0.5991455   -0.6684878     0.6017092   -0.6732619    -0.0897768   -0.0732880 
   0.151687919     0.0398335   -0.1216485     0.5994082   -0.6726486     0.6034646   -0.6723872    -0.0877525   -0.0738665 
   0.151787944     0.0403556   -0.1211871     0.5987419   -0.6726216     0.6048241   -0.6723258    -0.0887586   -0.0746250 
   0.151887969     0.0406363   -0.1206421     0.5972741   -0.6727289     0.6018158   -0.6753072    -0.0886090   -0.0741782 
   0.151987994     0.0403397   -0.1221385     0.5956553   -0.6815733     0.6011540   -0.6786109    -0.0878722   -0.0778633 
   0.152088019     0.0400489   -0.1223580     0.5931579   -0.6722351     0.6000894   -0.6785074    -0.0911821   -0.0742724 
   0.152188044     0.0396229   -0.1214065     0.5965314   -0.6746972     0.6011134   -0.6765358    -0.0877730   -0.0738925 
   0.152288069     0.0402700   -0.1219494     0.5952358   -0.6750592     0.6001357   -0.6790438    -0.0881956   -0.0742351 
   0.152388094     0.0399992   -0.1206628     0.5933344   -0.6778985     0.5992298   -0.6769182    -0.0884425   -0.0751688 
   0.152488119     0.0394770   -0.1208138     0.5917190   -0.6763670     0.5967146   -0.6768954    -0.0891836   -0.0747687 
   0.152588144     0.0396248   -0.1207255     0.5948600   -0.6805350     0.5950415   -0.6774590    -0.0868017   -0.0751744 
   0.152688169     0.0400764   -0.1209224     0.5918140   -0.6821413     0.5962425   -0.6824214    -0.0878815   -0.0760754 
   0.152788194     0.0394228   -0.1210942     0.5911945   -0.6754076     0.5972292   -0.6846871    -0.0893010   -0.0721693 
   0.152888219     0.0404969   -0.1203218     0.5899295   -0.6805303     0.5970780   -0.6804563    -0.0886728   -0.0745573 
   0.152988244     0.0404986   -0.1194824     0.5923392   -0.6788018     0.5968316   -0.6783171    -0.0866974   -0.0737217 
   0.153088269     0.0399938   -0.1201031     0.5924718   -0.6779481     0.5954503   -0.6805097    -0.0874153   -0.0718615 
   0.153188294     0.0403044   -0.1207140     0.5894519   -0.6793355     0.5946889   -0.6823104    -0.0878084   -0.0733860 
   0.153288319     0.0400161   -0.1199492     0.5866239   -0.6815638     0.5942011   -0.6848097    -0.0888430   -0.0734388 
   0.153388344     0.0410789   -0.1198992     0.5925789   -0.6807449     0.5933363   -0.6830814    -0.0856766   -0.0718308 
   0.153488369     0.0408199   -0.1192836     0.5896932   -0.6822780     0.5980211   -0.6855578    -0.0868005   -0.0718063 
   0.153588394     0.0392972   -0.1201150     0.5859982   -0.6790684     0.5922966   -0.6860939    -0.0882158   -0.0715678 
   0.153688419     0.0397412   -0.1187427     0.5853325   -0.6838214     0.5925457   -0.6854882    -0.0882798   -0.0738872 
   0.153788444     0.0386168   -0.1186892     0.5843596   -0.6826659     0.5874058   -0.6845219    -0.0885417   -0.0733712 
   0.153888469     0.0394546   -0.1191354     0.5798408   -0.6812326     0.5868819   -0.6848350    -0.0902919   -0.0724192 
   0.153988494     0.0400807   -0.1189886     0.5874668   -0.6867208     0.5894011   -0.6865996    -0.0857705   -0.0731561 
   0.154088519     0.0400699   -0.1197530     0.5863402   -0.6861808     0.5911514   -0.6873898    -0.0865465   -0.0724784 
   0.154188544     0.0401121   -0.1181117     0.5848587   -0.6843632     0.5869930   -0.6872482    -0.0866957   -0.0720381 
   0.154288569     0.0396336   -0.1187820     0.5820066   -0.6873410     0.5877978   -0.6868767    -0.0880677   -0.0738448 
   0.154388594     0.0412597   -0.1178851     0.5850687   -0.6862648     0.5897877   -0.6867766    -0.0857229   -0.0716952 
   0.154488619     0.0404421   -0.1186636     0.5809894   -0.6874032     0.5909498   -0.6912081    -0.0877800   -0.0729444 
   0.154588644     0.0397226   -0.1179982     0.5825441   -0.6873726     0.5876256   -0.6889936    -0.0864014   -0.0718273 
   0.154688669     0.0396328   -0.1187398     0.5801764   -0.6852793     0.5841480   -0.6928369    -0.0877588   -0.0706141 
   0.154788694     0.0403943   -0.1182335     0.5817528   -0.6897137     0.5870246   -0.6920093    -0.0860351   -0.0719823 
   0.154888719     0.0397379   -0.1187219     0.5781924   -0.6884226     0.5868495   -0.6914786    -0.0877299   -0.0714937 
   0.154988744     0.0396946   -0.1175044     0.5807419   -0.6850936     0.5847206   -0.6900077    -0.0868247   -0.0686622 
   0.155088769     0.0398139   -0.1174056     0.5800796   -0.6846418     0.5850073   -0.6899413    -0.0869284   -0.0689790 
   0.155188794     0.0388834   -0.1175862     0.5799485   -0.6861331     0.5792724   -0.6918023    -0.0858811   -0.0685425 
   0.155288819     0.0386904   -0.1173746     0.5757431   -0.6848893     0.5810740   -0.6948659    -0.0890597   -0.0681674 
   0.155388844     0.0397132   -0.1162243     0.5759822   -0.6921821     0.5834458   -0.6921753    -0.0864813   -0.0719925 
   0.155488869     0.0406010   -0.1163426     0.5755975   -0.6950410     0.5848523   -0.6961755    -0.0864747   -0.0725790 
   0.155588894     0.0401676   -0.1163483     0.5758346   -0.6945863     0.5839855   -0.6934131    -0.0864732   -0.0720707 
   0.155688919     0.0400103   -0.1164898     0.5738592   -0.6903661     0.5829011   -0.6968308    -0.0876064   -0.0694145 
   0.155788944     0.0406509   -0.1167867     0.5783034   -0.6914918     0.5814464   -0.6965143    -0.0842782   -0.0689161 
   0.155888969     0.0404668   -0.1169440     0.5777321   -0.6972064     0.5812052   -0.6987891    -0.0842305   -0.0723931 
   0.155988994     0.0402292   -0.1177888     0.5757669   -0.6921548     0.5779431   -0.6986421    -0.0854852   -0.0688627 
   0.156089020     0.0395447   -0.1159715     0.5763003   -0.6916824     0.5752147   -0.6951156    -0.0845879   -0.0680028 
   0.156189045     0.0400701   -0.1163584     0.5731320   -0.6931679     0.5779661   -0.6980881    -0.0850850   -0.0684346 
   0.156289070     0.0397438   -0.1167124     0.5713093   -0.6932577     0.5756198   -0.6991718    -0.0869724   -0.0686212 
   0.156389095     0.0397685   -0.1150436     0.5691576   -0.7015080     0.5781029   -0.6964691    -0.0860623   -0.0731816 
   0.156489120     0.0404471   -0.1165773     0.5697818   -0.6965520     0.5776632   -0.6988528    -0.0859531   -0.0695757 
   0.156589145     0.0393095   -0.1154491     0.5689834   -0.7000198     0.5740185   -0.7002047    -0.0858413   -0.0708039 
   0.156689170     0.0412371   -0.1162722     0.5724590   -0.6967872     0.5768722   -0.7015563    -0.0845271   -0.0682315 
   0.156789195     0.0398485   -0.1160048     0.5667377   -0.6992770     0.5734687   -0.7010252    -0.0863646   -0.0701438 
   0.156889220     0.0395851   -0.1144237     0.5738486   -0.6987859     0.5739474   -0.6974538    -0.0821957   -0.0694766 
   0.156989245     0.0402202   -0.1151840     0.5712677   -0.6987568     0.5725462   -0.7011476    -0.0843603   -0.0689099 
   0.157089270     0.0389453   -0.1153162     0.5676156   -0.7013997     0.5722147   -0.7028463    -0.0853513   -0.0707723 
   0.157189295     0.0407289   -0.1150082     0.5679646   -0.6964887     0.5761999   -0.7047580    -0.0854166   -0.0667710 
   0.157289320     0.0388075   -0.1148284     0.5720832   -0.7030042     0.5695255   -0.7014548    -0.0821247   -0.0701238 
   0.157389345     0.0397963   -0.1148350     0.5663283   -0.6984816     0.5726865   -0.7047657    -0.0854441   -0.0663662 
   0.157489370     0.0392964   -0.1142993     0.5643281   -0.7006727     0.5720030   -0.7029454    -0.0851643   -0.0680505 
   0.157589395     0.0395546   -0.1142887     0.5655355   -0.7025856     0.5701994   -0.7036313    -0.0842451   -0.0690329 
   0.157689420     0.0393008   -0.1157334     0.5665627   -0.7000660     0.5650845   -0.7070066    -0.0831799   -0.0671750 
   0.157789445     0.0402501   -0.1145814     0.5674794   -0.7037595     0.5682929   -0.7051467    -0.0822165   -0.0683641 
   0.157889470     0.0395818   -0.1151252     0.5655620   -0.7020834     0.5649286   -0.7066494    -0.0829927   -0.0674587 
   0.157989495     0.0393952   -0.1140980     0.5619052   -0.6990119     0.5673754   -0.7066737    -0.0848645   -0.0645585 
   0.158089520     0.0409439   -0.1137744     0.5661973   -0.7045038     0.5697682   -0.7063924    -0.0819342   -0.0678590 
   0.158189545     0.0407294   -0.1130898     0.5617058   -0.7006961     0.5667521   -0.7064563    -0.0844826   -0.0655306 
   0.158289570     0.0397540   -0.1130862     0.5588266   -0.7056579     0.5656909   -0.7055573    -0.0851403   -0.0675807 
   0.158389595     0.0404967   -0.1133280     0.5642572   -0.7070260     0.5670786   -0.7062718    -0.0818402   -0.0683904 
   0.158489620     0.0388372   -0.1127908     0.5595873   -0.7075505     0.5652748   -0.7089176    -0.0849440   -0.0683861 
   0.158589645     0.0400169   -0.1134516     0.5595628   -0.7058888     0.5635640   -0.7092327    -0.0842497   -0.0667867 
   0.158689670     0.0395644   -0.1132038     0.5594146   -0.7045322     0.5620653   -0.7118825    -0.0836412   -0.0657683 
   0.158789695     0.0386572   -0.1131758     0.5606815   -0.7061154     0.5580409   -0.7086656    -0.0822346   -0.0658545 
   0.158889720     0.0387836   -0.1128965     0.5606893   -0.7101236     0.5608649   -0.7100974    -0.0821659   -0.0683296 
   0.158989745     0.0396252   -0.1127387     0.5588003   -0.7104363     0.5624527   -0.7121302    -0.0833120   -0.0683155 
   0.159089770     0.0403283   -0.1129692     0.5551103   -0.7077226     0.5581690   -0.7157302    -0.0838689   -0.0647548 
   0.159189795     0.0396419   -0.1125859     0.5594203   -0.7074946     0.5601669   -0.7111364    -0.0820546   -0.0656583 
   0.159289820     0.0399062   -0.1131076     0.5557362   -0.7085130     0.5598468   -0.7144809    -0.0832910   -0.0651209 
   0.159389845     0.0389846   -0.1118794     0.5587213   -0.7107910     0.5572919   -0.7096202    -0.0814592   -0.0666752 
   0.159489870     0.0392273   -0.1123352     0.5580083   -0.7078810     0.5595993   -0.7137799    -0.0813470   -0.0653287 
   0.159589895     0.0400895   -0.1111722     0.5534609   -0.7140318     0.5582918   -0.7146494    -0.0836614   -0.0673145 
   0.159689920     0.0390819   -0.1125482     0.5530518   -0.7080894     0.5532565   -0.7148480    -0.0828603   -0.0644182 
   0.159789945     0.0404924   -0.1127098     0.5566029   -0.7130234     0.5570818   -0.7163931    -0.0807352   -0.0668096 
   0.159889970     0.0403574   -0.1119521     0.5555246   -0.7136292     0.5566777   -0.7174250    -0.0814831   -0.0664008 
   0.159989995     0.0396416   -0.1122068     0.5532698   -0.7135462     0.5549845   -0.7168414    -0.0825851   -0.0664122 
   0.160090020     0.0386261   -0.1119064     0.5522235   -0.7164745     0.5529135   -0.7171254    -0.0822806   -0.0678540 
   0.160190045     0.0393468   -0.1105875     0.5476066   -0.7134233     0.5527806   -0.7161499    -0.0835589   -0.0645413 
   0.160290070     0.0392617   -0.1109631     0.5482530   -0.7115747     0.5522996   -0.7155266    -0.0836263   -0.0639447 
   0.160390095     0.0400554   -0.1119358     0.5523889   -0.7137574     0.5535712   -0.7192861    -0.0808871   -0.0650519 
   0.160490120     0.0389157   -0.1099287     0.5508870   -0.7155507     0.5520026   -0.7156544    -0.0818781   -0.0655732 
   0.160590145     0.0387886   -0.1110455     0.5498105   -0.7170114     0.5501812   -0.7188392    -0.0821430   -0.0651617 
   0.160690170     0.0388106   -0.1100225     0.5426455   -0.7184433     0.5511676   -0.7172530    -0.0854614   -0.0661189 
   0.160790195     0.0386118   -0.1104149     0.5458252   -0.7156324     0.5476709   -0.7198367    -0.0826185   -0.0641031 
   0.160890220     0.0405040   -0.1106250     0.5486285   -0.7208630     0.5531409   -0.7233476    -0.0817388   -0.0672144 
   0.160990245     0.0398044   -0.1113487     0.5468186   -0.7140106     0.5466594   -0.7214146    -0.0814898   -0.0627824 
   0.161090270     0.0389449   -0.1104110     0.5487844   -0.7185044     0.5487391   -0.7219560    -0.0805990   -0.0644947 
   0.161190295     0.0390937   -0.1104985     0.5502860   -0.7225029     0.5490010   -0.7222602    -0.0804341   -0.0671906 
   0.161290320     0.0393818   -0.1089869     0.5482748   -0.7201388     0.5474480   -0.7205793    -0.0802727   -0.0654402 
   0.161390345     0.0400214   -0.1093507     0.5454138   -0.7202775     0.5481155   -0.7193303    -0.0811533   -0.0646790 
   0.161490370     0.0389578   -0.1101105     0.5475942   -0.7160100     0.5442542   -0.7221928    -0.0790970   -0.0625653 
   0.161590395     0.0389706   -0.1099604     0.5427493   -0.7177935     0.5457159   -0.7236699    -0.0807577   -0.0629612 
   0.161690420     0.0405561   -0.1089701     0.5419093   -0.7182412     0.5441104   -0.7232481    -0.0816780   -0.0618114 
   0.161790445     0.0377170   -0.1084058     0.5408636   -0.7239729     0.5448527   -0.7223350    -0.0821973   -0.0655044 
   0.161890470     0.0377474   -0.1088121     0.5396455   -0.7206850     0.5401008   -0.7230074    -0.0816450   -0.0632084 
   0.161990495     0.0385200   -0.1084887     0.5383050   -0.7256558     0.5399286   -0.7237558    -0.0825724   -0.0642633 
   0.162090520     0.0390650   -0.1093434     0.5424101   -0.7227986     0.5368174   -0.7260604    -0.0802760   -0.0634083 
   0.162190545     0.0383673   -0.1085082     0.5381606   -0.7221733     0.5383152   -0.7247522    -0.0824209   -0.0624871 
   0.162290570     0.0384852   -0.1081026     0.5362793   -0.7184420     0.5370407   -0.7264863    -0.0818167   -0.0602294 
   0.162390595     0.0403835   -0.1081957     0.5320951   -0.7240013     0.5419750   -0.7257351    -0.0835446   -0.0622127 
   0.162490620     0.0393509   -0.1077688     0.5339182   -0.7255515     0.5406815   -0.7262020    -0.0834854   -0.0631700 
   0.162590645     0.0398867   -0.1079396     0.5402569   -0.7205896     0.5419621   -0.7267734    -0.0791098   -0.0620196 
   0.162690670     0.0391074   -0.1078604     0.5331932   -0.7254057     0.5363292   -0.7252523    -0.0829379   -0.0620242 
   0.162790695     0.0393068   -0.1080034     0.5421243   -0.7219636     0.5415884   -0.7269280    -0.0770750   -0.0622620 
   0.162890720     0.0400801   -0.1069246     0.5386283   -0.7255461     0.5380445   -0.7260381    -0.0794551   -0.0631268 
   0.162990745     0.0396400   -0.1071637     0.5310239   -0.7290957     0.5378926   -0.7278517    -0.0830881   -0.0631786 
   0.163090770     0.0391660   -0.1087083     0.5355329   -0.7224231     0.5339996   -0.7319704    -0.0795064   -0.0601342 
   0.163190795     0.0389381   -0.1078174     0.5324100   -0.7229850     0.5359436   -0.7285244    -0.0804724   -0.0591658 
   0.163290820     0.0389395   -0.1075141     0.5288713   -0.7222251     0.5367565   -0.7308585    -0.0821998   -0.0588886 
   0.163390845     0.0391668   -0.1071196     0.5334942   -0.7281479     0.5331636   -0.7272496    -0.0802245   -0.0626491 
   0.163490870     0.0385463   -0.1067445     0.5355964   -0.7259041     0.5327002   -0.7275164    -0.0779264   -0.0611740 
   0.163590895     0.0383202   -0.1067194     0.5333635   -0.7292773     0.5323122   -0.7308164    -0.0795712   -0.0620642 
   0.163690920     0.0385696   -0.1076228     0.5335090   -0.7310470     0.5339207   -0.7335197    -0.0800411   -0.0635977 
   0.163790945     0.0392535   -0.1062129     0.5284505   -0.7269052     0.5330046   -0.7302415    -0.0799775   -0.0600532 
   0.163890970     0.0387972   -0.1056974     0.5227951   -0.7287713     0.5300300   -0.7314386    -0.0830853   -0.0592236 
   0.163990995     0.0374269   -0.1059958     0.5278644   -0.7297153     0.5294731   -0.7320356    -0.0804153   -0.0605294 
   0.164091021     0.0386238   -0.1063634     0.5288408   -0.7291232     0.5296354   -0.7346088    -0.0789843   -0.0610581 
   0.164191046     0.0395115   -0.1062980     0.5311283   -0.7326479     0.5298265   -0.7341878    -0.0787518   -0.0620436 
   0.164291071     0.0390682   -0.1049112     0.5268359   -0.7283392     0.5277030   -0.7332820    -0.0798027   -0.0588566 
   0.164391096     0.0381051   -0.1067131     0.5277517   -0.7334672     0.5261506   -0.7376146    -0.0796315   -0.0611962 
   0.164491121     0.0381740   -0.1055662     0.5270512   -0.7333182     0.5249871   -0.7338435    -0.0798916   -0.0612982 
   0.164591146     0.0388773   -0.1050673     0.5255345   -0.7339910     0.5262235   -0.7331927    -0.0800240   -0.0612750 
   0.164691171     0.0391975   -0.1064061     0.5247501   -0.7293180     0.5261123   -0.7379066    -0.0792076   -0.0580092 
   0.164791196     0.0394436   -0.1047915     0.5262703   -0.7326299     0.5275091   -0.7319400    -0.0786151   -0.0602784 
   0.164891221     0.0377940   -0.1044953     0.5244097   -0.7335817     0.5220612   -0.7322932    -0.0785702   -0.0603903 
   0.164991246     0.0376878   -0.1054426     0.5234200   -0.7327183     0.5220339   -0.7369232    -0.0791085   -0.0585963 
   0.165091271     0.0382837   -0.1057428     0.5233332   -0.7330244     0.5215684   -0.7371766    -0.0786187   -0.0590602 
   0.165191296     0.0367877   -0.1046073     0.5216540   -0.7357737     0.5178527   -0.7379136    -0.0795383   -0.0594112 
   0.165291321     0.0387330   -0.1036525     0.5186827   -0.7337630     0.5231423   -0.7345604    -0.0784644   -0.0586246 
   0.165391346     0.0391649   -0.1040386     0.5222465   -0.7332317     0.5226077   -0.7393625    -0.0779157   -0.0583347 
   0.165491371     0.0379508   -0.1046436     0.5180517   -0.7325582     0.5185911   -0.7384745    -0.0783079   -0.0567587 
   0.165591396     0.0379327   -0.1038674     0.5166197   -0.7383984     0.5191681   -0.7410082    -0.0810346   -0.0585776 
   0.165691421     0.0381617   -0.1045120     0.5183503   -0.7396998     0.5178112   -0.7400897    -0.0797356   -0.0605233 
   0.165791446     0.0387298   -0.1032904     0.5163377   -0.7378501     0.5190219   -0.7406285    -0.0805512   -0.0591018 
   0.165891471     0.0390028   -0.1026162     0.5204526   -0.7355310     0.5185796   -0.7378623    -0.0758484   -0.0584753 
   0.165991496     0.0386167   -0.1026626     0.5148687   -0.7366852     0.5186510   -0.7392054    -0.0788417   -0.0574255 
   0.166091521     0.0386190   -0.1036204     0.5156943   -0.7378063     0.5156666   -0.7413189    -0.0785348   -0.0586230 
   0.166191546     0.0384220   -0.1036356     0.5172341   -0.7387854     0.5161960   -0.7417021    -0.0780981   -0.0592462 
   0.166291571     0.0388431   -0.1011957     0.5140489   -0.7357798     0.5171325   -0.7364076    -0.0773477   -0.0568027 
   0.166391596     0.0391333   -0.1031584     0.5161991   -0.7392627     0.5165107   -0.7421212    -0.0781130   -0.0583620 
   0.166491621     0.0380453   -0.1034980     0.5176971   -0.7391582     0.5143020   -0.7461023    -0.0768884   -0.0585287 
   0.166591646     0.0386084   -0.1030756     0.5134078   -0.7384475     0.5142607   -0.7419471    -0.0776310   -0.0567694 
   0.166691671     0.0390553   -0.1021421     0.5113828   -0.7371861     0.5125871   -0.7415425    -0.0774584   -0.0556919 
   0.166791696     0.0387768   -0.1024565     0.5092534   -0.7412235     0.5110511   -0.7444713    -0.0799170   -0.0560366 
   0.166891721     0.0384848   -0.1025774     0.5124387   -0.7419955     0.5140111   -0.7460830    -0.0781480   -0.0578060 
   0.166991746     0.0392161   -0.1004649     0.5075591   -0.7406375     0.5127861   -0.7407561    -0.0785035   -0.0556281 
   0.167091771     0.0390844   -0.1013362     0.5039280   -0.7385145     0.5106912   -0.7450129    -0.0796631   -0.0537490 
   0.167191796     0.0387620   -0.1020640     0.5100047   -0.7390210     0.5083382   -0.7457361    -0.0772753   -0.0553513 
   0.167291821     0.0382766   -0.1021724     0.5109379   -0.7414948     0.5057769   -0.7445412    -0.0762982   -0.0569770 
   0.167391846     0.0388367   -0.1013394     0.5080659   -0.7446310     0.5087539   -0.7457163    -0.0786434   -0.0571777 
   0.167491871     0.0386086   -0.1007691     0.5091437   -0.7435886     0.5095204   -0.7450520    -0.0766151   -0.0571384 
   0.167591896     0.0386494   -0.1007451     0.5058503   -0.7440542     0.5076426   -0.7467935    -0.0789314   -0.0557282 
   0.167691921     0.0388826   -0.1015479     0.5076364   -0.7469582     0.5059633   -0.7464391    -0.0781215   -0.0582126 
   0.167791946     0.0394399   -0.1003148     0.5059059   -0.7415247     0.5092789   -0.7459726    -0.0757125   -0.0553890 
   0.167891971     0.0378741   -0.1005879     0.5068375   -0.7502615     0.5058634   -0.7456740    -0.0780288   -0.0592004 
   0.167991996     0.0387131   -0.1001022     0.5053747   -0.7408033     0.5017338   -0.7469300    -0.0748293   -0.0536254 
   0.168092021     0.0396267   -0.1007426     0.5035294   -0.7454930     0.5069625   -0.7495756    -0.0776845   -0.0549715 
   0.168192046     0.0386878   -0.1015295     0.5038307   -0.7437912     0.5010837   -0.7514850    -0.0754612   -0.0543466 
   0.168292071     0.0390903   -0.1002958     0.5006813   -0.7475122     0.5036609   -0.7483083    -0.0781305   -0.0554385 
   0.168392096     0.0377828   -0.0999446     0.5019813   -0.7459241     0.5025805   -0.7494942    -0.0758953   -0.0557341 
   0.168492121     0.0394242   -0.0993214     0.5022703   -0.7463999     0.5026375   -0.7502950    -0.0755877   -0.0550393 
   0.168592146     0.0393291   -0.0999615     0.5022714   -0.7469459     0.5016082   -0.7472020    -0.0745459   -0.0561177 
   0.168692171     0.0394073   -0.0983814     0.4972565   -0.7496992     0.5017906   -0.7500320    -0.0786076   -0.0542225 
   0.168792196     0.0389696   -0.0993610     0.4998373   -0.7486804     0.4998823   -0.7474762    -0.0758777   -0.0552719 
   0.168892221     0.0378914   -0.0987410     0.4997636   -0.7507294     0.5027183   -0.7498085    -0.0762450   -0.0560549 
   0.168992246     0.0382110   -0.0995793     0.5016350   -0.7478204     0.4988812   -0.7513880    -0.0745817   -0.0553046 
   0.169092271     0.0387062   -0.0980709     0.4949536   -0.7454878     0.4977491   -0.7504439    -0.0755403   -0.0517160 
   0.169192296     0.0381792   -0.0992932     0.5000174   -0.7497329     0.4966917   -0.7518151    -0.0755235   -0.0557317 
   0.169292321     0.0390052   -0.0992073     0.4949509   -0.7453163     0.4960550   -0.7522653    -0.0747299   -0.0513586 
   0.169392346     0.0392074   -0.0999013     0.4966190   -0.7505913     0.4966358   -0.7554790    -0.0750693   -0.0549204 
   0.169492371     0.0388900   -0.0979251     0.4965062   -0.7516005     0.4957061   -0.7512786    -0.0752882   -0.0544774 
   0.169592396     0.0394283   -0.0975725     0.4956731   -0.7506692     0.4952938   -0.7534111    -0.0750160   -0.0539538 
   0.169692421     0.0389154   -0.0973174     0.4967717   -0.7524343     0.4943360   -0.7524962    -0.0751069   -0.0551170 
   0.169792446     0.0391808   -0.0988029     0.4910356   -0.7508625     0.4956526   -0.7544689    -0.0756549   -0.0527564 
   0.169892471     0.0380293   -0.0985669     0.4940112   -0.7489240     0.4937309   -0.7567039    -0.0741578   -0.0525063 
   0.169992496     0.0394066   -0.0974487     0.4939847   -0.7485883     0.4924634   -0.7544610    -0.0728103   -0.0525752 
   0.170092521     0.0403030   -0.0975233     0.4936136   -0.7565120     0.4946221   -0.7561563    -0.0762366   -0.0557721 
   0.170192546     0.0387552   -0.0984339     0.4909794   -0.7553803     0.4942579   -0.7560040    -0.0760891   -0.0533650 
   0.170292571     0.0379093   -0.0963135     0.4907891   -0.7542421     0.4888674   -0.7537396    -0.0752173   -0.0531587 
   0.170392596     0.0397813   -0.0981288     0.4938357   -0.7527570     0.4900152   -0.7586477    -0.0728977   -0.0534784 
   0.170492621     0.0383630   -0.0968629     0.4884803   -0.7577016     0.4885944   -0.7558942    -0.0773163   -0.0532925 
   0.170592646     0.0391420   -0.0966687     0.4867917   -0.7536083     0.4906234   -0.7563535    -0.0750775   -0.0518279 
   0.170692671     0.0392399   -0.0972731     0.4883268   -0.7532972     0.4897073   -0.7589155    -0.0738302   -0.0521749 
   0.170792696     0.0389023   -0.0963744     0.4871460   -0.7557057     0.4864019   -0.7556648    -0.0743312   -0.0520544 
   0.170892721     0.0393873   -0.0971434     0.4854957   -0.7561360     0.4874991   -0.7560228    -0.0745786   -0.0519722 
   0.170992746     0.0395321   -0.0965246     0.4868215   -0.7588554     0.4865357   -0.7606506    -0.0756662   -0.0533807 
   0.171092771     0.0400412   -0.0955826     0.4852254   -0.7550617     0.4873415   -0.7578638    -0.0740198   -0.0517186 
   0.171192796     0.0387006   -0.0958197     0.4836520   -0.7588719     0.4834326   -0.7581648    -0.0757209   -0.0519460 
   0.171292821     0.0387901   -0.0967796     0.4826542   -0.7578098     0.4882126   -0.7610876    -0.0753537   -0.0514959 
   0.171392846     0.0391242   -0.0964018     0.4844157   -0.7575465     0.4854202   -0.7622110    -0.0735537   -0.0515485 
   0.171492871     0.0385897   -0.0942896     0.4820303   -0.7593948     0.4836697   -0.7586836    -0.0752216   -0.0513338 
   0.171592896     0.0396526   -0.0956236     0.4850569   -0.7576320     0.4839140   -0.7613232    -0.0726408   -0.0528303 
   0.171692921     0.0394198   -0.0957386     0.4832243   -0.7604412     0.4830329   -0.7614108    -0.0731792   -0.0523304 
   0.171792946     0.0395566   -0.0963237     0.4819633   -0.7576936     0.4848765   -0.7647119    -0.0735760   -0.0517016 
   0.171892971     0.0386081   -0.0948892     0.4822664   -0.7552432     0.4806571   -0.7637635    -0.0718265   -0.0512430 
   0.171992996     0.0395549   -0.0955269     0.4843142   -0.7594847     0.4809667   -0.7640337    -0.0720788   -0.0533381 
   0.172093022     0.0389093   -0.0945482     0.4843154   -0.7605810     0.4801083   -0.7632678    -0.0723326   -0.0534216 
   0.172193047     0.0391139   -0.0968697     0.4814824   -0.7624287     0.4813462   -0.7664834    -0.0734783   -0.0534269 
   0.172293072     0.0396783   -0.0963989     0.4766833   -0.7608822     0.4808023   -0.7629996    -0.0737875   -0.0505317 
   0.172393097     0.0401653   -0.0948016     0.4776943   -0.7626035     0.4781958   -0.7623703    -0.0729783   -0.0518163 
   0.172493122     0.0400827   -0.0953502     0.4746417   -0.7601845     0.4799083   -0.7638866    -0.0732074   -0.0491590 
   0.172593147     0.0391031   -0.0945613     0.4762258   -0.7645153     0.4783972   -0.7655420    -0.0739510   -0.0517611 
   0.172693172     0.0402572   -0.0945713     0.4784051   -0.7602387     0.4747304   -0.7655134    -0.0718820   -0.0505781 
   0.172793197     0.0398259   -0.0948398     0.4762377   -0.7629366     0.4755673   -0.7668426    -0.0724751   -0.0505709 
   0.172893222     0.0394115   -0.0945558     0.4773205   -0.7612587     0.4745887   -0.7637607    -0.0705676   -0.0514501 
   0.172993247     0.0395685   -0.0933120     0.4750420   -0.7655379     0.4716760   -0.7637387    -0.0727507   -0.0510369 
   0.173093272     0.0390170   -0.0939422     0.4732994   -0.7628039     0.4725694   -0.7676550    -0.0725889   -0.0491383 
   0.173193297     0.0398053   -0.0928288     0.4749012   -0.7637504     0.4728836   -0.7651026    -0.0710940   -0.0514093 
   0.173293322     0.0397128   -0.0945149     0.4737048   -0.7662804     0.4731993   -0.7670987    -0.0729820   -0.0507790 
   0.173393347     0.0397564   -0.0932780     0.4723162   -0.7659704     0.4721362   -0.7663773    -0.0719571   -0.0501560 
   0.173493372     0.0390919   -0.0929185     0.4709154   -0.7654689     0.4730949   -0.7669354    -0.0717468   -0.0496071 
   0.173593397     0.0399281   -0.0931555     0.4723151   -0.7672580     0.4725811   -0.7669625    -0.0719959   -0.0515489 
   0.173693422     0.0394126   -0.0932912     0.4677835   -0.7699567     0.4711739   -0.7672406    -0.0743324   -0.0494130 
   0.173793447     0.0395517   -0.0922517     0.4706429   -0.7638058     0.4738717   -0.7657554    -0.0693505   -0.0496840 
   0.173893472     0.0404360   -0.0922036     0.4646558   -0.7681422     0.4693197   -0.7675304    -0.0731491   -0.0478407 
   0.173993497     0.0397704   -0.0924121     0.4752487   -0.7678711     0.4673649   -0.7678416    -0.0707370   -0.0527096 
   0.174093522     0.0394735   -0.0938401     0.4711933   -0.7706727     0.4686334   -0.7701154    -0.0720548   -0.0523695 
   0.174193547     0.0392324   -0.0925674     0.4713917   -0.7685162     0.4661896   -0.7703955    -0.0710704   -0.0513685 
   0.174293572     0.0396086   -0.0918167     0.4662510   -0.7700756     0.4666595   -0.7690751    -0.0720355   -0.0484080 
   0.174393597     0.0414254   -0.0928483     0.4691221   -0.7690703     0.4676992   -0.7692411    -0.0707322   -0.0503813 
   0.174493622     0.0390916   -0.0920037     0.4690138   -0.7720984     0.4685912   -0.7700947    -0.0715754   -0.0518149 
   0.174593647     0.0405051   -0.0917504     0.4648837   -0.7718495     0.4653898   -0.7702132    -0.0718874   -0.0491233 
   0.174693672     0.0392990   -0.0915911     0.4628459   -0.7696638     0.4667847   -0.7736256    -0.0718221   -0.0484155 
   0.174793697     0.0397387   -0.0914091     0.4657270   -0.7716997     0.4619744   -0.7699789    -0.0709863   -0.0505370 
   0.174893722     0.0399432   -0.0909876     0.4619739   -0.7688642     0.4642852   -0.7720941    -0.0699137   -0.0479972 
   0.174993747     0.0392619   -0.0919413     0.4651155   -0.7724048     0.4610340   -0.7714189    -0.0705237   -0.0501584 
   0.175093772     0.0400583   -0.0914418     0.4650443   -0.7707388     0.4608254   -0.7722528    -0.0691485   -0.0508562 
   0.175193797     0.0393038   -0.0914377     0.4629926   -0.7701655     0.4598394   -0.7738655    -0.0695879   -0.0488214 
   0.175293822     0.0395243   -0.0903645     0.4595416   -0.7755211     0.4606879   -0.7749979    -0.0724271   -0.0487619 
   0.175393847     0.0395506   -0.0908376     0.4594490   -0.7745864     0.4622182   -0.7744508    -0.0709338   -0.0485849 
   0.175493872     0.0398381   -0.0904925     0.4605037   -0.7722383     0.4599797   -0.7735022    -0.0699823   -0.0489820 
   0.175593897     0.0408826   -0.0914084     0.4628116   -0.7753161     0.4623297   -0.7731751    -0.0710388   -0.0503771 
   0.175693922     0.0403204   -0.0905164     0.4598422   -0.7731732     0.4585451   -0.7720484    -0.0692098   -0.0490873 
   0.175793947     0.0412780   -0.0899442     0.4585426   -0.7729692     0.4577405   -0.7727874    -0.0684439   -0.0483350 
   0.175893972     0.0407061   -0.0910099     0.4602721   -0.7765214     0.4607705   -0.7723194    -0.0699467   -0.0500871 
   0.175993997     0.0397409   -0.0908247     0.4580598   -0.7758023     0.4562063   -0.7734514    -0.0699975   -0.0492835 
   0.176094022     0.0400029   -0.0907324     0.4583129   -0.7759275     0.4583489   -0.7767699    -0.0696133   -0.0493883 
   0.176194047     0.0403797   -0.0903556     0.4553673   -0.7729996     0.4540391   -0.7750889    -0.0680966   -0.0472987 
   0.176294072     0.0419328   -0.0892834     0.4564292   -0.7718623     0.4537418   -0.7755280    -0.0670820   -0.0485607 
   0.176394097     0.0406863   -0.0899790     0.4605315   -0.7755323     0.4551766   -0.7756523    -0.0688608   -0.0508546 
   0.176494122     0.0404761   -0.0887649     0.4530435   -0.7735164     0.4551070   -0.7767420    -0.0679271   -0.0471322 
   0.176594147     0.0410439   -0.0905515     0.4524777   -0.7774850     0.4550295   -0.7776565    -0.0684163   -0.0476123 
   0.176694172     0.0414610   -0.0889325     0.4558340   -0.7738768     0.4540138   -0.7754499    -0.0669450   -0.0488526 
   0.176794197     0.0399240   -0.0893705     0.4538234   -0.7766059     0.4532679   -0.7776471    -0.0685147   -0.0485918 
   0.176894222     0.0409760   -0.0898918     0.4530292   -0.7800763     0.4530237   -0.7776498    -0.0698246   -0.0483203 
   0.176994247     0.0409551   -0.0891090     0.4529591   -0.7781032     0.4529265   -0.7787359    -0.0683815   -0.0489766 
   0.177094272     0.0415915   -0.0878193     0.4504486   -0.7771780     0.4492379   -0.7759855    -0.0674358   -0.0470310 
   0.177194297     0.0408524   -0.0898012     0.4511600   -0.7807398     0.4467230   -0.7794587    -0.0693217   -0.0478872 
   0.177294322     0.0405614   -0.0900081     0.4513158   -0.7804990     0.4508510   -0.7799805    -0.0690510   -0.0487502 
   0.177394347     0.0406284   -0.0884156     0.4478237   -0.7794608     0.4492635   -0.7802820    -0.0683764   -0.0464641 
   0.177494372     0.0407539   -0.0886881     0.4497464   -0.7793081     0.4459562   -0.7811701    -0.0675326   -0.0479727 
   0.177594397     0.0411143   -0.0888571     0.4493662   -0.7786517     0.4488544   -0.7816987    -0.0672002   -0.0480423 
   0.177694422     0.0405190   -0.0887816     0.4469531   -0.7807953     0.4464216   -0.7820951    -0.0682467   -0.0468901 
   0.177794447     0.0413980   -0.0873752     0.4454689   -0.7798582     0.4460649   -0.7790963    -0.0668916   -0.0469920 
   0.177894472     0.0412373   -0.0885153     0.4457171   -0.7794458     0.4467351   -0.7784083    -0.0662925   -0.0475328 
   0.177994497     0.0402198   -0.0881459     0.4453468   -0.7843733     0.4432742   -0.7812742    -0.0695264   -0.0464093 
   0.178094522     0.0416164   -0.0871932     0.4455375   -0.7779293     0.4424695   -0.7819673    -0.0649143   -0.0464278 
   0.178194547     0.0405076   -0.0877099     0.4462988   -0.7777492     0.4416535   -0.7841516    -0.0650915   -0.0481817 
   0.178294572     0.0415444   -0.0868496     0.4487362   -0.7810335     0.4427770   -0.7822675    -0.0665423   -0.0502961 
   0.178394597     0.0409902   -0.0871459     0.4458448   -0.7826196     0.4429598   -0.7818705    -0.0672267   -0.0484515 
   0.178494622     0.0405907   -0.0875889     0.4420241   -0.7845677     0.4424063   -0.7851728    -0.0678850   -0.0466761 
   0.178594647     0.0404330   -0.0878834     0.4454339   -0.7826591     0.4421774   -0.7854108    -0.0666141   -0.0485362 
   0.178694672     0.0413653   -0.0877412     0.4415472   -0.7855678     0.4399922   -0.7843254    -0.0678133   -0.0465354 
   0.178794697     0.0402314   -0.0880097     0.4388945   -0.7861822     0.4421021   -0.7854801    -0.0681330   -0.0456572 
   0.178894722     0.0409535   -0.0866914     0.4406837   -0.7812933     0.4381986   -0.7838580    -0.0648738   -0.0463692 
   0.178994747     0.0412353   -0.0864847     0.4371079   -0.7817918     0.4377856   -0.7827330    -0.0646334   -0.0454618 
   0.179094772     0.0408782   -0.0864848     0.4364592   -0.7833855     0.4394642   -0.7841353    -0.0648554   -0.0451948 
   0.179194797     0.0416097   -0.0866940     0.4393814   -0.7858199     0.4410846   -0.7824304    -0.0665446   -0.0475768 
   0.179294822     0.0428876   -0.0870167     0.4410741   -0.7860016     0.4368684   -0.7843032    -0.0662815   -0.0478210 
   0.179394847     0.0409647   -0.0867386     0.4352335   -0.7863073     0.4363045   -0.7852904    -0.0660864   -0.0448720 
   0.179494872     0.0416695   -0.0861786     0.4346898   -0.7861093     0.4349943   -0.7856764    -0.0655321   -0.0456018 
   0.179594897     0.0418037   -0.0868954     0.4357079   -0.7855794     0.4362284   -0.7888814    -0.0652795   -0.0465507 
   0.179694922     0.0419959   -0.0859122     0.4371147   -0.7879727     0.4355817   -0.7901005    -0.0671407   -0.0467632 
   0.179794947     0.0416869   -0.0859387     0.4346681   -0.7875808     0.4373568   -0.7859751    -0.0656715   -0.0465215 
   0.179894972     0.0414144   -0.0859813     0.4350775   -0.7872939     0.4346087   -0.7867490    -0.0649612   -0.0465941 
   0.179994997     0.0410086   -0.0856420     0.4326401   -0.7883988     0.4307544   -0.7870048    -0.0654196   -0.0450178 
   0.180095023     0.0418066   -0.0862672     0.4341180   -0.7859838     0.4317784   -0.7892026    -0.0641533   -0.0467403 
   0.180195048     0.0418367   -0.0857330     0.4328753   -0.7893245     0.4318759   -0.7849783    -0.0660730   -0.0465770 
   0.180295073     0.0425256   -0.0865690     0.4343370   -0.7884384     0.4306399   -0.7847652    -0.0649598   -0.0458492 
   0.180395098     0.0419835   -0.0857119     0.4312046   -0.7855996     0.4298240   -0.7913081    -0.0631570   -0.0461964 
   0.180495123     0.0426643   -0.0848797     0.4298192   -0.7863731     0.4306727   -0.7885506    -0.0626998   -0.0457381 
   0.180595148     0.0415536   -0.0849592     0.4279611   -0.7896582     0.4258889   -0.7864394    -0.0643476   -0.0442395 
   0.180695173     0.0423160   -0.0848654     0.4294528   -0.7930254     0.4283790   -0.7899173    -0.0662292   -0.0460051 
   0.180795198     0.0428403   -0.0855809     0.4331475   -0.7866998     0.4278682   -0.7864206    -0.0632566   -0.0485604 
   0.180895223     0.0421707   -0.0849985     0.4278670   -0.7885195     0.4268813   -0.7907360    -0.0637787   -0.0460995 
   0.180995248     0.0421990   -0.0844722     0.4265537   -0.7919714     0.4267595   -0.7921723    -0.0648791   -0.0439773 
   0.181095273     0.0427245   -0.0855446     0.4273030   -0.7921579     0.4280812   -0.7896223    -0.0635612   -0.0458100 
   0.181195298     0.0415029   -0.0846041     0.4283570   -0.7932134     0.4264944   -0.7926839    -0.0659214   -0.0467914 
   0.181295323     0.0425461   -0.0853781     0.4285286   -0.7921855     0.4239097   -0.7911085    -0.0648862   -0.0465371 
   0.181395348     0.0423086   -0.0845578     0.4240947   -0.7948039     0.4239900   -0.7904513    -0.0649750   -0.0444698 
   0.181495373     0.0422150   -0.0844026     0.4221006   -0.7949692     0.4241738   -0.7934620    -0.0646779   -0.0434259 
   0.181595398     0.0427216   -0.0847056     0.4212661   -0.7932481     0.4227129   -0.7909505    -0.0638423   -0.0447038 
   0.181695423     0.0413724   -0.0838491     0.4238735   -0.7938018     0.4219435   -0.7927229    -0.0646244   -0.0452288 
   0.181795448     0.0421895   -0.0846849     0.4219796   -0.7949070     0.4267397   -0.7943810    -0.0641686   -0.0453030 
   0.181895473     0.0422735   -0.0848078     0.4234211   -0.7931470     0.4226036   -0.7944366    -0.0637070   -0.0464157 
   0.181995498     0.0417534   -0.0845177     0.4237622   -0.7982600     0.4207984   -0.7943420    -0.0659022   -0.0449648 
   0.182095523     0.0424504   -0.0856792     0.4210413   -0.7933338     0.4240959   -0.7930415    -0.0623514   -0.0457403 
   0.182195548     0.0418428   -0.0835683     0.4223629   -0.7953877     0.4183245   -0.7966424    -0.0643186   -0.0460932 
   0.182295573     0.0424924   -0.0839891     0.4187363   -0.7939419     0.4198925   -0.7943313    -0.0621326   -0.0448427 
   0.182395598     0.0425304   -0.0826142     0.4201913   -0.7928306     0.4178804   -0.7938025    -0.0614919   -0.0462737 
   0.182495623     0.0423566   -0.0830356     0.4224590   -0.7959427     0.4183983   -0.7975779    -0.0640373   -0.0474021 
   0.182595648     0.0427711   -0.0832531     0.4153523   -0.7929870     0.4188383   -0.7945653    -0.0607100   -0.0450875 
   0.182695673     0.0431005   -0.0836765     0.4178952   -0.7950761     0.4178421   -0.7946057    -0.0631114   -0.0452498 
   0.182795698     0.0421169   -0.0840720     0.4143581   -0.7977837     0.4173352   -0.7959711    -0.0628018   -0.0432192 
   0.182895723     0.0420895   -0.0823092     0.4161224   -0.7964386     0.4170071   -0.7962540    -0.0627059   -0.0448091 
   0.182995748     0.0435636   -0.0827972     0.4157196   -0.7976256     0.4156916   -0.7960054    -0.0622250   -0.0449480 
   0.183095773     0.0428406   -0.0830351     0.4141141   -0.7980488     0.4142268   -0.7954280    -0.0627689   -0.0446407 
   0.183195798     0.0434790   -0.0821679     0.4135562   -0.7960780     0.4141882   -0.7970243    -0.0615545   -0.0439259 
   0.183295823     0.0417015   -0.0812992     0.4117714   -0.7965053     0.4144864   -0.7993459    -0.0608202   -0.0446859 
   0.183395848     0.0439032   -0.0835311     0.4166732   -0.7996718     0.4135352   -0.7982501    -0.0634802   -0.0457690 
   0.183495873     0.0440180   -0.0823638     0.4084919   -0.7975784     0.4136137   -0.7954556    -0.0603823   -0.0435291 
   0.183595898     0.0428632   -0.0823384     0.4125928   -0.7998970     0.4130039   -0.7968041    -0.0624989   -0.0449735 
   0.183695923     0.0432587   -0.0818806     0.4128751   -0.7973765     0.4113739   -0.7995827    -0.0620450   -0.0456344 
   0.183795948     0.0435461   -0.0821617     0.4082943   -0.7984537     0.4087289   -0.7987292    -0.0610531   -0.0440435 
   0.183895973     0.0428093   -0.0824964     0.4101041   -0.7984546     0.4098982   -0.7947037    -0.0605868   -0.0450974 
   0.183995998     0.0431342   -0.0825870     0.4084874   -0.8010406     0.4123303   -0.7983500    -0.0619314   -0.0446034 
   0.184096023     0.0424233   -0.0825121     0.4094726   -0.8040529     0.4113995   -0.7981883    -0.0638955   -0.0441790 
   0.184196048     0.0441691   -0.0812617     0.4115729   -0.8028679     0.4059971   -0.8008446    -0.0635180   -0.0451045 
   0.184296073     0.0436481   -0.0815026     0.4085104   -0.8036593     0.4077679   -0.7995203    -0.0625671   -0.0442138 
   0.184396098     0.0440678   -0.0816431     0.4059847   -0.7987251     0.4087627   -0.7979173    -0.0593924   -0.0450491 
   0.184496123     0.0444392   -0.0812982     0.4040328   -0.8014786     0.4066117   -0.7993129    -0.0600415   -0.0434251 
   0.184596148     0.0431717   -0.0810656     0.4080790   -0.8043760     0.4034905   -0.8004423    -0.0631291   -0.0443284 
   0.184696173     0.0438925   -0.0817706     0.4033796   -0.8049520     0.4055087   -0.8006767    -0.0622242   -0.0430677 
   0.184796198     0.0432134   -0.0814721     0.4046482   -0.8039126     0.4052044   -0.8021868    -0.0615095   -0.0436993 
   0.184896223     0.0433188   -0.0814439     0.4067042   -0.8001059     0.4054509   -0.8007771    -0.0597987   -0.0460136 
   0.184996248     0.0428382   -0.0810185     0.4038714   -0.8032995     0.4046940   -0.8021792    -0.0615211   -0.0448824 
   0.185096273     0.0439346   -0.0799874     0.3977520   -0.8028399     0.4004243   -0.8022898    -0.0588482   -0.0411015 
   0.185196298     0.0435764   -0.0812734     0.4027469   -0.8077313     0.4021734   -0.8059633    -0.0626037   -0.0425916 
   0.185296323     0.0431181   -0.0815082     0.4022298   -0.8053761     0.4024453   -0.8018959    -0.0618675   -0.0442730 
   0.185396348     0.0429653   -0.0794052     0.4007737   -0.8043817     0.4007582   -0.8059987    -0.0613368   -0.0443985 
   0.185496373     0.0432971   -0.0813640     0.4009938   -0.8049196     0.4025552   -0.8029913    -0.0615153   -0.0443313 
   0.185596398     0.0432152   -0.0788308     0.3970396   -0.8049072     0.3993419   -0.8042879    -0.0597473   -0.0426156 
   0.185696423     0.0443056   -0.0808400     0.3992712   -0.8053662     0.4006163   -0.8010690    -0.0605449   -0.0440589 
   0.185796448     0.0434689   -0.0799968     0.3995303   -0.8025404     0.4004986   -0.8071075    -0.0604300   -0.0449671 
   0.185896473     0.0442974   -0.0795135     0.3982777   -0.8031907     0.3961629   -0.8050954    -0.0592186   -0.0447535 
   0.185996498     0.0426356   -0.0795631     0.3945636   -0.8059036     0.4003783   -0.8013268    -0.0589006   -0.0435122 
   0.186096523     0.0431200   -0.0802380     0.3990197   -0.8054827     0.3990715   -0.8054286    -0.0601684   -0.0449242 
   0.186196548     0.0423842   -0.0803415     0.3956025   -0.8067548     0.3986986   -0.8063494    -0.0605651   -0.0434782 
   0.186296573     0.0449658   -0.0802768     0.3974479   -0.8075345     0.3975137   -0.8031448    -0.0605401   -0.0441152 
   0.186396598     0.0444262   -0.0795506     0.3942557   -0.8098878     0.3957205   -0.8033267    -0.0598266   -0.0420378 
   0.186496623     0.0429312   -0.0800777     0.3940424   -0.8070780     0.3946358   -0.8070156    -0.0597540   -0.0436336 
   0.186596648     0.0439167   -0.0809895     0.3959207   -0.8131040     0.3960677   -0.8034956    -0.0631334   -0.0430171 
   0.186696673     0.0444596   -0.0793099     0.3947388   -0.8097921     0.3933926   -0.8044035    -0.0602321   -0.0427430 
   0.186796698     0.0454586   -0.0797436     0.3953092   -0.8098771     0.3907501   -0.8049339    -0.0608428   -0.0441226 
   0.186896723     0.0439369   -0.0789374     0.3908729   -0.8092433     0.3945266   -0.8061829    -0.0592559   -0.0431099 
   0.186996748     0.0435831   -0.0788687     0.3918189   -0.8111081     0.3907378   -0.8039201    -0.0598661   -0.0426211 
   0.187096773     0.0438602   -0.0794424     0.3870011   -0.8107280     0.3902889   -0.8038984    -0.0581563   -0.0413569 
   0.187196798     0.0435097   -0.0796364     0.3882773   -0.8108540     0.3921697   -0.8055339    -0.0591936   -0.0427825 
   0.187296823     0.0427872   -0.0791568     0.3900830   -0.8130925     0.3912705   -0.8098448    -0.0610694   -0.0437341 
   0.187396848     0.0453361   -0.0785159     0.3902236   -0.8070934     0.3880139   -0.8064337    -0.0575012   -0.0456080 
   0.187496873     0.0427615   -0.0785307     0.3849577   -0.8115696     0.3916971   -0.8095574    -0.0585787   -0.0415813 
   0.187596898     0.0444966   -0.0790959     0.3919328   -0.8130884     0.3894320   -0.8079367    -0.0612733   -0.0437750 
   0.187696923     0.0441242   -0.0782080     0.3882281   -0.8103133     0.3879146   -0.8097629    -0.0595546   -0.0443143 
   0.187796948     0.0447494   -0.0788177     0.3879959   -0.8119047     0.3878449   -0.8088326    -0.0597032   -0.0441556 
   0.187896973     0.0437208   -0.0785055     0.3872918   -0.8080720     0.3876487   -0.8100902    -0.0583108   -0.0458992 
   0.187996998     0.0452474   -0.0781602     0.3861160   -0.8101516     0.3852246   -0.8082267    -0.0581552   -0.0441897 
   0.188097024     0.0436727   -0.0774476     0.3787064   -0.8127264     0.3847846   -0.8094887    -0.0563284   -0.0407092 
   0.188197049     0.0442112   -0.0783402     0.3846487   -0.8130912     0.3861650   -0.8074155    -0.0593774   -0.0434250 
   0.188297074     0.0444290   -0.0773550     0.3834620   -0.8131212     0.3840582   -0.8129628    -0.0589047   -0.0427270 
   0.188397099     0.0437515   -0.0776832     0.3842460   -0.8157823     0.3829090   -0.8106488    -0.0610544   -0.0425406 
   0.188497124     0.0450776   -0.0779362     0.3810134   -0.8133276     0.3828054   -0.8106222    -0.0571445   -0.0432727 
   0.188597149     0.0428382   -0.0780921     0.3829506   -0.8156235     0.3854221   -0.8124800    -0.0595284   -0.0427458 
   0.188697174     0.0448384   -0.0782247     0.3839437   -0.8146088     0.3835879   -0.8094967    -0.0590594   -0.0431955 
   0.188797199     0.0453985   -0.0784181     0.3815750   -0.8122034     0.3812864   -0.8079807    -0.0574725   -0.0448714 
   0.188897224     0.0440491   -0.0766668     0.3818854   -0.8153948     0.3801805   -0.8133690    -0.0593873   -0.0434083 
   0.188997249     0.0435527   -0.0774566     0.3802858   -0.8151292     0.3811647   -0.8133336    -0.0586775   -0.0436860 
   0.189097274     0.0437687   -0.0779548     0.3817424   -0.8151338     0.3812806   -0.8125823    -0.0598281   -0.0442820 
   0.189197299     0.0441382   -0.0769797     0.3769213   -0.8142585     0.3829352   -0.8131621    -0.0571736   -0.0436942 
   0.189297324     0.0446500   -0.0772169     0.3771223   -0.8163800     0.3794899   -0.8098764    -0.0580186   -0.0427850 
   0.189397349     0.0443553   -0.0766569     0.3722308   -0.8174151     0.3785595   -0.8143741    -0.0564712   -0.0404320 
   0.189497374     0.0443555   -0.0770637     0.3767127   -0.8148723     0.3820509   -0.8146512    -0.0576733   -0.0444354 
   0.189597399     0.0438443   -0.0759875     0.3761257   -0.8151445     0.3813216   -0.8141368    -0.0579030   -0.0442855 
   0.189697424     0.0439158   -0.0766758     0.3719085   -0.8182782     0.3777165   -0.8126967    -0.0568738   -0.0411770 
   0.189797449     0.0444974   -0.0763222     0.3726999   -0.8197657     0.3766924   -0.8137140    -0.0570091   -0.0418886 
   0.189897474     0.0437536   -0.0765835     0.3775198   -0.8191319     0.3743018   -0.8166153    -0.0604820   -0.0428308 
   0.189997499     0.0445461   -0.0754452     0.3705384   -0.8177209     0.3753414   -0.8185654    -0.0557899   -0.0415405 
   0.190097524     0.0436138   -0.0764694     0.3718923   -0.8197938     0.3752323   -0.8152214    -0.0578965   -0.0417982 
   0.190197549     0.0437418   -0.0759857     0.3739369   -0.8178799     0.3745503   -0.8181441    -0.0583086   -0.0426303 
   0.190297574     0.0439403   -0.0766598     0.3715217   -0.8203297     0.3776967   -0.8165765    -0.0578169   -0.0420338 
   0.190397599     0.0455555   -0.0760570     0.3737749   -0.8213207     0.3681358   -0.8152745    -0.0589719   -0.0421821 
   0.190497624     0.0450544   -0.0772978     0.3705584   -0.8254083     0.3696469   -0.8147264    -0.0601153   -0.0392791 
   0.190597649     0.0450083   -0.0767271     0.3699362   -0.8250639     0.3719012   -0.8172277    -0.0586960   -0.0400114 
   0.190697674     0.0451965   -0.0758076     0.3672976   -0.8195028     0.3696018   -0.8162850    -0.0556084   -0.0428224 
   0.190797699     0.0445397   -0.0754204     0.3661854   -0.8169819     0.3702297   -0.8152418    -0.0551826   -0.0438868 
   0.190897724     0.0450116   -0.0768822     0.3680803   -0.8204974     0.3709330   -0.8135622    -0.0570013   -0.0421422 
   0.190997749     0.0450028   -0.0753816     0.3708395   -0.8171781     0.3690873   -0.8195848    -0.0576784   -0.0449104 
   0.191097774     0.0448421   -0.0753901     0.3666580   -0.8213166     0.3671153   -0.8205672    -0.0574068   -0.0424505 
   0.191197799     0.0449348   -0.0755147     0.3652436   -0.8189572     0.3706758   -0.8176792    -0.0554725   -0.0431090 
   0.191297824     0.0443895   -0.0747182     0.3675396   -0.8245663     0.3667484   -0.8197766    -0.0591398   -0.0413376 
   0.191397849     0.0446800   -0.0757048     0.3635058   -0.8230434     0.3668815   -0.8180791    -0.0563514   -0.0406017 
   0.191497874     0.0458939   -0.0746642     0.3609576   -0.8198645     0.3659347   -0.8208789    -0.0546838   -0.0428717 
   0.191597899     0.0450520   -0.0758384     0.3604642   -0.8218043     0.3664429   -0.8164150    -0.0549641   -0.0415179 
   0.191697924     0.0447619   -0.0749838     0.3650061   -0.8210924     0.3661985   -0.8195952    -0.0576689   -0.0433325 
   0.191797949     0.0448564   -0.0740456     0.3619297   -0.8239325     0.3648201   -0.8194762    -0.0563357   -0.0417652 
   0.191897974     0.0448110   -0.0758015     0.3596891   -0.8231475     0.3650131   -0.8186022    -0.0548243   -0.0418968 
   0.191997999     0.0446999   -0.0746480     0.3616487   -0.8232357     0.3629064   -0.8205549    -0.0571344   -0.0431025 
   0.192098024     0.0447348   -0.0754094     0.3607296   -0.8246474     0.3641941   -0.8199266    -0.0561249   -0.0415034 
   0.192198049     0.0448982   -0.0752558     0.3629970   -0.8259774     0.3622777   -0.8215991    -0.0593521   -0.0418558 
   0.192298074     0.0442984   -0.0736562     0.3611289   -0.8237483     0.3630142   -0.8229747    -0.0577731   -0.0423463 
   0.192398099     0.0442457   -0.0747405     0.3607905   -0.8252945     0.3649552   -0.8194204    -0.0573073   -0.0419884 
   0.192498124     0.0446893   -0.0736432     0.3606417   -0.8252478     0.3613234   -0.8212399    -0.0581119   -0.0424927 
   0.192598149     0.0435625   -0.0742289     0.3573772   -0.8251773     0.3637207   -0.8213832    -0.0560744   -0.0424984 
   0.192698174     0.0439900   -0.0741179     0.3588519   -0.8252255     0.3628509   -0.8205680    -0.0574177   -0.0423484 
   0.192798199     0.0451147   -0.0720066     0.3555533   -0.8268067     0.3588407   -0.8255981    -0.0565264   -0.0415318 
   0.192898224     0.0450402   -0.0742226     0.3554858   -0.8272322     0.3562698   -0.8219816    -0.0563831   -0.0404810 
   0.192998249     0.0443747   -0.0737788     0.3522020   -0.8261403     0.3592376   -0.8208690    -0.0545494   -0.0422607 
   0.193098274     0.0459027   -0.0727632     0.3580490   -0.8277332     0.3545034   -0.8235044    -0.0586259   -0.0422260 
   0.193198299     0.0453574   -0.0739108     0.3591371   -0.8257827     0.3578403   -0.8235269    -0.0590908   -0.0437658 
   0.193298324     0.0443513   -0.0728642     0.3535258   -0.8287548     0.3601622   -0.8259112    -0.0566043   -0.0412566 
   0.193398349     0.0447406   -0.0738214     0.3527541   -0.8272363     0.3560395   -0.8261084    -0.0558325   -0.0423706 
   0.193498374     0.0452212   -0.0731041     0.3545544   -0.8276249     0.3546028   -0.8253274    -0.0576635   -0.0421072 
   0.193598399     0.0450485   -0.0727200     0.3534026   -0.8261826     0.3542465   -0.8261287    -0.0567891   -0.0428275 
   0.193698424     0.0449109   -0.0725296     0.3511274   -0.8247535     0.3552406   -0.8218759    -0.0556427   -0.0441124 
   0.193798449     0.0441041   -0.0725693     0.3506808   -0.8296031     0.3562951   -0.8273069    -0.0564964   -0.0418812 
   0.193898474     0.0441942   -0.0734834     0.3521661   -0.8282939     0.3581758   -0.8227620    -0.0566543   -0.0424576 
   0.193998499     0.0447502   -0.0720160     0.3495081   -0.8288080     0.3530989   -0.8296320    -0.0564498   -0.0419831 
   0.194098524     0.0450147   -0.0729622     0.3520443   -0.8291985     0.3533654   -0.8240333    -0.0573412   -0.0421731 
   0.194198549     0.0438854   -0.0731052     0.3480878   -0.8311917     0.3552553   -0.8253231    -0.0559002   -0.0408758 
   0.194298574     0.0449109   -0.0734887     0.3503928   -0.8303746     0.3509835   -0.8242612    -0.0574500   -0.0416811 
   0.194398599     0.0445854   -0.0719438     0.3506209   -0.8310008     0.3516414   -0.8264475    -0.0573105   -0.0420885 
   0.194498624     0.0455732   -0.0726516     0.3490810   -0.8344578     0.3461083   -0.8263895    -0.0573876   -0.0388655 
   0.194598649     0.0449100   -0.0723842     0.3424192   -0.8284989     0.3495267   -0.8265575    -0.0532744   -0.0426026 
   0.194698674     0.0450943   -0.0718920     0.3452059   -0.8323030     0.3492400   -0.8296200    -0.0559218   -0.0401879 
   0.194798699     0.0448631   -0.0716373     0.3431467   -0.8308030     0.3500698   -0.8278320    -0.0551625   -0.0415215 
   0.194898724     0.0450726   -0.0703467     0.3405907   -0.8265204     0.3477653   -0.8327586    -0.0533137   -0.0442475 
   0.194998749     0.0453992   -0.0717065     0.3468480   -0.8305736     0.3435112   -0.8295204    -0.0578964   -0.0415219 
   0.195098774     0.0445951   -0.0723094     0.3443808   -0.8302186     0.3483666   -0.8263320    -0.0552652   -0.0423555 
   0.195198799     0.0457172   -0.0710906     0.3420244   -0.8318490     0.3444897   -0.8266404    -0.0549215   -0.0410760 
   0.195298824     0.0448665   -0.0714357     0.3411645   -0.8302665     0.3452359   -0.8300186    -0.0545657   -0.0423749 
   0.195398849     0.0449083   -0.0709104     0.3429957   -0.8305699     0.3480339   -0.8304020    -0.0568065   -0.0437206 
   0.195498874     0.0460744   -0.0726083     0.3426964   -0.8301342     0.3444888   -0.8256577    -0.0562914   -0.0430269 
   0.195598899     0.0457057   -0.0707235     0.3394508   -0.8315095     0.3424065   -0.8289994    -0.0540386   -0.0419512 
   0.195698924     0.0444718   -0.0712957     0.3401227   -0.8324494     0.3460974   -0.8309805    -0.0551814   -0.0423307 
   0.195798949     0.0454639   -0.0720571     0.3416409   -0.8345503     0.3439402   -0.8280084    -0.0562099   -0.0407720 
   0.195898974     0.0457057   -0.0705866     0.3365745   -0.8319017     0.3419942   -0.8316163    -0.0547133   -0.0423034 
   0.195998999     0.0457203   -0.0702382     0.3349518   -0.8322358     0.3405224   -0.8314269    -0.0528879   -0.0418137 
   0.196099025     0.0459100   -0.0702505     0.3387441   -0.8337494     0.3412870   -0.8303836    -0.0562152   -0.0421325 
   0.196199050     0.0453103   -0.0691253     0.3324443   -0.8346265     0.3398070   -0.8355250    -0.0523703   -0.0412256 
   0.196299075     0.0448516   -0.0693391     0.3367455   -0.8354335     0.3415781   -0.8351426    -0.0556180   -0.0406563 
   0.196399100     0.0444350   -0.0708702     0.3404596   -0.8366089     0.3402620   -0.8327952    -0.0575511   -0.0394761 
   0.196499125     0.0451377   -0.0695843     0.3348108   -0.8367212     0.3397683   -0.8327682    -0.0550925   -0.0398733 
   0.196599150     0.0458258   -0.0701237     0.3354175   -0.8372712     0.3376155   -0.8313577    -0.0555670   -0.0401282 
   0.196699175     0.0459095   -0.0697839     0.3327288   -0.8373229     0.3365805   -0.8321632    -0.0545022   -0.0398403 
   0.196799200     0.0459313   -0.0694861     0.3337090   -0.8355146     0.3390135   -0.8340178    -0.0556541   -0.0408649 
   0.196899225     0.0461235   -0.0696100     0.3291027   -0.8377849     0.3343612   -0.8321459    -0.0531476   -0.0399846 
   0.196999250     0.0449509   -0.0704503     0.3304932   -0.8363665     0.3361098   -0.8305712    -0.0535153   -0.0409990 
   0.197099275     0.0457210   -0.0684659     0.3296865   -0.8356541     0.3371540   -0.8346513    -0.0533656   -0.0421068 
   0.197199300     0.0456899   -0.0703223     0.3308357   -0.8335772     0.3339096   -0.8295093    -0.0544071   -0.0426970 
   0.197299325     0.0450722   -0.0696639     0.3286043   -0.8376765     0.3345742   -0.8329566    -0.0532141   -0.0407958 
   0.197399350     0.0449152   -0.0693842     0.3325483   -0.8372191     0.3356206   -0.8323094    -0.0565034   -0.0410117 
   0.197499375     0.0470610   -0.0695394     0.3290813   -0.8387076     0.3305616   -0.8331427    -0.0549552   -0.0397296 
   0.197599400     0.0457520   -0.0699535     0.3280478   -0.8369340     0.3335558   -0.8324764    -0.0539024   -0.0413354 
   0.197699425     0.0461514   -0.0679565     0.3260722   -0.8370524     0.3326200   -0.8373654    -0.0530813   -0.0402497 
   0.197799450     0.0462711   -0.0679416     0.3291679   -0.8355104     0.3298056   -0.8359668    -0.0558641   -0.0418758 
   0.197899475     0.0459651   -0.0689850     0.3268013   -0.8386774     0.3298504   -0.8370470    -0.0551967   -0.0399530 
   0.197999500     0.0460310   -0.0682414     0.3233933   -0.8397028     0.3280293   -0.8386317    -0.0530476   -0.0393255 
   0.198099525     0.0459761   -0.0693784     0.3272872   -0.8408498     0.3302621   -0.8339216    -0.0550422   -0.0387763 
   0.198199550     0.0470320   -0.0686047     0.3276430   -0.8408750     0.3246631   -0.8367476    -0.0559878   -0.0390618 
   0.198299575     0.0461476   -0.0671143     0.3206257   -0.8437589     0.3276472   -0.8392981    -0.0518301   -0.0373178 
   0.198399600     0.0462325   -0.0690943     0.3260128   -0.8343069     0.3278831   -0.8361803    -0.0564715   -0.0433026 
   0.198499625     0.0462080   -0.0688316     0.3269604   -0.8387285     0.3280059   -0.8331159    -0.0571678   -0.0409693 
   0.198599650     0.0455758   -0.0671612     0.3190622   -0.8394973     0.3263644   -0.8386133    -0.0520763   -0.0415040 
   0.198699675     0.0453957   -0.0675269     0.3238727   -0.8408511     0.3294899   -0.8396944    -0.0553094   -0.0404851 
   0.198799700     0.0456282   -0.0670880     0.3223372   -0.8390344     0.3239264   -0.8404322    -0.0551646   -0.0408295 
   0.198899725     0.0463784   -0.0687301     0.3195063   -0.8409563     0.3223301   -0.8359836    -0.0533614   -0.0400779 
   0.198999750     0.0462849   -0.0673051     0.3180600   -0.8443661     0.3209220   -0.8396356    -0.0520877   -0.0385221 
   0.199099775     0.0465656   -0.0672663     0.3227130   -0.8420320     0.3213644   -0.8394406    -0.0558359   -0.0392206 
   0.199199800     0.0456519   -0.0676381     0.3180849   -0.8452551     0.3218587   -0.8418964    -0.0529574   -0.0380363 
   0.199299825     0.0463669   -0.0685813     0.3179565   -0.8442282     0.3197764   -0.8372503    -0.0542430   -0.0387940 
   0.199399850     0.0455595   -0.0666847     0.3174690   -0.8448203     0.3244065   -0.8394575    -0.0537429   -0.0386554 
   0.199499875     0.0460613   -0.0657879     0.3177090   -0.8415936     0.3207788   -0.8436314    -0.0540726   -0.0407685 
   0.199599900     0.0472999   -0.0677241     0.3141624   -0.8395699     0.3181827   -0.8386447    -0.0531830   -0.0421288 
   0.199699925     0.0463689   -0.0665514     0.3158194   -0.8424309     0.3220232   -0.8390961    -0.0539513   -0.0397449 
   0.199799950     0.0465946   -0.0671446     0.3141444   -0.8430809     0.3187419   -0.8396375    -0.0525380   -0.0399722 
   0.199899975     0.0460316   -0.0665361     0.3125283   -0.8449658     0.3192934   -0.8417892    -0.0523116   -0.0384693 
   0.200000000     0.0466945   -0.0664768     0.3144985   -0.8421708     0.3158400   -0.8406871    -0.0546207   -0.0401664 
