! 12-May-26 12:27:23 PM
! E:\REC_VNA_20260512\T1T1E2_OPEN.S2P
! CHANNEL.1
! TR.MEASUREMENT
! CORRECTED.DATA
# GHZ S RI R 50.0
! FREQ.GHZ         S11RE         S11IM         S21RE         S21IM         S12RE         S12IM         S22RE         S22IM         
!; PortSelection: Port_12
   0.000050000    -0.2904637    0.9533999     0.0647765    0.3735700    -0.0000583   -0.0005523    -0.0199899    0.0192369 
   0.000150025    -0.3065024    0.2956279    -0.3676391    0.1588522     0.0002764   -0.0002922     0.0047940   -0.0027761 
   0.000250050    -0.0921111   -0.1105888    -0.0608937   -0.1179791     0.0001645   -0.0001797     0.0006980   -0.0008151 
   0.000350075     1.0048880   -0.0167211    -0.0011524   -0.0127462     0.0011036   -0.0003326     0.0002630   -0.0004556 
   0.000450100     0.9924143   -0.0558921    -0.0037082   -0.0110640     0.0009319   -0.0001926     0.0013550   -0.0020978 
   0.000550125     0.9357978   -0.0583762    -0.0018130   -0.0125994    -0.0002246   -0.0003269     0.0017230    0.0005820 
   0.000650150     0.9337614    0.0299245    -0.0070232   -0.0089902    -0.0003829   -0.0003754     0.0002595   -0.0003892 
   0.000750175     1.0041590   -0.0424491    -0.0059348   -0.0095145    -0.0003158    0.0002371    -0.0003172    0.0006734 
   0.000850200     1.0283360   -0.0748292    -0.0093922   -0.0085327    -0.0001222    0.0001949    -0.0000147   -0.0005479 
   0.000950225     1.0227870    0.0169968    -0.0044180   -0.0076071    -0.0000478   -0.0007951     0.0004896    0.0020400 
   0.001050250     1.0046340   -0.0091304    -0.0077145   -0.0021953    -0.0005357   -0.0002906     0.0003017    0.0005600 
   0.001150275     0.9955547   -0.0710493    -0.0106688   -0.0033609     0.0005295   -0.0001423     0.0013947   -0.0007978 
   0.001250300     0.9547713    0.0158701    -0.0098290   -0.0033779     0.0001527    0.0011327     0.0019309    0.0003771 
   0.001350325     1.0004170   -0.0393776    -0.0095604   -0.0021456     0.0002888   -0.0002010    -0.0002328   -0.0003813 
   0.001450350     0.9591751   -0.0059089    -0.0080943   -0.0017309     0.0004744   -0.0007082     0.0004746    0.0014273 
   0.001550375     0.9420199   -0.0415313    -0.0113489    0.0003416     0.0005967    0.0001231     0.0015318    0.0004249 
   0.001650400     0.9541575   -0.0038004    -0.0058055   -0.0013033    -0.0003394    0.0003251    -0.0003146   -0.0004016 
   0.001750425     0.9619116   -0.0529864    -0.0105151    0.0012911    -0.0002957    0.0002692     0.0012853   -0.0008969 
   0.001850450     0.9760986   -0.0512984    -0.0072834    0.0008344    -0.0000220    0.0001585     0.0006374    0.0003096 
   0.001950475     0.9762601    0.0362943    -0.0107638   -0.0002009     0.0002039   -0.0002960     0.0012436   -0.0008187 
   0.002050500     0.9752319    0.0269031    -0.0061452    0.0019637    -0.0004675    0.0002386     0.0009957   -0.0004600 
   0.002150525     1.0349170   -0.0076707    -0.0071519    0.0074046     0.0004507   -0.0001987     0.0018722   -0.0002358 
   0.002250550     0.9779342   -0.0065857    -0.0059970    0.0026164    -0.0001027   -0.0005639     0.0003074   -0.0010324 
   0.002350575     0.9501449   -0.0622924    -0.0087439   -0.0000465    -0.0002272   -0.0000951     0.0007251   -0.0001969 
   0.002450600     0.9917094   -0.0006813    -0.0028170    0.0020907    -0.0002132   -0.0002944     0.0011246    0.0009174 
   0.002550625     0.9890514   -0.0483999    -0.0051146    0.0041870    -0.0007960   -0.0005808    -0.0001196    0.0002704 
   0.002650650     0.9605349    0.0076634    -0.0035140    0.0015909    -0.0004197    0.0002421     0.0005956    0.0002163 
   0.002750675     0.9629497    0.0278672    -0.0048280    0.0041043     0.0005397    0.0004796     0.0007014   -0.0003467 
   0.002850700     0.9909989    0.0089105    -0.0070181    0.0012666    -0.0003707   -0.0006711     0.0008647   -0.0004505 
   0.002950725     0.9625426    0.0166657    -0.0060375    0.0020976    -0.0002789    0.0006272     0.0013783    0.0006626 
   0.003050750     0.9593459   -0.0026012    -0.0039872    0.0032753    -0.0000290   -0.0002448     0.0008673   -0.0014559 
   0.003150775     0.9412130   -0.0666761    -0.0041353    0.0019543    -0.0009780    0.0000650     0.0005731   -0.0000657 
   0.003250800     0.9662637   -0.0270075    -0.0034883    0.0025564     0.0002110   -0.0001448     0.0012687    0.0005602 
   0.003350825     0.9624609   -0.0167643    -0.0010366    0.0023572     0.0006762    0.0001111     0.0010070    0.0010920 
   0.003450850     0.9695567   -0.0461541    -0.0044990    0.0023843    -0.0001264   -0.0000712     0.0017342   -0.0001106 
   0.003550875     0.9435827   -0.0602081    -0.0012135    0.0014637    -0.0002040    0.0004894     0.0009632    0.0000304 
   0.003650900     1.0146820   -0.0401296    -0.0023204    0.0028172     0.0004260   -0.0002605     0.0012879    0.0003678 
   0.003750925     0.9798889   -0.0498553    -0.0007239    0.0022417     0.0000395   -0.0001294     0.0009287   -0.0003130 
   0.003850950     0.9790410   -0.0314538     0.0020577    0.0043670     0.0003330   -0.0000816     0.0001691   -0.0002833 
   0.003950975     0.9850928   -0.0256513     0.0003428    0.0012391     0.0000832   -0.0003800     0.0009819   -0.0004012 
   0.004051001     0.9669237   -0.0636846    -0.0006777   -0.0001855    -0.0003208   -0.0002456     0.0010062    0.0002110 
   0.004151026     0.9765378   -0.0196508    -0.0020539    0.0045011     0.0001619    0.0002788     0.0005586    0.0002449 
   0.004251051     0.9690102   -0.0369246    -0.0022784    0.0012902    -0.0001604    0.0001983     0.0001102   -0.0000608 
   0.004351076     0.9701878   -0.0039862     0.0004203   -0.0021745     0.0002306   -0.0004199     0.0012948    0.0002229 
   0.004451101     1.0029650   -0.0497502    -0.0002366    0.0017065     0.0001924    0.0004215     0.0013059   -0.0004795 
   0.004551126     0.9673001   -0.0381631    -0.0017888    0.0030931     0.0000736   -0.0001834    -0.0005296    0.0002344 
   0.004651151     0.9592523   -0.0103161     0.0002541    0.0035149    -0.0000522   -0.0002965     0.0005713    0.0006946 
   0.004751176     0.9718504   -0.0705433     0.0011649    0.0000468    -0.0002086   -0.0002041     0.0005326   -0.0003957 
   0.004851201     0.9252742   -0.0435786     0.0010579    0.0008129     0.0002466   -0.0001081     0.0013834    0.0011063 
   0.004951226     0.9458916   -0.0176870     0.0001217    0.0014441     0.0004662    0.0006240     0.0012737   -0.0001218 
   0.005051251     0.9776221   -0.0342392    -0.0000932    0.0025761    -0.0001965    0.0003879     0.0005849   -0.0004491 
   0.005151276     0.9480326   -0.0028655    -0.0009750    0.0017342     0.0002607    0.0002055     0.0011465    0.0001617 
   0.005251301     0.9546984   -0.0428493    -0.0012598    0.0032915    -0.0004515    0.0003248     0.0013701    0.0011779 
   0.005351326     0.9206988   -0.0376459    -0.0004659   -0.0005494    -0.0000390    0.0002756     0.0011871    0.0000715 
   0.005451351     0.9526091   -0.0219436     0.0016185    0.0013563    -0.0002642    0.0003592     0.0011946    0.0001364 
   0.005551376     0.9713718   -0.0495709    -0.0003657    0.0029029    -0.0000740    0.0005502     0.0006190    0.0002781 
   0.005651401     0.9817849   -0.0292012     0.0020139    0.0013092     0.0000652   -0.0001834     0.0004974    0.0000133 
   0.005751426     0.9468920   -0.0105434     0.0007104    0.0004257    -0.0002781    0.0001972     0.0013477    0.0002771 
   0.005851451     0.9878353   -0.0542222    -0.0010382   -0.0004505    -0.0000709    0.0000701     0.0003025   -0.0000602 
   0.005951476     0.9543853   -0.0388323     0.0001939   -0.0014966    -0.0008641    0.0001356     0.0011264    0.0008892 
   0.006051501     0.9686213   -0.0229822     0.0015928   -0.0003573    -0.0005528    0.0004145     0.0001450    0.0002214 
   0.006151526     0.9422753   -0.0387838     0.0007547    0.0003696     0.0000527    0.0001787     0.0006765   -0.0001408 
   0.006251551     0.9679578   -0.0204135    -0.0009096   -0.0006208     0.0000269   -0.0002651     0.0011624    0.0007673 
   0.006351576     0.9782178   -0.0361384    -0.0008253    0.0001676    -0.0000605   -0.0002954     0.0009569    0.0000677 
   0.006451601     0.9459164   -0.0367402    -0.0003031    0.0019344     0.0002680    0.0000874     0.0006382    0.0009767 
   0.006551626     0.9447827   -0.0298760    -0.0013640   -0.0002677     0.0002222   -0.0000045     0.0006681    0.0000688 
   0.006651651     0.9565914   -0.0617724     0.0022760    0.0008586     0.0005553   -0.0002186     0.0007280    0.0007059 
   0.006751676     0.9422296   -0.0659422    -0.0003774    0.0011924    -0.0007763   -0.0003488     0.0011588    0.0002072 
   0.006851701     0.9721187   -0.0193002    -0.0027845   -0.0022701    -0.0002746   -0.0003690     0.0007604    0.0001828 
   0.006951726     0.9523891   -0.0588392    -0.0004280    0.0009370     0.0002027    0.0000971     0.0013272    0.0004212 
   0.007051751     0.9593434   -0.0370705     0.0001073    0.0012983     0.0001457    0.0006045     0.0007017   -0.0000429 
   0.007151776     0.9485381   -0.0539538    -0.0005938   -0.0008983     0.0002288   -0.0003895     0.0016111    0.0003114 
   0.007251801     0.9786009   -0.0420726    -0.0003546    0.0003248     0.0001700    0.0000873     0.0010579    0.0002861 
   0.007351826     0.9790080   -0.0623975     0.0003870    0.0019550     0.0000751    0.0004242     0.0016811    0.0004914 
   0.007451851     0.9444063   -0.0444243    -0.0001679    0.0002671    -0.0002520   -0.0006457     0.0009216   -0.0002095 
   0.007551876     0.9754009   -0.0500914     0.0004236    0.0023138     0.0000339   -0.0000182     0.0010140    0.0001139 
   0.007651901     0.9731202   -0.0596640    -0.0008427   -0.0003110     0.0003794   -0.0000426     0.0005523    0.0000987 
   0.007751926     0.9392389   -0.0611559    -0.0012909    0.0003667     0.0000615   -0.0005894     0.0005241   -0.0002944 
   0.007851951     0.9696837   -0.0561467     0.0032591    0.0011672    -0.0001496    0.0003807     0.0010743    0.0001085 
   0.007951976     0.9700608   -0.0709440     0.0005517   -0.0012777    -0.0002250   -0.0000162     0.0007979    0.0006356 
   0.008052001     0.9672437   -0.0656864    -0.0012858    0.0002743    -0.0000143   -0.0002039     0.0011208    0.0004484 
   0.008152026     0.9634200   -0.0599495     0.0000440    0.0019547     0.0003031    0.0000010     0.0011171   -0.0000471 
   0.008252051     0.9340384   -0.0435676    -0.0015164   -0.0003675    -0.0003800    0.0000136     0.0013671    0.0004227 
   0.008352076     0.9615697   -0.0549979    -0.0016258   -0.0006299    -0.0003907    0.0002849     0.0014273    0.0004673 
   0.008452101     0.9545566   -0.0452547    -0.0001587    0.0023634    -0.0002857   -0.0000599     0.0015715   -0.0000316 
   0.008552126     0.9713794   -0.0546062     0.0001254   -0.0007137    -0.0001772    0.0001246     0.0005837    0.0004811 
   0.008652151     0.9621268   -0.0444936     0.0009894   -0.0003841     0.0003096    0.0002627     0.0009655    0.0002506 
   0.008752176     0.9494478   -0.0465202     0.0002173   -0.0000044    -0.0002464   -0.0000300     0.0003343   -0.0005351 
   0.008852201     0.9479191   -0.0353588     0.0008210    0.0009302     0.0002112   -0.0003307     0.0008657    0.0005944 
   0.008952226     0.9881004   -0.0378604     0.0003042   -0.0005279    -0.0004299    0.0002979     0.0009971   -0.0006224 
   0.009052251     0.9723966   -0.0355659    -0.0006086    0.0002475    -0.0002516    0.0000759     0.0008359   -0.0001228 
   0.009152276     0.9589474   -0.0407245    -0.0006141   -0.0011706    -0.0001487   -0.0000867     0.0012664    0.0000872 
   0.009252301     0.9594482   -0.0428039     0.0005762    0.0003863     0.0001905   -0.0000357     0.0008210   -0.0000390 
   0.009352326     0.9778123   -0.0508330     0.0000826    0.0013526     0.0000245   -0.0000987     0.0005527   -0.0003332 
   0.009452351     0.9650201   -0.0456962    -0.0001756    0.0002711    -0.0004067   -0.0003079     0.0006416    0.0004608 
   0.009552376     0.9624675   -0.0554332     0.0003873    0.0001260    -0.0001561   -0.0003163     0.0012713    0.0001577 
   0.009652401     0.9421251   -0.0562714     0.0000960   -0.0001333    -0.0000346   -0.0001801     0.0009373    0.0006460 
   0.009752426     0.9659718   -0.0420172    -0.0010010    0.0021480     0.0002452    0.0000844     0.0011340    0.0008570 
   0.009852451     0.9716519   -0.0674212    -0.0010062    0.0003084     0.0000164    0.0000757     0.0006466    0.0001494 
   0.009952476     0.9580762   -0.0651373    -0.0006527    0.0001386    -0.0000941    0.0002356     0.0007768    0.0000774 
   0.010052501     0.9512382   -0.0599789    -0.0000972   -0.0011851    -0.0002264   -0.0003258     0.0008581   -0.0000778 
   0.010152526     0.9706600   -0.0589331     0.0002677    0.0017650     0.0002100    0.0000477     0.0007015    0.0002506 
   0.010252551     0.9505819   -0.0434931    -0.0004038   -0.0002623     0.0000145    0.0001010     0.0010689    0.0003655 
   0.010352576     0.9740519   -0.0642559    -0.0014054    0.0014833     0.0000493   -0.0000328     0.0007814    0.0003492 
   0.010452601     0.9540973   -0.0228290    -0.0001231   -0.0002546    -0.0001290    0.0001013     0.0010742    0.0003386 
   0.010552626     0.9607935   -0.0610076     0.0006149   -0.0008909    -0.0000478   -0.0001588     0.0008886    0.0005714 
   0.010652651     0.9787124   -0.0585439    -0.0001806    0.0013065    -0.0002024    0.0001420     0.0005536   -0.0001662 
   0.010752676     0.9539015   -0.0675170    -0.0002861    0.0000408     0.0001718    0.0003128     0.0010231    0.0004596 
   0.010852701     0.9679519   -0.0401919    -0.0004882   -0.0011520    -0.0001604    0.0002340     0.0008755    0.0006650 
   0.010952726     0.9492273   -0.0584283     0.0005182   -0.0008936     0.0002868    0.0001850     0.0005325    0.0000863 
   0.011052751     0.9685077   -0.0648125    -0.0014621    0.0013201     0.0000871   -0.0003934     0.0014638    0.0006437 
   0.011152776     0.9509383   -0.0466121     0.0006692    0.0006061     0.0000761    0.0000132     0.0007705    0.0001807 
   0.011252801     0.9677579   -0.0460546     0.0002455   -0.0009772     0.0000910   -0.0001454     0.0007062    0.0001168 
   0.011352826     0.9717026   -0.0711365    -0.0004993   -0.0002915     0.0000154    0.0002215     0.0008725    0.0000650 
   0.011452851     0.9442204   -0.0689239     0.0011001   -0.0002647    -0.0000676    0.0000577     0.0008326    0.0002914 
   0.011552876     0.9562091   -0.0684780     0.0006065   -0.0003869     0.0001833   -0.0000392     0.0006634    0.0000848 
   0.011652901     0.9695534   -0.0793847     0.0007252   -0.0005220    -0.0000490    0.0000110     0.0006821    0.0004413 
   0.011752926     0.9271148   -0.0678474     0.0001122    0.0017186     0.0003004    0.0001799     0.0007575    0.0002146 
   0.011852951     0.9593560   -0.0656451    -0.0003892   -0.0003498    -0.0001404    0.0001331     0.0002014    0.0003026 
   0.011952976     0.9569973   -0.0611668    -0.0009161   -0.0012723     0.0004579    0.0003367     0.0006553    0.0001572 
   0.012053002     0.9634207   -0.0675569     0.0006178   -0.0001611    -0.0000155    0.0000838     0.0008634    0.0007154 
   0.012153027     0.9630458   -0.0848544    -0.0013340    0.0005499     0.0003248   -0.0002955     0.0006462   -0.0005121 
   0.012253052     0.9424585   -0.0749169    -0.0007229    0.0005826     0.0002245   -0.0002307     0.0010508    0.0002394 
   0.012353077     0.9586421   -0.0621214    -0.0004302   -0.0006646    -0.0001920   -0.0001212     0.0008367    0.0003613 
   0.012453102     0.9522061   -0.0566872     0.0002207    0.0006236    -0.0003120   -0.0000751     0.0008751    0.0001329 
   0.012553127     0.9506940   -0.0850110    -0.0005407    0.0006766     0.0002084   -0.0000572     0.0006043   -0.0000952 
   0.012653152     0.9688230   -0.0586497     0.0001318   -0.0001551    -0.0001739   -0.0002797     0.0006013    0.0004273 
   0.012753177     0.9481749   -0.0631629    -0.0004798   -0.0001905    -0.0000823   -0.0001739     0.0004785    0.0002678 
   0.012853202     0.9504260   -0.0454980    -0.0005066    0.0007550    -0.0002164    0.0001833     0.0004119    0.0007651 
   0.012953227     0.9612792   -0.0567956     0.0002891    0.0000078     0.0000463    0.0000418     0.0012223    0.0006359 
   0.013053252     0.9640129   -0.1011306     0.0001263   -0.0009422    -0.0000818    0.0001269     0.0008941    0.0000396 
   0.013153277     0.9584832   -0.0656075    -0.0010805   -0.0007424     0.0000971    0.0002578     0.0007100    0.0004108 
   0.013253302     0.9590006   -0.0658107     0.0001552    0.0001090     0.0003206    0.0001015     0.0010744    0.0002439 
   0.013353327     0.9533105   -0.0718603    -0.0000245    0.0011566     0.0000440   -0.0005578     0.0005000    0.0002354 
   0.013453352     0.9522714   -0.0510518     0.0008671   -0.0007006    -0.0000422   -0.0000969     0.0008343    0.0002192 
   0.013553377     0.9454868   -0.0594168     0.0009116    0.0001611    -0.0003401    0.0003083     0.0011259    0.0000268 
   0.013653402     0.9522149   -0.0829185     0.0004353   -0.0001595     0.0004433    0.0000823     0.0009843   -0.0001807 
   0.013753427     0.9556619   -0.0615799    -0.0008882    0.0003923     0.0003287    0.0002992     0.0004899    0.0004365 
   0.013853452     0.9720621   -0.0807073    -0.0011309    0.0002679    -0.0005171    0.0000471     0.0007134    0.0000914 
   0.013953477     0.9465381   -0.0675289    -0.0001638   -0.0000586    -0.0003165    0.0001979     0.0007125    0.0003199 
   0.014053502     0.9603290   -0.0885132    -0.0009753    0.0006110    -0.0000349   -0.0001145     0.0006387    0.0001939 
   0.014153527     0.9682287   -0.0693668     0.0005429    0.0001190    -0.0000867   -0.0001101     0.0006764    0.0002637 
   0.014253552     0.9632594   -0.0698947    -0.0004088    0.0004118     0.0000129    0.0000801     0.0012665    0.0002319 
   0.014353577     0.9422197   -0.0717717    -0.0001735   -0.0013944     0.0000313    0.0000402     0.0010719    0.0003622 
   0.014453602     0.9364924   -0.0846461    -0.0000586    0.0002941     0.0000723   -0.0000662     0.0006591   -0.0000368 
   0.014553627     0.9446981   -0.0801487     0.0002875    0.0009638     0.0000033   -0.0000441     0.0007583    0.0005529 
   0.014653652     0.9642684   -0.0784987     0.0004392   -0.0013287     0.0002272   -0.0002930     0.0005332    0.0000930 
   0.014753677     0.9462089   -0.0763897    -0.0007784    0.0002696    -0.0000306   -0.0001858     0.0009074    0.0000973 
   0.014853702     0.9557270   -0.0675925    -0.0004013    0.0017203     0.0001135    0.0000579     0.0007620    0.0001171 
   0.014953727     0.9602407   -0.0865933     0.0006588    0.0008941     0.0001356   -0.0001441     0.0007152    0.0007539 
   0.015053752     0.9588668   -0.0818569    -0.0008656    0.0004631     0.0003482    0.0001010     0.0007483    0.0005674 
   0.015153777     0.9601204   -0.0718538     0.0003733    0.0005317     0.0001439   -0.0000078     0.0007803    0.0002531 
   0.015253802     0.9577033   -0.0716619     0.0007396   -0.0001812    -0.0000030   -0.0000333     0.0009832    0.0002030 
   0.015353827     0.9525454   -0.0694178    -0.0000502    0.0011517     0.0000862   -0.0000969     0.0011022    0.0002496 
   0.015453852     0.9674225   -0.0715205     0.0001844    0.0013603     0.0000992    0.0001892     0.0008830    0.0007025 
   0.015553877     0.9590290   -0.0964048    -0.0001955    0.0001487    -0.0001852    0.0001229     0.0007957    0.0003340 
   0.015653902     0.9558851   -0.0644187     0.0005670   -0.0011213     0.0001580    0.0003197     0.0005023    0.0002732 
   0.015753927     0.9467915   -0.0798307     0.0007679    0.0018120     0.0001034   -0.0002826     0.0004795    0.0002262 
   0.015853952     0.9697209   -0.0719822     0.0001998    0.0000092    -0.0001513    0.0001334     0.0008191    0.0006297 
   0.015953977     0.9692259   -0.0707591    -0.0004385   -0.0004845    -0.0001883    0.0000663     0.0008579    0.0008828 
   0.016054002     0.9357374   -0.0622090     0.0001664   -0.0012404     0.0000626    0.0002772     0.0010671    0.0003806 
   0.016154027     0.9585507   -0.0773474    -0.0001821    0.0002534    -0.0001219   -0.0000306     0.0004823   -0.0001529 
   0.016254052     0.9552051   -0.0639392    -0.0003231    0.0004712    -0.0002120    0.0000967     0.0010384    0.0001725 
   0.016354077     0.9532374   -0.0756942     0.0011954   -0.0005205    -0.0001275   -0.0001663     0.0006593    0.0004523 
   0.016454102     0.9499388   -0.0787864     0.0001013    0.0000736    -0.0000827    0.0000251     0.0008318   -0.0000923 
   0.016554127     0.9446016   -0.0696782     0.0004345    0.0003104    -0.0000065    0.0000289     0.0005272    0.0007446 
   0.016654152     0.9555598   -0.0586197     0.0002308   -0.0007013    -0.0003065   -0.0001327     0.0008355    0.0004588 
   0.016754177     0.9591781   -0.0764343     0.0008421   -0.0005896     0.0002908   -0.0005063     0.0005282    0.0007186 
   0.016854202     0.9623627   -0.0712521     0.0001755   -0.0006259     0.0001789   -0.0000722     0.0007314    0.0001883 
   0.016954227     0.9690273   -0.0732632    -0.0005440    0.0004731    -0.0001049   -0.0002624     0.0008177    0.0003447 
   0.017054252     0.9597951   -0.0797739     0.0007794    0.0007446    -0.0000645   -0.0000169     0.0005567    0.0000373 
   0.017154277     0.9453037   -0.0814916     0.0000904   -0.0001385     0.0000880    0.0000570     0.0010794    0.0002272 
   0.017254302     0.9533190   -0.0690583     0.0007574    0.0009605    -0.0002405    0.0002841     0.0007257    0.0005089 
   0.017354327     0.9632510   -0.0832569     0.0001873   -0.0004346    -0.0000748   -0.0002043     0.0008158   -0.0002328 
   0.017454352     0.9552508   -0.0806235     0.0010928   -0.0003179     0.0002487    0.0003012     0.0009284    0.0002484 
   0.017554377     0.9480068   -0.0866827     0.0005537   -0.0003874     0.0001098    0.0000523     0.0009711    0.0002082 
   0.017654402     0.9584380   -0.0779908    -0.0004810    0.0006005     0.0002124   -0.0001843     0.0008320    0.0003569 
   0.017754427     0.9402211   -0.0886159    -0.0009313    0.0000607    -0.0001484   -0.0000765     0.0008692   -0.0002473 
   0.017854452     0.9729970   -0.0894040    -0.0000672    0.0007949    -0.0000607   -0.0001640     0.0010727    0.0004319 
   0.017954477     0.9574098   -0.0903108     0.0008909   -0.0005652    -0.0001261    0.0003420     0.0009225    0.0001024 
   0.018054502     0.9574248   -0.0844957    -0.0009283    0.0009504    -0.0000176   -0.0003596     0.0007757    0.0003521 
   0.018154527     0.9646747   -0.0843900     0.0005720   -0.0004458    -0.0001788    0.0002024     0.0008184    0.0001652 
   0.018254552     0.9597273   -0.0911059     0.0001716    0.0000764     0.0000489    0.0004346     0.0006807    0.0000603 
   0.018354577     0.9605087   -0.0902226    -0.0003213    0.0004209    -0.0002560   -0.0002031     0.0008040    0.0004273 
   0.018454602     0.9569501   -0.0961211     0.0005610    0.0000735     0.0000034   -0.0001558     0.0009190    0.0002795 
   0.018554627     0.9470743   -0.1011419    -0.0005982   -0.0001238     0.0002954    0.0001045     0.0002755   -0.0000555 
   0.018654652     0.9573486   -0.0839507    -0.0002734   -0.0003601     0.0001651   -0.0002259     0.0004742    0.0007501 
   0.018754677     0.9439005   -0.0869839    -0.0006130   -0.0009739     0.0000769   -0.0003475     0.0005953    0.0004432 
   0.018854702     0.9568497   -0.0783387     0.0001236    0.0000567     0.0001806   -0.0002304     0.0011462    0.0003654 
   0.018954727     0.9560942   -0.0869468     0.0004734    0.0002680    -0.0002164    0.0000413     0.0006615    0.0007821 
   0.019054752     0.9488644   -0.0814021    -0.0004783   -0.0016198    -0.0002226   -0.0000952     0.0006315    0.0003050 
   0.019154777     0.9433551   -0.0988748     0.0001947   -0.0000526     0.0000705    0.0000291     0.0007371    0.0005871 
   0.019254802     0.9578412   -0.0876831    -0.0000513    0.0004387     0.0000872    0.0001900     0.0009879    0.0006775 
   0.019354827     0.9460629   -0.1009644    -0.0008542    0.0007433     0.0000988    0.0001038     0.0005196    0.0003298 
   0.019454852     0.9535019   -0.0813707     0.0001694   -0.0001398     0.0000156    0.0000760     0.0004339    0.0002842 
   0.019554877     0.9512835   -0.0845625    -0.0007209    0.0002748     0.0001436   -0.0001999     0.0006729    0.0000776 
   0.019654902     0.9622890   -0.0842518    -0.0003852    0.0009184    -0.0001587    0.0001919     0.0007708    0.0001321 
   0.019754927     0.9415878   -0.0957922    -0.0003720    0.0005116    -0.0003597    0.0001043     0.0006372    0.0003198 
   0.019854952     0.9453144   -0.0929445     0.0000856    0.0010375     0.0001425    0.0000428     0.0007423    0.0005462 
   0.019954977     0.9572653   -0.1005141     0.0003509   -0.0000207    -0.0000648   -0.0000398     0.0007738    0.0006101 
   0.020055003     0.9578053   -0.0919963    -0.0000165   -0.0004571    -0.0001137   -0.0000086     0.0003544    0.0005399 
   0.020155028     0.9511924   -0.0922206    -0.0003321   -0.0002095    -0.0002356   -0.0001238     0.0003166    0.0006828 
   0.020255053     0.9503101   -0.0882746     0.0006414    0.0000591     0.0000661   -0.0001663     0.0002940    0.0003224 
   0.020355078     0.9575660   -0.0817612    -0.0001031    0.0004487    -0.0000016   -0.0000077    -0.0001249    0.0005699 
   0.020455103     0.9525390   -0.1003104    -0.0003311   -0.0003672    -0.0000993   -0.0000725     0.0006600    0.0004784 
   0.020555128     0.9455745   -0.1054499     0.0005632    0.0002138     0.0000431   -0.0000813     0.0010880    0.0004517 
   0.020655153     0.9556308   -0.0930547     0.0009961    0.0002497     0.0000704    0.0000829     0.0005867    0.0006865 
   0.020755178     0.9494006   -0.1032572    -0.0000656    0.0001318     0.0001187   -0.0000445     0.0002891    0.0001891 
   0.020855203     0.9547253   -0.0908811    -0.0004931    0.0003732     0.0001296    0.0000313     0.0001636    0.0003376 
   0.020955228     0.9449519   -0.0873930     0.0008122    0.0002075     0.0001192   -0.0000735     0.0003601    0.0002531 
   0.021055253     0.9551036   -0.1133619     0.0002451    0.0001087    -0.0001443    0.0000152     0.0005600    0.0007475 
   0.021155278     0.9493790   -0.0997921    -0.0004787   -0.0004516    -0.0001365   -0.0002933     0.0006648    0.0003021 
   0.021255303     0.9386107   -0.1095959    -0.0007976   -0.0004857     0.0000304    0.0001583     0.0005205    0.0005302 
   0.021355328     0.9462637   -0.0916849    -0.0004703    0.0004175    -0.0001766   -0.0000035     0.0008130    0.0008867 
   0.021455353     0.9433805   -0.1115996    -0.0003922   -0.0002133     0.0000885   -0.0002364     0.0006986    0.0003180 
   0.021555378     0.9545957   -0.0989947     0.0002016    0.0006017    -0.0000479   -0.0000545     0.0005743    0.0003131 
   0.021655403     0.9612867   -0.0899804     0.0000091   -0.0010891    -0.0001364    0.0002082     0.0007441    0.0005556 
   0.021755428     0.9549190   -0.1008118     0.0002391    0.0001538    -0.0000599    0.0002815     0.0008448    0.0001119 
   0.021855453     0.9570755   -0.1019445    -0.0002484   -0.0001008     0.0000810   -0.0000465     0.0010791    0.0007936 
   0.021955478     0.9444811   -0.0980307    -0.0001249    0.0005004     0.0000789   -0.0000765     0.0005376    0.0007493 
   0.022055503     0.9563364   -0.0964147    -0.0005598   -0.0013732     0.0002427    0.0001849     0.0004804    0.0003363 
   0.022155528     0.9527807   -0.0983276    -0.0003239    0.0001309    -0.0000066    0.0002280     0.0002900    0.0001906 
   0.022255553     0.9480650   -0.1016974    -0.0002385    0.0002237    -0.0000379   -0.0001529     0.0005807    0.0005834 
   0.022355578     0.9469939   -0.1032726     0.0004587    0.0002999     0.0000113   -0.0000379     0.0010889    0.0006556 
   0.022455603     0.9628766   -0.1113690     0.0000871    0.0000519     0.0001940   -0.0001042    -0.0000266   -0.0000459 
   0.022555628     0.9479836   -0.1077887    -0.0010006   -0.0000662     0.0000753   -0.0000334     0.0002892    0.0001780 
   0.022655653     0.9556769   -0.0897255    -0.0005283    0.0000743     0.0001148    0.0000747     0.0006937    0.0002414 
   0.022755678     0.9476607   -0.1147003     0.0001087   -0.0009946     0.0000616    0.0000162     0.0005181    0.0006270 
   0.022855703     0.9487811   -0.1064596    -0.0001713    0.0000773     0.0000078    0.0000144     0.0005122    0.0005429 
   0.022955728     0.9450309   -0.0996005    -0.0005243   -0.0000220     0.0001751    0.0002196     0.0008206    0.0001976 
   0.023055753     0.9443401   -0.1067851     0.0000276   -0.0003548    -0.0000582    0.0000840     0.0004730    0.0003961 
   0.023155778     0.9495375   -0.1065768     0.0000099   -0.0000518     0.0000337   -0.0004092     0.0009015    0.0003061 
   0.023255803     0.9460499   -0.1133371     0.0009721    0.0001818     0.0001531   -0.0001023     0.0008127    0.0002824 
   0.023355828     0.9483557   -0.1115743    -0.0005919    0.0001521     0.0001792    0.0000241     0.0006540    0.0000994 
   0.023455853     0.9609973   -0.1129392     0.0000157    0.0002041    -0.0001195    0.0000173     0.0009922    0.0000788 
   0.023555878     0.9530754   -0.1133090    -0.0005637   -0.0003774    -0.0001118    0.0000811     0.0004094    0.0005542 
   0.023655903     0.9498588   -0.1114001    -0.0011309   -0.0002600    -0.0001435    0.0000381     0.0004038    0.0004595 
   0.023755928     0.9545475   -0.1135932     0.0000354    0.0003141    -0.0001100    0.0000279     0.0005428    0.0003479 
   0.023855953     0.9463508   -0.1053860    -0.0000146    0.0005945    -0.0000379    0.0000996     0.0006323    0.0010279 
   0.023955978     0.9444615   -0.1118853    -0.0000354   -0.0004161    -0.0000830   -0.0000804     0.0005486    0.0006700 
   0.024056003     0.9529257   -0.1085878     0.0006091   -0.0006297    -0.0003077   -0.0003870     0.0008611    0.0006387 
   0.024156028     0.9443090   -0.1203993    -0.0004771   -0.0005009     0.0001121    0.0002841     0.0006190    0.0009380 
   0.024256053     0.9527175   -0.1148481     0.0003322    0.0001591     0.0002171   -0.0000012     0.0002794    0.0001541 
   0.024356078     0.9467544   -0.1144891    -0.0001709   -0.0001750    -0.0000819    0.0002472     0.0009899    0.0004052 
   0.024456103     0.9364333   -0.1095188    -0.0002492    0.0001365    -0.0000327    0.0000460     0.0005756    0.0008620 
   0.024556128     0.9431406   -0.1107706    -0.0001445   -0.0001926     0.0000906   -0.0000174     0.0008284    0.0004293 
   0.024656153     0.9501863   -0.1162700    -0.0001331   -0.0004065    -0.0000343   -0.0001373     0.0003191    0.0005857 
   0.024756178     0.9548881   -0.1182525     0.0007490    0.0002674     0.0003617    0.0000212     0.0006991    0.0007209 
   0.024856203     0.9521411   -0.1180100     0.0001843    0.0002619     0.0001071   -0.0000576     0.0005726    0.0005914 
   0.024956228     0.9521373   -0.1120470    -0.0004221    0.0000868    -0.0000874    0.0001561     0.0011037    0.0006958 
   0.025056253     0.9461080   -0.1113668     0.0002582    0.0003926    -0.0000554    0.0001034     0.0002938    0.0005660 
   0.025156278     0.9615494   -0.1164748     0.0000367    0.0000356     0.0001426   -0.0000366     0.0008426    0.0003175 
   0.025256303     0.9393488   -0.1109476    -0.0007839    0.0002737     0.0000553    0.0000103     0.0002934    0.0005141 
   0.025356328     0.9537622   -0.1035717    -0.0000016    0.0002499    -0.0000575    0.0000060     0.0005055    0.0002097 
   0.025456353     0.9402541   -0.1178892    -0.0005070    0.0006384     0.0000282   -0.0001468     0.0009222    0.0002175 
   0.025556378     0.9523374   -0.1251739    -0.0002157   -0.0007439     0.0001162    0.0000633     0.0007512    0.0005757 
   0.025656403     0.9459380   -0.1150803    -0.0000729    0.0006111     0.0001210   -0.0000047     0.0002960    0.0006513 
   0.025756428     0.9509739   -0.1233041    -0.0005242   -0.0002515    -0.0001576    0.0000687     0.0003792    0.0007014 
   0.025856453     0.9516888   -0.1195914    -0.0003919    0.0001980    -0.0000454   -0.0000034     0.0005909    0.0006767 
   0.025956478     0.9507337   -0.1186253     0.0001814   -0.0002025    -0.0000364   -0.0000355     0.0004199    0.0011034 
   0.026056503     0.9469610   -0.1164281     0.0004728   -0.0003771     0.0000291    0.0001165     0.0005636    0.0007627 
   0.026156528     0.9443294   -0.1211273    -0.0002167   -0.0004581     0.0000371   -0.0002367     0.0006867    0.0006009 
   0.026256553     0.9424223   -0.1136900    -0.0000061    0.0001613     0.0001191    0.0001153     0.0003834    0.0004267 
   0.026356578     0.9573089   -0.1165730    -0.0003039   -0.0002714    -0.0003450   -0.0001329     0.0004535    0.0004830 
   0.026456603     0.9514666   -0.1207549     0.0003748    0.0000609    -0.0000152    0.0000650     0.0008017   -0.0000366 
   0.026556628     0.9445676   -0.1229298     0.0001775    0.0006808     0.0002037    0.0000057     0.0005889    0.0008592 
   0.026656653     0.9403561   -0.1183884    -0.0003251    0.0002939    -0.0000563    0.0000924     0.0003973    0.0003374 
   0.026756678     0.9543371   -0.1250888    -0.0000022   -0.0000073    -0.0001297   -0.0000114     0.0004879    0.0002313 
   0.026856703     0.9516599   -0.1251110    -0.0004759    0.0002738     0.0000073   -0.0001071     0.0008509    0.0005348 
   0.026956728     0.9531307   -0.1232430     0.0001089    0.0003773     0.0000317    0.0000179     0.0006101    0.0006269 
   0.027056753     0.9506381   -0.1250985    -0.0000054    0.0007303     0.0000526    0.0000717     0.0005867    0.0011895 
   0.027156778     0.9509687   -0.1247622    -0.0000791    0.0001381    -0.0000311    0.0000756     0.0005037    0.0005842 
   0.027256803     0.9443408   -0.1178063    -0.0002970    0.0001173     0.0000524    0.0001455     0.0005248    0.0003689 
   0.027356828     0.9493470   -0.1236621    -0.0006593   -0.0000550     0.0001751    0.0000577     0.0002023    0.0004716 
   0.027456853     0.9505698   -0.1335098    -0.0001937    0.0001722     0.0001504    0.0000797     0.0004408    0.0005168 
   0.027556878     0.9423122   -0.1269546    -0.0006650    0.0000129    -0.0000585   -0.0001712     0.0006520    0.0006076 
   0.027656903     0.9502211   -0.1288977    -0.0004024    0.0000851    -0.0000985   -0.0000766     0.0005304    0.0006214 
   0.027756928     0.9456469   -0.1306368     0.0006478   -0.0005211     0.0000630    0.0001267     0.0003725    0.0002704 
   0.027856953     0.9449219   -0.1282384     0.0001148   -0.0000063     0.0001133    0.0000996     0.0008978    0.0004832 
   0.027956978     0.9473403   -0.1273415     0.0002589   -0.0001761     0.0001196    0.0001742     0.0005334   -0.0000403 
   0.028057004     0.9459250   -0.1277738    -0.0000642   -0.0002010    -0.0000319    0.0000127     0.0001182    0.0007715 
   0.028157029     0.9500007   -0.1357281     0.0002171   -0.0001279     0.0001592   -0.0001187     0.0006549    0.0002489 
   0.028257054     0.9463416   -0.1270954    -0.0002213   -0.0007706     0.0001631    0.0000873     0.0006509    0.0005347 
   0.028357079     0.9493346   -0.1358490    -0.0001565   -0.0002782    -0.0001223   -0.0001631     0.0003876    0.0004989 
   0.028457104     0.9465154   -0.1267214    -0.0001308    0.0000935     0.0000412   -0.0001122     0.0005436    0.0010981 
   0.028557129     0.9593434   -0.1352578     0.0004968    0.0001858    -0.0000330    0.0001819     0.0004221    0.0002627 
   0.028657154     0.9458231   -0.1265060     0.0004606   -0.0001031    -0.0001787    0.0000556     0.0004932    0.0008407 
   0.028757179     0.9521369   -0.1263113    -0.0005056    0.0004394     0.0000360   -0.0001982     0.0003470    0.0000944 
   0.028857204     0.9473199   -0.1318227    -0.0003860    0.0000355     0.0001240    0.0001630     0.0005422    0.0002965 
   0.028957229     0.9509687   -0.1366580     0.0000365   -0.0003058    -0.0000304   -0.0000016     0.0002296    0.0003564 
   0.029057254     0.9522300   -0.1300272    -0.0001549   -0.0002950    -0.0000329    0.0000710     0.0005430    0.0007619 
   0.029157279     0.9489471   -0.1321973     0.0002831   -0.0003757     0.0001466    0.0000069     0.0006838    0.0008011 
   0.029257304     0.9521418   -0.1357205     0.0000484   -0.0004249    -0.0002047   -0.0000290     0.0005829    0.0010459 
   0.029357329     0.9441577   -0.1322690    -0.0003049    0.0003455     0.0001099    0.0000072     0.0004666    0.0006842 
   0.029457354     0.9502506   -0.1331397    -0.0001964    0.0004116     0.0001102    0.0000214     0.0001288    0.0006706 
   0.029557379     0.9491926   -0.1380393    -0.0005899   -0.0001959     0.0000291   -0.0002430     0.0003593   -0.0000036 
   0.029657404     0.9522798   -0.1385676    -0.0003418    0.0001744     0.0000945   -0.0001804     0.0006437    0.0002256 
   0.029757429     0.9517940   -0.1406247    -0.0003123   -0.0004443    -0.0000790   -0.0001346     0.0005610    0.0006128 
   0.029857454     0.9427364   -0.1360751    -0.0000234    0.0001421     0.0000281    0.0000046     0.0006495    0.0008016 
   0.029957479     0.9412971   -0.1366055    -0.0000112   -0.0000275     0.0000648    0.0001214     0.0001514    0.0003066 
   0.030057504     0.9453001   -0.1411871     0.0003538   -0.0000164    -0.0000959    0.0000932     0.0007068    0.0004320 
   0.030157529     0.9469879   -0.1313755     0.0002301    0.0001010    -0.0000292    0.0000941     0.0006593    0.0003826 
   0.030257554     0.9485102   -0.1315227    -0.0001513   -0.0000632     0.0000168    0.0000156     0.0001656    0.0008386 
   0.030357579     0.9399551   -0.1344143    -0.0001325   -0.0003099    -0.0001741   -0.0000327     0.0002710    0.0005558 
   0.030457604     0.9400396   -0.1351525     0.0000641   -0.0006244     0.0001033   -0.0001038     0.0010945    0.0006714 
   0.030557629     0.9459656   -0.1358586     0.0000032    0.0003734     0.0001085    0.0002202     0.0005383    0.0007885 
   0.030657654     0.9459450   -0.1409120     0.0000397    0.0002451     0.0000010   -0.0000523     0.0003324    0.0007761 
   0.030757679     0.9520115   -0.1424617     0.0000070   -0.0001046     0.0000768    0.0001648     0.0003361    0.0001942 
   0.030857704     0.9340155   -0.1407991    -0.0004692    0.0008406    -0.0000906   -0.0000315     0.0002502    0.0001672 
   0.030957729     0.9482979   -0.1467029    -0.0003488   -0.0002981    -0.0000228   -0.0000479     0.0003295    0.0007307 
   0.031057754     0.9480957   -0.1415885    -0.0001098   -0.0001225    -0.0001003    0.0001049     0.0007944    0.0006870 
   0.031157779     0.9520512   -0.1430918    -0.0002658   -0.0003840    -0.0000004    0.0000575     0.0000959    0.0007282 
   0.031257804     0.9438623   -0.1388120     0.0000189    0.0001877     0.0000158    0.0000780     0.0008587    0.0005963 
   0.031357829     0.9469585   -0.1432123    -0.0000376    0.0000957    -0.0000439   -0.0000203     0.0007113    0.0007831 
   0.031457854     0.9355569   -0.1393338    -0.0001955   -0.0001667    -0.0000324   -0.0000283     0.0005499    0.0004178 
   0.031557879     0.9504672   -0.1375281     0.0001383   -0.0000514     0.0000176   -0.0000596     0.0001523    0.0001797 
   0.031657904     0.9375163   -0.1444797    -0.0003132    0.0000085    -0.0000010    0.0000730     0.0004908    0.0008388 
   0.031757929     0.9476002   -0.1401648    -0.0002483   -0.0001969    -0.0000316   -0.0001071     0.0001224    0.0006259 
   0.031857954     0.9476154   -0.1473810     0.0002215   -0.0000976     0.0000041    0.0000244     0.0007847    0.0004150 
   0.031957979     0.9489779   -0.1402378    -0.0001160    0.0000797    -0.0000765    0.0000915     0.0001319    0.0009613 
   0.032058004     0.9463355   -0.1414247    -0.0003873    0.0002198     0.0001019    0.0000122     0.0006808    0.0002187 
   0.032158029     0.9542277   -0.1454795     0.0002229   -0.0004659     0.0000548   -0.0000784     0.0006309    0.0003632 
   0.032258054     0.9487671   -0.1452959    -0.0000318   -0.0004216    -0.0001069   -0.0001217     0.0004189    0.0004380 
   0.032358079     0.9448968   -0.1434481    -0.0002139    0.0001874     0.0000936    0.0000696     0.0003800    0.0008328 
   0.032458104     0.9490873   -0.1470187     0.0004808    0.0001076     0.0000136   -0.0000880     0.0006032    0.0003720 
   0.032558129     0.9428325   -0.1440266     0.0000796   -0.0000102    -0.0000082    0.0000662     0.0003553    0.0000740 
   0.032658154     0.9479800   -0.1417566     0.0001359   -0.0001882     0.0000078   -0.0000440     0.0004349    0.0003351 
   0.032758179     0.9481310   -0.1485093     0.0006058    0.0001555     0.0000404    0.0000584     0.0006095    0.0010700 
   0.032858204     0.9416436   -0.1463289    -0.0000499    0.0002985     0.0000050   -0.0000511     0.0005428    0.0000795 
   0.032958229     0.9453363   -0.1454893    -0.0002180   -0.0001734     0.0000357    0.0000232     0.0002825    0.0007534 
   0.033058254     0.9430146   -0.1463806    -0.0003075    0.0001748     0.0000232    0.0000858     0.0003698    0.0002995 
   0.033158279     0.9421153   -0.1531166    -0.0003189    0.0000419    -0.0000414   -0.0000825     0.0009172    0.0007240 
   0.033258304     0.9461362   -0.1530047    -0.0000415    0.0001975    -0.0000405    0.0000685    -0.0000072    0.0004041 
   0.033358329     0.9505694   -0.1439540    -0.0003548   -0.0000804     0.0000085   -0.0000018     0.0007275    0.0006336 
   0.033458354     0.9407169   -0.1494879     0.0000115    0.0001594    -0.0000348    0.0000951     0.0007427    0.0006352 
   0.033558379     0.9432131   -0.1513864    -0.0000986   -0.0000251    -0.0000076   -0.0000723     0.0005683    0.0001609 
   0.033658404     0.9426280   -0.1545656     0.0002121    0.0000267    -0.0001136   -0.0000483     0.0002100    0.0007866 
   0.033758429     0.9466146   -0.1517802    -0.0000308    0.0001521    -0.0000130   -0.0000964     0.0004388    0.0003971 
   0.033858454     0.9445066   -0.1529386    -0.0000233   -0.0002887    -0.0000305    0.0000569     0.0006088    0.0006374 
   0.033958479     0.9470175   -0.1538015     0.0003090    0.0001457     0.0001089   -0.0001224     0.0002589    0.0003065 
   0.034058504     0.9391886   -0.1535614    -0.0001564    0.0002046    -0.0000578   -0.0000703    -0.0001996    0.0007977 
   0.034158529     0.9433050   -0.1567026    -0.0001686    0.0003640    -0.0000628   -0.0000042     0.0008651    0.0004898 
   0.034258554     0.9397909   -0.1516323    -0.0000229   -0.0002032    -0.0000462    0.0000290    -0.0000516    0.0004862 
   0.034358579     0.9483215   -0.1577276    -0.0000227   -0.0000411    -0.0001460   -0.0000267     0.0007338    0.0005605 
   0.034458604     0.9466633   -0.1560579    -0.0000621    0.0000552     0.0000770    0.0000586     0.0005183    0.0005852 
   0.034558629     0.9461277   -0.1545610    -0.0001405    0.0002694    -0.0000115    0.0000073     0.0005352   -0.0001861 
   0.034658654     0.9451002   -0.1548076     0.0000326    0.0001940    -0.0001268   -0.0000484     0.0007762    0.0005557 
   0.034758679     0.9450846   -0.1616974     0.0000927   -0.0004507    -0.0001981    0.0000197     0.0008208    0.0007826 
   0.034858704     0.9495723   -0.1547217    -0.0000385    0.0000342     0.0000387   -0.0000877     0.0001918    0.0004172 
   0.034958729     0.9413046   -0.1552775     0.0000770    0.0003029    -0.0000536   -0.0000101     0.0006415    0.0004240 
   0.035058754     0.9414139   -0.1573607     0.0000201    0.0003216     0.0001179    0.0000297     0.0006514    0.0004113 
   0.035158779     0.9457173   -0.1552460     0.0001759   -0.0001416    -0.0000292   -0.0000020     0.0003497    0.0004311 
   0.035258804     0.9435573   -0.1592463    -0.0001952    0.0001256     0.0000181    0.0000921     0.0003944    0.0003913 
   0.035358829     0.9395570   -0.1546951     0.0001748    0.0001018    -0.0000295   -0.0000608     0.0002829    0.0005286 
   0.035458854     0.9480343   -0.1611881    -0.0000227   -0.0002615    -0.0000307   -0.0000445     0.0003570    0.0005117 
   0.035558879     0.9450660   -0.1571615    -0.0000766   -0.0000495    -0.0000510    0.0000116     0.0006914    0.0006237 
   0.035658904     0.9407378   -0.1553168     0.0001412    0.0002524    -0.0000159    0.0000036     0.0003038    0.0006682 
   0.035758929     0.9409012   -0.1590995     0.0002863   -0.0000119     0.0000009    0.0000520     0.0005308    0.0007169 
   0.035858954     0.9388748   -0.1631645    -0.0001825   -0.0001696    -0.0001462    0.0001017     0.0005999    0.0004674 
   0.035958979     0.9427477   -0.1597777    -0.0000183    0.0000002    -0.0000643    0.0000084     0.0004607    0.0003084 
   0.036059005     0.9416817   -0.1602668    -0.0001006   -0.0002079    -0.0000259   -0.0000042     0.0001062    0.0003447 
   0.036159030     0.9410703   -0.1572149    -0.0001548    0.0000296    -0.0000367    0.0000109     0.0001821    0.0001947 
   0.036259055     0.9416025   -0.1621662     0.0001086    0.0002521     0.0000641    0.0000502    -0.0000360    0.0000868 
   0.036359080     0.9389315   -0.1629053    -0.0000645   -0.0001517     0.0000152   -0.0000319     0.0009036    0.0001782 
   0.036459105     0.9445352   -0.1667277     0.0000966   -0.0001257     0.0000104   -0.0000180     0.0003088    0.0002660 
   0.036559130     0.9412605   -0.1620513    -0.0002066   -0.0000083     0.0000550   -0.0000933     0.0003582    0.0007044 
   0.036659155     0.9420809   -0.1619889     0.0000742    0.0002292     0.0000179   -0.0000049     0.0002353    0.0001173 
   0.036759180     0.9425479   -0.1664204    -0.0001961   -0.0000922     0.0000435    0.0000151     0.0004676    0.0006786 
   0.036859205     0.9418675   -0.1621995    -0.0003584   -0.0000340    -0.0000595    0.0000242     0.0000859    0.0005641 
   0.036959230     0.9435329   -0.1656876     0.0000394    0.0001497    -0.0000324   -0.0000818    -0.0000412    0.0004696 
   0.037059255     0.9412281   -0.1661854     0.0000472    0.0000782    -0.0000088    0.0000145     0.0004291    0.0001526 
   0.037159280     0.9440240   -0.1653133    -0.0001292    0.0002196     0.0000147   -0.0000622     0.0008292    0.0005074 
   0.037259305     0.9407915   -0.1677941     0.0000695   -0.0000482     0.0000551    0.0000089     0.0006173    0.0003949 
   0.037359330     0.9438720   -0.1675697     0.0000985   -0.0000995    -0.0000497   -0.0000042     0.0001570    0.0004925 
   0.037459355     0.9416361   -0.1688275     0.0000603    0.0000748     0.0000417    0.0000883     0.0005302    0.0002408 
   0.037559380     0.9410304   -0.1694697    -0.0001806    0.0001382    -0.0000185    0.0000054     0.0003056    0.0001745 
   0.037659405     0.9430963   -0.1680819    -0.0002605    0.0000144    -0.0000454    0.0000297     0.0004133    0.0002309 
   0.037759430     0.9402174   -0.1689776     0.0001376   -0.0001002    -0.0000865   -0.0000356     0.0009898    0.0003339 
   0.037859455     0.9404302   -0.1683488     0.0000338   -0.0001890     0.0000263    0.0001326     0.0003627    0.0009666 
   0.037959480     0.9408704   -0.1710812     0.0001645    0.0000170    -0.0000321    0.0001094     0.0002349    0.0005233 
   0.038059505     0.9389601   -0.1652042    -0.0002638   -0.0000677     0.0000256   -0.0000393     0.0002873    0.0003194 
   0.038159530     0.9402933   -0.1725895     0.0000419   -0.0001582     0.0001049    0.0001273     0.0001188    0.0001184 
   0.038259555     0.9416419   -0.1734170     0.0001283    0.0001497     0.0000023    0.0000437     0.0001222    0.0006859 
   0.038359580     0.9410862   -0.1693842    -0.0000291    0.0000545     0.0000163    0.0000088     0.0004573    0.0008920 
   0.038459605     0.9376034   -0.1710332    -0.0000013   -0.0000875     0.0000360    0.0000059     0.0002165    0.0003820 
   0.038559630     0.9418406   -0.1729710    -0.0000261   -0.0003672     0.0001037    0.0000653     0.0001496    0.0004382 
   0.038659655     0.9429591   -0.1738420    -0.0000821    0.0000029    -0.0001078    0.0000179     0.0008241    0.0000956 
   0.038759680     0.9410409   -0.1726384    -0.0000518   -0.0002619    -0.0000169    0.0000472     0.0004094    0.0008386 
   0.038859705     0.9398233   -0.1713413    -0.0002410   -0.0001305     0.0000408    0.0000161     0.0002229    0.0002090 
   0.038959730     0.9426172   -0.1739310     0.0000730    0.0000346    -0.0000517    0.0000216     0.0003080    0.0003323 
   0.039059755     0.9427242   -0.1748253    -0.0001953   -0.0002975    -0.0000386    0.0000714     0.0007463    0.0003224 
   0.039159780     0.9382657   -0.1726413    -0.0000128    0.0000040    -0.0000906   -0.0000004     0.0001947    0.0001049 
   0.039259805     0.9376613   -0.1751977    -0.0001310    0.0001397    -0.0001149    0.0000954     0.0007536    0.0002007 
   0.039359830     0.9396833   -0.1792638     0.0000184   -0.0000395    -0.0000361    0.0000544     0.0003274    0.0006550 
   0.039459855     0.9353291   -0.1782618     0.0001146    0.0000660    -0.0000145    0.0000025     0.0002006    0.0004177 
   0.039559880     0.9358758   -0.1762706     0.0002095    0.0001786    -0.0000168    0.0000216     0.0004866    0.0002252 
   0.039659905     0.9367595   -0.1771317    -0.0000209    0.0000376    -0.0000428    0.0000055     0.0002781    0.0006572 
   0.039759930     0.9380780   -0.1790650    -0.0000101   -0.0000246    -0.0000378   -0.0000204     0.0002805    0.0001028 
   0.039859955     0.9366556   -0.1761908    -0.0001771    0.0001100     0.0000652   -0.0000656     0.0007918    0.0000016 
   0.039959980     0.9381249   -0.1802929     0.0002456    0.0000988    -0.0000235   -0.0000290     0.0002897    0.0001823 
   0.040060005     0.9381590   -0.1781717     0.0000426    0.0002109    -0.0000126   -0.0000192     0.0005070    0.0007935 
   0.040160030     0.9393064   -0.1826349    -0.0001178    0.0001822     0.0000296    0.0000105     0.0002606    0.0001036 
   0.040260055     0.9361745   -0.1767505    -0.0002280    0.0001779     0.0000136   -0.0000154     0.0005725    0.0008344 
   0.040360080     0.9344667   -0.1798765    -0.0003631   -0.0000777    -0.0000736   -0.0000289     0.0000003    0.0005249 
   0.040460105     0.9397896   -0.1797976    -0.0002585    0.0004971     0.0000614    0.0000690     0.0005678    0.0003825 
   0.040560130     0.9392727   -0.1797710    -0.0000481    0.0000149    -0.0000210   -0.0000748     0.0004119    0.0003223 
   0.040660155     0.9392887   -0.1772720    -0.0001818   -0.0001573    -0.0000127    0.0000000    -0.0000741    0.0005670 
   0.040760180     0.9329759   -0.1800389     0.0000644    0.0000571    -0.0000532   -0.0000235    -0.0000074    0.0004480 
   0.040860205     0.9346951   -0.1807477     0.0000276   -0.0000848    -0.0000124   -0.0000389     0.0004486    0.0004622 
   0.040960230     0.9382072   -0.1823646     0.0000394    0.0004778     0.0000069    0.0000525     0.0003463    0.0005585 
   0.041060255     0.9350727   -0.1794495     0.0001790   -0.0001847    -0.0000777   -0.0000491    -0.0001024    0.0003078 
   0.041160280     0.9381948   -0.1813223     0.0001746    0.0000442     0.0000957   -0.0000603     0.0001202    0.0006345 
   0.041260305     0.9361987   -0.1825170    -0.0000443    0.0000493     0.0000017    0.0000602     0.0003536    0.0006782 
   0.041360330     0.9360247   -0.1835684     0.0001457   -0.0001851     0.0000673    0.0000132     0.0007606    0.0002926 
   0.041460355     0.9353473   -0.1873574     0.0002884    0.0001862     0.0000722    0.0000003     0.0000689    0.0002135 
   0.041560380     0.9338634   -0.1848445     0.0001103    0.0001177     0.0000766    0.0000350     0.0007313    0.0002418 
   0.041660405     0.9334569   -0.1869918    -0.0000760   -0.0000971     0.0000016   -0.0000221     0.0007685    0.0000983 
   0.041760430     0.9375170   -0.1863388    -0.0004111   -0.0000111    -0.0000110    0.0000040     0.0007390    0.0004710 
   0.041860455     0.9355558   -0.1855459    -0.0001671    0.0001322     0.0000362    0.0000654     0.0003941    0.0000605 
   0.041960480     0.9366822   -0.1834589    -0.0001230   -0.0001462     0.0000274   -0.0000138     0.0003162   -0.0001007 
   0.042060505     0.9328291   -0.1875156     0.0000626    0.0001513     0.0000035    0.0000488     0.0001241    0.0008818 
   0.042160530     0.9359916   -0.1860530    -0.0002078    0.0000917     0.0000632    0.0000370     0.0000978    0.0002930 
   0.042260555     0.9362386   -0.1893716     0.0001529    0.0000285    -0.0000917   -0.0000244     0.0003055    0.0008949 
   0.042360580     0.9358718   -0.1856653    -0.0000815   -0.0000155    -0.0000370    0.0001053     0.0001578    0.0002148 
   0.042460605     0.9351846   -0.1888385     0.0000104    0.0001199     0.0000000    0.0000302     0.0002388    0.0001781 
   0.042560630     0.9346833   -0.1886331     0.0000572   -0.0000522     0.0000331   -0.0000375     0.0003503    0.0006224 
   0.042660655     0.9336350   -0.1867581     0.0001105    0.0002588    -0.0000736   -0.0000241     0.0000171    0.0006792 
   0.042760680     0.9333241   -0.1899380    -0.0001512    0.0000170     0.0000021   -0.0000562    -0.0000028    0.0000318 
   0.042860705     0.9340726   -0.1902001    -0.0003137   -0.0002791    -0.0000049    0.0000165     0.0003969    0.0001381 
   0.042960730     0.9339754   -0.1933999    -0.0002099   -0.0000101    -0.0000106   -0.0000566     0.0002366    0.0004426 
   0.043060755     0.9312767   -0.1939386     0.0001150    0.0003486    -0.0000274    0.0000469     0.0002530   -0.0001696 
   0.043160780     0.9350342   -0.1929652     0.0002562    0.0001087     0.0000206    0.0000198     0.0006231    0.0002145 
   0.043260805     0.9383960   -0.1903709     0.0001010    0.0001798    -0.0000661    0.0000141     0.0004746    0.0001167 
   0.043360830     0.9335157   -0.1941650     0.0001243   -0.0002773    -0.0000059   -0.0000081     0.0001143    0.0005368 
   0.043460855     0.9315775   -0.1933444    -0.0001999   -0.0000197     0.0000197   -0.0000633     0.0006319   -0.0001106 
   0.043560880     0.9331222   -0.1896090     0.0000924   -0.0001850     0.0000370    0.0000114     0.0001395    0.0004508 
   0.043660905     0.9355682   -0.1922922    -0.0000362   -0.0001586     0.0000576    0.0000417     0.0003874    0.0004164 
   0.043760930     0.9344494   -0.1977266    -0.0001505   -0.0001251     0.0000322    0.0000334     0.0004923    0.0004965 
   0.043860955     0.9295279   -0.1922413    -0.0001546   -0.0001596     0.0000208   -0.0000026    -0.0001794    0.0000255 
   0.043960980     0.9323766   -0.1972499    -0.0001458   -0.0001066     0.0000357    0.0000746    -0.0000076    0.0007928 
   0.044061006     0.9310361   -0.1932096     0.0001632    0.0000911    -0.0000450   -0.0000586     0.0007876    0.0000348 
   0.044161031     0.9363896   -0.1927718    -0.0001209   -0.0000050    -0.0000063    0.0000689     0.0000152    0.0002790 
   0.044261056     0.9360821   -0.1937625     0.0000908   -0.0001652     0.0000108    0.0000968     0.0001444    0.0005067 
   0.044361081     0.9318690   -0.1977927     0.0002341   -0.0001620     0.0000440    0.0000603     0.0001929    0.0000197 
   0.044461106     0.9313198   -0.1978620    -0.0000605    0.0004080     0.0000148    0.0000912     0.0003851    0.0004916 
   0.044561131     0.9329763   -0.1967278     0.0000513   -0.0000487    -0.0000431   -0.0000032     0.0005870    0.0006053 
   0.044661156     0.9334689   -0.2015559     0.0002206   -0.0000464     0.0000168    0.0000518     0.0004820    0.0002370 
   0.044761181     0.9332948   -0.1987621    -0.0006760   -0.0000641     0.0000095    0.0000886     0.0005977    0.0001548 
   0.044861206     0.9311680   -0.1971425    -0.0000991    0.0001796    -0.0000230    0.0000048     0.0002348    0.0001278 
   0.044961231     0.9332486   -0.1994915     0.0000324   -0.0000914    -0.0000627    0.0000784     0.0001639    0.0003602 
   0.045061256     0.9316764   -0.2000318     0.0001733    0.0001183     0.0000584    0.0000550     0.0000149    0.0002886 
   0.045161281     0.9318644   -0.1984690     0.0002210    0.0002369    -0.0000799    0.0000535     0.0003188    0.0007118 
   0.045261306     0.9315696   -0.2010653     0.0001351    0.0001178    -0.0000355    0.0000255     0.0001565    0.0002577 
   0.045361331     0.9314822   -0.1977210    -0.0002007   -0.0000152    -0.0001163   -0.0000343     0.0004985    0.0005376 
   0.045461356     0.9319761   -0.2018949    -0.0001632   -0.0001364    -0.0000467    0.0000177     0.0004055   -0.0002378 
   0.045561381     0.9315850   -0.1971742     0.0001085    0.0003016    -0.0000488   -0.0000871    -0.0000288    0.0006504 
   0.045661406     0.9331844   -0.2029606     0.0003922    0.0000704    -0.0000210    0.0001484     0.0006151    0.0002499 
   0.045761431     0.9328928   -0.1957948     0.0001420   -0.0000444    -0.0000437    0.0000015     0.0003136    0.0002481 
   0.045861456     0.9302673   -0.1992374    -0.0002484    0.0004974     0.0000037    0.0000779     0.0000384    0.0008475 
   0.045961481     0.9262415   -0.2016915    -0.0000377   -0.0001274     0.0000913   -0.0000626     0.0000644    0.0005203 
   0.046061506     0.9285666   -0.2060295     0.0001369   -0.0001929    -0.0000152   -0.0000552     0.0007225   -0.0002251 
   0.046161531     0.9319527   -0.2064252    -0.0000764    0.0000679     0.0000407   -0.0000035     0.0005899   -0.0001408 
   0.046261556     0.9299895   -0.2029845     0.0001478    0.0000117    -0.0000172   -0.0000412     0.0001641    0.0003005 
   0.046361581     0.9291447   -0.2045151     0.0003098   -0.0001868     0.0000077   -0.0000166     0.0008716    0.0004506 
   0.046461606     0.9301988   -0.2044034     0.0002313   -0.0000839     0.0000554   -0.0000179     0.0003293    0.0004611 
   0.046561631     0.9278715   -0.2046623    -0.0000729   -0.0000720     0.0000156   -0.0000399     0.0002676    0.0005810 
   0.046661656     0.9326645   -0.2092045     0.0002571   -0.0000566     0.0001302   -0.0000747     0.0002705    0.0001587 
   0.046761681     0.9292449   -0.2075545    -0.0000427    0.0003034     0.0000273   -0.0000382    -0.0001525    0.0000786 
   0.046861706     0.9303761   -0.2095838     0.0000147   -0.0001199    -0.0000208   -0.0000684     0.0000144    0.0000821 
   0.046961731     0.9267152   -0.2036110    -0.0001648    0.0002544    -0.0000937    0.0001009     0.0006189    0.0005646 
   0.047061756     0.9272491   -0.2048903     0.0001226   -0.0001788    -0.0000186   -0.0000423     0.0004944   -0.0002769 
   0.047161781     0.9282274   -0.2099400    -0.0000702    0.0001163     0.0000566   -0.0001224     0.0005399    0.0005768 
   0.047261806     0.9283729   -0.2122649     0.0002618   -0.0004809    -0.0000359    0.0000292    -0.0000523   -0.0000714 
   0.047361831     0.9314223   -0.2066968     0.0000953    0.0001935     0.0000388    0.0000566     0.0004190   -0.0000290 
   0.047461856     0.9279574   -0.2085124    -0.0002011    0.0003052     0.0001249    0.0000295     0.0003841    0.0002003 
   0.047561881     0.9305366   -0.2052698     0.0005365    0.0004500     0.0000180   -0.0000759     0.0000512    0.0003025 
   0.047661906     0.9291701   -0.2079516     0.0002274    0.0002670    -0.0000168    0.0000013     0.0007087   -0.0002281 
   0.047761931     0.9312882   -0.2110266     0.0000536    0.0002082    -0.0000262   -0.0000352     0.0007100    0.0003884 
   0.047861956     0.9311785   -0.2087580    -0.0000127   -0.0002801    -0.0000175   -0.0000104     0.0002370    0.0003165 
   0.047961981     0.9248585   -0.2144407     0.0001159    0.0001311    -0.0000783    0.0000531     0.0005427    0.0001796 
   0.048062006     0.9266358   -0.2115556    -0.0000594    0.0003374     0.0001705   -0.0000256     0.0001211    0.0002993 
   0.048162031     0.9288110   -0.2179990    -0.0002445   -0.0002159    -0.0000998   -0.0000846     0.0003307    0.0002748 
   0.048262056     0.9290721   -0.2155183     0.0000359    0.0000659     0.0000245    0.0000148     0.0001068    0.0003721 
   0.048362081     0.9251805   -0.2133473     0.0000070   -0.0001384    -0.0001278    0.0000169     0.0008093    0.0000955 
   0.048462106     0.9272979   -0.2150747    -0.0000838   -0.0003429     0.0000008   -0.0000855     0.0002942    0.0003767 
   0.048562131     0.9321423   -0.2166937     0.0001336    0.0004081    -0.0001683    0.0001043     0.0001684    0.0002297 
   0.048662156     0.9262892   -0.2147917    -0.0002399   -0.0001980    -0.0001877    0.0000765     0.0005569    0.0004043 
   0.048762181     0.9242340   -0.2125451    -0.0002804   -0.0003952    -0.0000983   -0.0000800     0.0002331    0.0002975 
   0.048862206     0.9284911   -0.2188496    -0.0001674   -0.0000574     0.0000533   -0.0000245     0.0005325   -0.0003602 
   0.048962231     0.9233782   -0.2141474    -0.0000804    0.0000839    -0.0000753   -0.0000252    -0.0002956    0.0001364 
   0.049062256     0.9258851   -0.2150612     0.0005080   -0.0000134     0.0000140    0.0001324     0.0002748    0.0004813 
   0.049162281     0.9281123   -0.2150060     0.0002339    0.0003325     0.0000931    0.0000469    -0.0002547   -0.0001202 
   0.049262306     0.9295721   -0.2140882     0.0000273   -0.0000717    -0.0000043   -0.0000508     0.0006055   -0.0001054 
   0.049362331     0.9239884   -0.2153833     0.0000107    0.0001177    -0.0000192    0.0000397     0.0008135    0.0000474 
   0.049462356     0.9244055   -0.2186188     0.0000782    0.0000238    -0.0001292    0.0000155     0.0000773    0.0005045 
   0.049562381     0.9293132   -0.2202869    -0.0000486    0.0002423     0.0000550    0.0001168     0.0003184    0.0002298 
   0.049662406     0.9274194   -0.2139301    -0.0000224    0.0004223     0.0000279   -0.0000927     0.0003515    0.0001170 
   0.049762431     0.9302456   -0.2203404    -0.0000256    0.0002042    -0.0001305   -0.0000897    -0.0001312    0.0004061 
   0.049862456     0.9238651   -0.2129240     0.0004796   -0.0000797    -0.0000375    0.0001215     0.0002088    0.0000265 
   0.049962481     0.9306259   -0.2175331     0.0005268   -0.0001947     0.0000298   -0.0000242     0.0002972    0.0001797 
   0.050062506     0.9224358   -0.2208082     0.0003394    0.0000306    -0.0001706   -0.0001363     0.0004081    0.0004041 
   0.050162531     0.9258029   -0.2223120     0.0002344    0.0001862     0.0001026    0.0000233     0.0001306    0.0008052 
   0.050262556     0.9257168   -0.2168025    -0.0002236   -0.0003263     0.0000931   -0.0001002     0.0008641    0.0005966 
   0.050362581     0.9331413   -0.2217213     0.0005506    0.0002699    -0.0000120    0.0000352     0.0004451    0.0000792 
   0.050462606     0.9266377   -0.2220053     0.0000356    0.0000550    -0.0000824    0.0000301     0.0003438    0.0007516 
   0.050562631     0.9240852   -0.2257437    -0.0001476    0.0005842     0.0000699    0.0001673     0.0001876    0.0001331 
   0.050662656     0.9283416   -0.2219312    -0.0003667   -0.0002915     0.0000051    0.0000684     0.0004920    0.0001007 
   0.050762681     0.9230348   -0.2258761    -0.0005662   -0.0001249    -0.0000001    0.0000656     0.0001875   -0.0001061 
   0.050862706     0.9281275   -0.2241381     0.0000922   -0.0000463     0.0000465   -0.0000493     0.0000874    0.0006093 
   0.050962731     0.9268078   -0.2244084    -0.0003272   -0.0002430    -0.0000525   -0.0000702     0.0005011    0.0006220 
   0.051062756     0.9260615   -0.2241540    -0.0000040   -0.0000153    -0.0000449    0.0000536     0.0002219    0.0000939 
   0.051162781     0.9277618   -0.2272320     0.0002116    0.0001918    -0.0000510   -0.0002166     0.0003018    0.0002348 
   0.051262806     0.9249884   -0.2270763     0.0001804    0.0008852     0.0001626    0.0000383     0.0002210    0.0001954 
   0.051362831     0.9308143   -0.2303375     0.0000626   -0.0000590     0.0000903    0.0000898     0.0004495    0.0003944 
   0.051462856     0.9278119   -0.2222472     0.0000102    0.0000112     0.0000121    0.0000437     0.0004994    0.0004613 
   0.051562881     0.9345098   -0.2298171     0.0001523    0.0001790    -0.0001471    0.0001084     0.0001333    0.0001179 
   0.051662906     0.9217865   -0.2258794    -0.0004246    0.0001938    -0.0001808    0.0001346    -0.0001509    0.0001779 
   0.051762931     0.9264454   -0.2306135    -0.0003217    0.0001552    -0.0002340    0.0000348    -0.0001307   -0.0001755 
   0.051862956     0.9247195   -0.2292482    -0.0000961   -0.0000175    -0.0002377   -0.0000937     0.0002499    0.0000924 
   0.051962981     0.9264396   -0.2279505    -0.0002017   -0.0006390    -0.0000341   -0.0000296     0.0007324   -0.0001984 
   0.052063007     0.9250880   -0.2346820     0.0000004   -0.0000715     0.0000678   -0.0001520    -0.0001104    0.0000961 
   0.052163032     0.9243741   -0.2284934     0.0000067    0.0003293    -0.0001070   -0.0002738     0.0002475    0.0003223 
   0.052263057     0.9280750   -0.2276724    -0.0000593   -0.0000078     0.0000437   -0.0001884     0.0009250    0.0000295 
   0.052363082     0.9306002   -0.2302717    -0.0003027    0.0002594    -0.0000158   -0.0000580     0.0002980    0.0000814 
   0.052463107     0.9298429   -0.2353659     0.0001916    0.0001969    -0.0002351    0.0000069     0.0005574    0.0000366 
   0.052563132     0.9250516   -0.2269507    -0.0003489   -0.0000419     0.0000064    0.0000675     0.0006719   -0.0001310 
   0.052663157     0.9178684   -0.2385282    -0.0001379   -0.0000981    -0.0000582    0.0000683    -0.0002925   -0.0001634 
   0.052763182     0.9205273   -0.2347545    -0.0001675   -0.0001436     0.0000801   -0.0000396     0.0001800    0.0002576 
   0.052863207     0.9220748   -0.2301176     0.0000223    0.0001822     0.0000136   -0.0000496     0.0005391    0.0002014 
   0.052963232     0.9198591   -0.2316796    -0.0001934    0.0002834    -0.0000581    0.0000235     0.0003366    0.0001507 
   0.053063257     0.9256891   -0.2294981    -0.0003867   -0.0000895    -0.0000475    0.0001560     0.0006179    0.0003107 
   0.053163282     0.9255667   -0.2351055    -0.0001488    0.0000373     0.0000529    0.0001042     0.0003101    0.0000255 
   0.053263307     0.9268916   -0.2315429    -0.0004709    0.0001926     0.0001270    0.0000256     0.0000860   -0.0000482 
   0.053363332     0.9218467   -0.2406233    -0.0002195   -0.0001492     0.0001980   -0.0000654     0.0001021    0.0003508 
   0.053463357     0.9206554   -0.2345100    -0.0002927    0.0002828     0.0000055    0.0001226     0.0004191    0.0003285 
   0.053563382     0.9220319   -0.2319273     0.0000533    0.0001016    -0.0000070    0.0002707     0.0001936   -0.0002369 
   0.053663407     0.9226935   -0.2372245    -0.0001858   -0.0004180     0.0000492   -0.0001173     0.0006744    0.0001475 
   0.053763432     0.9205900   -0.2360554     0.0004377    0.0002581    -0.0000156    0.0000679     0.0001668    0.0001437 
   0.053863457     0.9192674   -0.2383591    -0.0003977    0.0010058    -0.0001628   -0.0001108    -0.0003845   -0.0002704 
   0.053963482     0.9203495   -0.2387252     0.0003574   -0.0000551     0.0001238   -0.0000650     0.0004276    0.0002330 
   0.054063507     0.9269443   -0.2424833     0.0005808    0.0004614     0.0000433   -0.0000581     0.0003413   -0.0001311 
   0.054163532     0.9224539   -0.2381632    -0.0002743    0.0002280     0.0000014   -0.0001279     0.0002242    0.0002806 
   0.054263557     0.9258289   -0.2416888    -0.0000438   -0.0001515     0.0001747    0.0002811    -0.0000581   -0.0000645 
   0.054363582     0.9187700   -0.2383967     0.0003043    0.0005407     0.0000959    0.0001162     0.0003991    0.0001357 
   0.054463607     0.9259177   -0.2374943     0.0001838    0.0000285     0.0001029    0.0001413     0.0004870   -0.0000189 
   0.054563632     0.9228330   -0.2389299     0.0001505    0.0006606    -0.0001805   -0.0000076    -0.0002015    0.0000538 
   0.054663657     0.9217701   -0.2370425     0.0001112   -0.0003652    -0.0000895    0.0000118     0.0000074   -0.0002962 
   0.054763682     0.9214207   -0.2380056     0.0003115    0.0005323     0.0000717    0.0002245     0.0002279   -0.0001439 
   0.054863707     0.9200699   -0.2393169     0.0004955   -0.0002165    -0.0000226   -0.0000085     0.0004248    0.0006871 
   0.054963732     0.9273602   -0.2449889     0.0005902    0.0005591     0.0001152   -0.0001697     0.0005623    0.0000688 
   0.055063757     0.9216357   -0.2395009    -0.0005835    0.0008608     0.0000497    0.0000156     0.0003390   -0.0001795 
   0.055163782     0.9223878   -0.2397567    -0.0003281   -0.0002263    -0.0002119    0.0001766     0.0000549    0.0001896 
   0.055263807     0.9241055   -0.2441128     0.0001909    0.0002278    -0.0000432   -0.0000885     0.0001573    0.0007635 
   0.055363832     0.9229050   -0.2357373    -0.0007950   -0.0000855     0.0001308    0.0000216     0.0001383   -0.0000788 
   0.055463857     0.9164625   -0.2505541    -0.0000926    0.0003141     0.0000149    0.0000684     0.0006968   -0.0000591 
   0.055563882     0.9218206   -0.2475665    -0.0003346    0.0003025    -0.0000889    0.0002204     0.0005966    0.0011506 
   0.055663907     0.9166419   -0.2434301    -0.0000713    0.0000999     0.0001481   -0.0000337     0.0003412    0.0001119 
   0.055763932     0.9155454   -0.2390873    -0.0000359   -0.0004797    -0.0001207   -0.0001113     0.0002489    0.0001135 
   0.055863957     0.9255248   -0.2433674     0.0003669   -0.0006975     0.0000276   -0.0001040     0.0006710   -0.0001819 
   0.055963982     0.9236262   -0.2514781     0.0006098    0.0001966    -0.0000449   -0.0002346     0.0000859    0.0005334 
   0.056064007     0.9230521   -0.2417277     0.0001491    0.0001381     0.0000706   -0.0000257     0.0003586    0.0002300 
   0.056164032     0.9199971   -0.2424170     0.0007028   -0.0000799    -0.0001163    0.0001223     0.0005144    0.0002539 
   0.056264057     0.9202130   -0.2444208    -0.0002801   -0.0002938    -0.0000595    0.0000171    -0.0001172    0.0002006 
   0.056364082     0.9186980   -0.2459095     0.0001830   -0.0004185    -0.0000539   -0.0000937     0.0003776   -0.0000459 
   0.056464107     0.9214068   -0.2493130     0.0000869    0.0003745    -0.0000831   -0.0000197     0.0000519    0.0000835 
   0.056564132     0.9206846   -0.2405465     0.0000951   -0.0002939     0.0000629    0.0000076     0.0002801    0.0002370 
   0.056664157     0.9134616   -0.2533396     0.0002102   -0.0002276     0.0000290    0.0000523     0.0000560    0.0011634 
   0.056764182     0.9205543   -0.2515630    -0.0007202    0.0005011     0.0000730   -0.0001414     0.0006495    0.0003394 
   0.056864207     0.9181342   -0.2501310    -0.0003507    0.0007683     0.0000579   -0.0000230     0.0001948    0.0001246 
   0.056964232     0.9228494   -0.2506579    -0.0005447    0.0000121     0.0001820   -0.0001636    -0.0001592   -0.0000767 
   0.057064257     0.9197722   -0.2590311    -0.0001192    0.0008879    -0.0000044   -0.0000557     0.0003443    0.0003430 
   0.057164282     0.9206074   -0.2518417     0.0000617   -0.0006675     0.0000649    0.0000196    -0.0002086    0.0002198 
   0.057264307     0.9117555   -0.2529626     0.0000637   -0.0007846    -0.0000773    0.0000326     0.0003394   -0.0001145 
   0.057364332     0.9185333   -0.2520737     0.0000086    0.0002169    -0.0000413   -0.0000269    -0.0001185   -0.0000840 
   0.057464357     0.9299647   -0.2475742     0.0000993    0.0004974     0.0002257    0.0000783     0.0004310   -0.0000180 
   0.057564382     0.9204307   -0.2512040    -0.0003324   -0.0002074     0.0000746    0.0002288     0.0003167    0.0000400 
   0.057664407     0.9143314   -0.2573190     0.0001774   -0.0000703     0.0000401    0.0000163     0.0003048    0.0002652 
   0.057764432     0.9162474   -0.2463660     0.0007614   -0.0004373     0.0001072   -0.0000162    -0.0001015    0.0000776 
   0.057864457     0.9195243   -0.2621761     0.0005831    0.0001687     0.0002068    0.0000838     0.0005794    0.0000772 
   0.057964482     0.9100040   -0.2541153    -0.0004051   -0.0007445     0.0001610    0.0000140    -0.0003188    0.0000012 
   0.058064507     0.9115444   -0.2572441     0.0000264   -0.0001474     0.0001133    0.0000896     0.0004388    0.0006737 
   0.058164532     0.9182676   -0.2556535     0.0003987   -0.0000949    -0.0003317    0.0001305    -0.0000915    0.0001134 
   0.058264557     0.9143692   -0.2523780    -0.0002960    0.0001396     0.0000763   -0.0001148     0.0004023    0.0000650 
   0.058364582     0.9148143   -0.2556255    -0.0003913   -0.0000407    -0.0000569    0.0000224     0.0001581    0.0005890 
   0.058464607     0.9118494   -0.2529540     0.0004554    0.0000092     0.0002541   -0.0001044     0.0005691   -0.0000305 
   0.058564632     0.9211727   -0.2532404     0.0006968   -0.0003178    -0.0000441    0.0001248     0.0005561   -0.0000028 
   0.058664657     0.9232067   -0.2558956    -0.0002602   -0.0009951    -0.0002020   -0.0000103    -0.0001565    0.0003092 
   0.058764682     0.9164517   -0.2584572    -0.0001172   -0.0002047    -0.0000533    0.0002190     0.0005079    0.0004477 
   0.058864707     0.9182463   -0.2569418    -0.0008943   -0.0003295    -0.0001109    0.0000262     0.0005429    0.0005966 
   0.058964732     0.9144775   -0.2636257    -0.0000602    0.0001762     0.0000910   -0.0001408     0.0002166    0.0000179 
   0.059064757     0.9190581   -0.2657106     0.0002612   -0.0003218     0.0004002    0.0000849     0.0006760    0.0000021 
   0.059164782     0.9156953   -0.2497641     0.0003224    0.0002153    -0.0000727    0.0000518     0.0000567    0.0001517 
   0.059264807     0.9093624   -0.2641461    -0.0002212    0.0002679     0.0002953    0.0001457     0.0004987   -0.0000176 
   0.059364832     0.9218433   -0.2603636     0.0002281   -0.0005126     0.0001259   -0.0001064     0.0006883    0.0000519 
   0.059464857     0.9158664   -0.2604326     0.0006465   -0.0000143    -0.0003719    0.0001332     0.0006566    0.0001165 
   0.059564882     0.9165463   -0.2645642     0.0005853   -0.0000987    -0.0000412   -0.0001004     0.0004380   -0.0001418 
   0.059664907     0.9200839   -0.2614838    -0.0001124    0.0003341     0.0001225   -0.0000037    -0.0000033    0.0004423 
   0.059764932     0.9067091   -0.2548392    -0.0000507   -0.0004870     0.0002558   -0.0001629     0.0003324   -0.0003457 
   0.059864957     0.9121792   -0.2500245    -0.0002072    0.0005126    -0.0001093    0.0000574     0.0005410    0.0001279 
   0.059964982     0.9191878   -0.2652507     0.0002353    0.0000536     0.0001409   -0.0000712     0.0000930   -0.0000059 
   0.060065008     0.9119698   -0.2686459    -0.0007857    0.0001009    -0.0000706    0.0000702    -0.0001778   -0.0002648 
   0.060165033     0.9169317   -0.2624907    -0.0001586   -0.0001977     0.0002543   -0.0000935     0.0005028    0.0000983 
   0.060265058     0.9142882   -0.2625321     0.0002191   -0.0002994    -0.0000581    0.0000291    -0.0000850    0.0002929 
   0.060365083     0.9075963   -0.2659635     0.0000930    0.0000975     0.0000512   -0.0001233     0.0006159   -0.0000077 
   0.060465108     0.9147612   -0.2692969     0.0001398   -0.0004058    -0.0001274   -0.0000521     0.0005809    0.0001761 
   0.060565133     0.8989189   -0.2711907    -0.0007612   -0.0004306     0.0002756   -0.0001088    -0.0002073   -0.0000071 
   0.060665158     0.9205719   -0.2684759    -0.0001650    0.0002088    -0.0000678    0.0000012     0.0000670    0.0000280 
   0.060765183     0.9137691   -0.2628272     0.0005815   -0.0005349    -0.0000639   -0.0000155     0.0002882    0.0000864 
   0.060865208     0.9191238   -0.2631474    -0.0009519    0.0001147    -0.0002148   -0.0002933     0.0008324    0.0000653 
   0.060965233     0.9082358   -0.2672803    -0.0002559    0.0003817     0.0001744   -0.0001187     0.0005734   -0.0002688 
   0.061065258     0.9125268   -0.2650873    -0.0001790    0.0001340    -0.0000576   -0.0000938     0.0004278    0.0004314 
   0.061165283     0.9125760   -0.2743519    -0.0009002    0.0003721     0.0000277    0.0002547     0.0004965    0.0003221 
   0.061265308     0.9064138   -0.2698652    -0.0001892   -0.0002118    -0.0000613   -0.0000408     0.0000564    0.0001902 
   0.061365333     0.9142367   -0.2667007     0.0000151   -0.0000667     0.0001588   -0.0001776     0.0004365    0.0000402 
   0.061465358     0.9098920   -0.2757132    -0.0002954    0.0008705    -0.0001847   -0.0001403     0.0001323    0.0003168 
   0.061565383     0.9050119   -0.2691961     0.0011143    0.0009516    -0.0000585    0.0001680     0.0004010   -0.0000171 
   0.061665408     0.9215488   -0.2700332    -0.0007191    0.0001559    -0.0003720   -0.0001484    -0.0000040    0.0003490 
   0.061765433     0.9204167   -0.2743636     0.0000516   -0.0004911     0.0000580    0.0000858     0.0003339   -0.0002071 
   0.061865458     0.9104518   -0.2705083     0.0004353   -0.0001211    -0.0000164   -0.0000986     0.0001303    0.0003888 
   0.061965483     0.9141347   -0.2633730     0.0008729    0.0002627     0.0002862   -0.0002346     0.0008972   -0.0000159 
   0.062065508     0.9116825   -0.2745565    -0.0002985    0.0003012     0.0001144   -0.0002020     0.0001387    0.0002814 
   0.062165533     0.9089800   -0.2727256    -0.0001059    0.0000284    -0.0000058    0.0000813     0.0001602    0.0002791 
   0.062265558     0.9079252   -0.2766566    -0.0000760    0.0007329     0.0000168   -0.0000655     0.0002572    0.0003324 
   0.062365583     0.9148273   -0.2774593     0.0003985   -0.0007000    -0.0001094   -0.0001216     0.0000421    0.0000809 
   0.062465608     0.9084896   -0.2698564     0.0000291    0.0004145    -0.0001007    0.0002009     0.0000845    0.0003061 
   0.062565633     0.9147201   -0.2746771     0.0000056   -0.0004669    -0.0002194    0.0000135    -0.0000994    0.0000643 
   0.062665658     0.9147455   -0.2745216     0.0003019    0.0006521     0.0000093   -0.0000260     0.0001992   -0.0002066 
   0.062765683     0.9182345   -0.2778400     0.0006943   -0.0002528     0.0000340    0.0000022    -0.0000601    0.0000150 
   0.062865708     0.9114406   -0.2729425     0.0009774   -0.0000440     0.0001774   -0.0002131     0.0003429   -0.0000025 
   0.062965733     0.9191040   -0.2701346     0.0005309    0.0006755     0.0000503   -0.0001284     0.0003998    0.0000387 
   0.063065758     0.9118775   -0.2782472    -0.0000673   -0.0002079    -0.0000535   -0.0001001     0.0003847    0.0003989 
   0.063165783     0.8986951   -0.2687365     0.0002275   -0.0000309     0.0000486   -0.0000999     0.0002836    0.0000215 
   0.063265808     0.9080109   -0.2665865    -0.0007054    0.0000872    -0.0001031   -0.0000520     0.0004970    0.0000822 
   0.063365833     0.9148667   -0.2772532    -0.0002473   -0.0002533    -0.0001373    0.0002625     0.0002332   -0.0000648 
   0.063465858     0.9076778   -0.2736591     0.0004924   -0.0004183    -0.0000592    0.0002151     0.0005085    0.0004603 
   0.063565883     0.9119875   -0.2777108    -0.0007526   -0.0005558     0.0001304    0.0000073     0.0002935   -0.0000886 
   0.063665908     0.9094698   -0.2798349    -0.0000227    0.0001440     0.0001116   -0.0000068     0.0003130    0.0001785 
   0.063765933     0.9075342   -0.2792304     0.0003847   -0.0000897    -0.0000056    0.0001192     0.0003012   -0.0000574 
   0.063865958     0.9164028   -0.2748461     0.0005239    0.0004289    -0.0000411    0.0000554     0.0001687    0.0004158 
   0.063965983     0.9099920   -0.2770437    -0.0000263    0.0004765     0.0001118   -0.0000002     0.0004404    0.0003905 
   0.064066008     0.9130750   -0.2788396     0.0007854    0.0010041    -0.0001488    0.0001045     0.0006075   -0.0001387 
   0.064166033     0.9147916   -0.2857297    -0.0003346    0.0000707    -0.0001896    0.0002643     0.0002838   -0.0003370 
   0.064266058     0.9130515   -0.2826242    -0.0002433   -0.0003873    -0.0000455   -0.0000861     0.0003763    0.0003655 
   0.064366083     0.9086806   -0.2779057     0.0003608    0.0004970    -0.0004142   -0.0000104     0.0005514    0.0001416 
   0.064466108     0.9125790   -0.2823730     0.0003489    0.0000475     0.0001162   -0.0000033     0.0002478    0.0001437 
   0.064566133     0.9108784   -0.2761686     0.0006164    0.0000166     0.0000451    0.0000919     0.0005394    0.0005565 
   0.064666158     0.9011811   -0.2853678    -0.0000698    0.0001014    -0.0000033    0.0000344     0.0008099    0.0002649 
   0.064766183     0.9046305   -0.2763999    -0.0002222   -0.0002561     0.0000987   -0.0000597     0.0000049    0.0005442 
   0.064866208     0.9097769   -0.2846539    -0.0001093    0.0001117    -0.0000231   -0.0000573     0.0005345    0.0001375 
   0.064966233     0.9077488   -0.2824039     0.0003008   -0.0001017    -0.0001614    0.0000066     0.0005318    0.0001786 
   0.065066258     0.9171229   -0.2860461     0.0000893    0.0001943    -0.0001624   -0.0001000     0.0003939   -0.0003093 
   0.065166283     0.9130669   -0.2786773    -0.0001952   -0.0001178     0.0002571   -0.0000410     0.0002120    0.0001682 
   0.065266308     0.9086342   -0.2876857    -0.0000563   -0.0007921    -0.0001665    0.0001181     0.0008096    0.0000187 
   0.065366333     0.9107202   -0.2821719    -0.0005532    0.0005241    -0.0002788    0.0002202     0.0006109   -0.0001200 
   0.065466358     0.9073274   -0.2766340     0.0003403   -0.0002858     0.0002471   -0.0001612     0.0003650    0.0002429 
   0.065566383     0.9040219   -0.2947959     0.0010123   -0.0001430     0.0000244    0.0000148     0.0004517   -0.0000533 
   0.065666408     0.8992884   -0.2874124     0.0004323    0.0001526     0.0005850   -0.0001921     0.0002738   -0.0004251 
   0.065766433     0.9022886   -0.2761051     0.0001500    0.0004362    -0.0003256    0.0002826     0.0006804    0.0004149 
   0.065866458     0.9060446   -0.2802177     0.0001831   -0.0005787    -0.0002001   -0.0001420     0.0001235    0.0003080 
   0.065966483     0.9027341   -0.2884299     0.0005472    0.0004256    -0.0000765    0.0003391     0.0006050    0.0000527 
   0.066066508     0.9085312   -0.2871020    -0.0002693   -0.0012595    -0.0001755    0.0000984     0.0001411    0.0000997 
   0.066166533     0.9051235   -0.2880973     0.0002301    0.0002588     0.0000915    0.0003419     0.0001867   -0.0000913 
   0.066266558     0.9127640   -0.2862476     0.0000116   -0.0001286     0.0001331   -0.0001813     0.0007484   -0.0005020 
   0.066366583     0.9008316   -0.2894298    -0.0002647    0.0009916     0.0001103   -0.0001888     0.0002023    0.0000149 
   0.066466608     0.9035035   -0.2885757     0.0003423    0.0002398     0.0000741    0.0000754     0.0003327   -0.0002982 
   0.066566633     0.9047108   -0.2870649    -0.0004164   -0.0000897    -0.0001207    0.0000040     0.0001018   -0.0002506 
   0.066666658     0.9081731   -0.2805777    -0.0001285   -0.0002596    -0.0000954    0.0001903     0.0005691    0.0001306 
   0.066766683     0.9094824   -0.2918833     0.0002910    0.0001846     0.0000880    0.0002460     0.0005482    0.0000160 
   0.066866708     0.9047558   -0.2882051     0.0010729    0.0002305     0.0000821   -0.0002948     0.0002154   -0.0002519 
   0.066966733     0.9053382   -0.2915363     0.0008834   -0.0006350    -0.0000062   -0.0001549     0.0007948   -0.0003476 
   0.067066758     0.9047648   -0.2908834     0.0004098    0.0003560    -0.0001347    0.0000724     0.0004509   -0.0000265 
   0.067166783     0.9077955   -0.2991554    -0.0002466    0.0001075     0.0002753   -0.0001303     0.0000999    0.0002254 
   0.067266808     0.9058232   -0.2913924     0.0001626    0.0002906    -0.0001007   -0.0000022     0.0008221   -0.0000743 
   0.067366833     0.9059388   -0.2883243    -0.0003020   -0.0004212    -0.0001608    0.0000874     0.0004867    0.0004880 
   0.067466858     0.9096746   -0.2867469    -0.0005616    0.0000072     0.0003514   -0.0003413     0.0003224   -0.0000105 
   0.067566883     0.9113032   -0.2924808    -0.0007060    0.0001394     0.0000573    0.0001077     0.0005257    0.0002258 
   0.067666908     0.8956274   -0.2951622     0.0000466   -0.0003736    -0.0000051    0.0002787     0.0003260   -0.0000534 
   0.067766933     0.9010784   -0.2975605    -0.0009126   -0.0001183    -0.0003115   -0.0002114     0.0005170    0.0000589 
   0.067866958     0.8999350   -0.2926238     0.0007691    0.0005324     0.0003196   -0.0002684     0.0008707    0.0002861 
   0.067966983     0.9022353   -0.3000210    -0.0000992    0.0010238     0.0002721   -0.0000704     0.0003793    0.0000072 
   0.068067009     0.9027655   -0.2939210    -0.0009174   -0.0006770     0.0001535    0.0003222    -0.0000959    0.0001018 
   0.068167034     0.9004146   -0.2916104    -0.0004514   -0.0002410     0.0001881   -0.0002408     0.0002293   -0.0004971 
   0.068267059     0.9041378   -0.3010430    -0.0000803    0.0002101    -0.0002579    0.0001359     0.0007152    0.0000347 
   0.068367084     0.9090868   -0.3032945     0.0006408   -0.0000107    -0.0002484    0.0001210     0.0004206   -0.0002864 
   0.068467109     0.8986775   -0.2953024    -0.0002330    0.0001678    -0.0002006    0.0000093     0.0000983   -0.0000948 
   0.068567134     0.9003600   -0.2939893    -0.0002889    0.0005059    -0.0001111    0.0003952     0.0004885    0.0000998 
   0.068667159     0.9064061   -0.2936310    -0.0005102    0.0001814     0.0002522   -0.0001314     0.0006287   -0.0004293 
   0.068767184     0.8998204   -0.3093326    -0.0000134    0.0004434    -0.0000051    0.0003109     0.0010626   -0.0000811 
   0.068867209     0.9007583   -0.2975831    -0.0000476    0.0004435    -0.0000920   -0.0003478     0.0003208    0.0000490 
   0.068967234     0.8964448   -0.3042997     0.0005283    0.0000002     0.0000226   -0.0000572     0.0003809   -0.0001576 
   0.069067259     0.9005055   -0.2981102    -0.0007810    0.0007195     0.0001651   -0.0000221     0.0001622   -0.0001986 
   0.069167284     0.9094514   -0.3046089     0.0002615   -0.0007251    -0.0004351   -0.0000188     0.0004115   -0.0000572 
   0.069267309     0.9051127   -0.2945137    -0.0003397   -0.0001749    -0.0000117   -0.0000083     0.0007518   -0.0000767 
   0.069367334     0.8979825   -0.3009568     0.0003474    0.0004522     0.0001131   -0.0001078     0.0006094    0.0000483 
   0.069467359     0.9029563   -0.3027984    -0.0005056    0.0005867    -0.0000448    0.0001830     0.0005648   -0.0002453 
   0.069567384     0.9052851   -0.2897832     0.0007466    0.0003055    -0.0000506   -0.0000980     0.0001212    0.0001177 
   0.069667409     0.9060124   -0.3055108     0.0002723    0.0001985    -0.0001755   -0.0000125     0.0006535    0.0001925 
   0.069767434     0.8990440   -0.3063884    -0.0001341   -0.0004007    -0.0000818   -0.0000398     0.0004758    0.0003088 
   0.069867459     0.9044961   -0.2916234     0.0003549    0.0005225    -0.0000385   -0.0000298     0.0001513   -0.0003131 
   0.069967484     0.9129550   -0.3011822    -0.0003375    0.0005285     0.0000672   -0.0002261     0.0006707   -0.0000278 
   0.070067509     0.8995242   -0.3036868    -0.0004875    0.0001356    -0.0001228   -0.0001345     0.0002909   -0.0001784 
   0.070167534     0.9024016   -0.2948714     0.0007592    0.0010874    -0.0002557   -0.0004541     0.0000293    0.0003421 
   0.070267559     0.9014160   -0.3045662     0.0007320    0.0004559     0.0003204    0.0001647     0.0003581   -0.0000458 
   0.070367584     0.8975088   -0.2988329    -0.0005331    0.0009625    -0.0001655   -0.0000347     0.0001326    0.0000855 
   0.070467609     0.9034961   -0.3079022     0.0000379   -0.0002236    -0.0000073    0.0002877     0.0002330    0.0003744 
   0.070567634     0.9008797   -0.3066490    -0.0002868   -0.0001587     0.0000894   -0.0001749     0.0005574    0.0002152 
   0.070667659     0.8997464   -0.3044795     0.0002181    0.0011973    -0.0000544   -0.0000428     0.0003362   -0.0001572 
   0.070767684     0.8931653   -0.3028953    -0.0002480    0.0001452    -0.0001925   -0.0001045     0.0003973    0.0000412 
   0.070867709     0.9030058   -0.3120986     0.0000593   -0.0003419    -0.0000742    0.0001687     0.0004677    0.0003435 
   0.070967734     0.8998070   -0.3052345    -0.0003698   -0.0000583    -0.0000347    0.0000128     0.0003920   -0.0000313 
   0.071067759     0.9089377   -0.3060202     0.0003045    0.0000238     0.0001251    0.0001911     0.0005203    0.0002496 
   0.071167784     0.9003573   -0.3117463    -0.0007638    0.0007944     0.0000063    0.0002856     0.0008632    0.0000031 
   0.071267809     0.8976601   -0.3040631    -0.0005094    0.0006753    -0.0000184    0.0007307     0.0002113    0.0000912 
   0.071367834     0.9030121   -0.3243475    -0.0003964   -0.0004140    -0.0002657   -0.0002279     0.0005013    0.0001386 
   0.071467859     0.8988893   -0.3045947     0.0011334   -0.0002521    -0.0002262    0.0000803     0.0001547    0.0001499 
   0.071567884     0.9007680   -0.3113580     0.0007066    0.0003878    -0.0000874   -0.0002391     0.0003059    0.0000151 
   0.071667909     0.8998992   -0.3102180    -0.0001985   -0.0004693     0.0001981    0.0003601     0.0004624    0.0002575 
   0.071767934     0.8891426   -0.3144127     0.0007361    0.0000563     0.0001323    0.0000406     0.0002423    0.0001320 
   0.071867959     0.8948087   -0.3164319     0.0002156    0.0001291    -0.0003856   -0.0003564     0.0002410    0.0005106 
   0.071967984     0.8983326   -0.3161550     0.0005747    0.0005766     0.0002951    0.0000672     0.0001903    0.0002234 
   0.072068009     0.9066030   -0.3060811     0.0000987   -0.0000203    -0.0001158   -0.0002767     0.0007738    0.0001213 
   0.072168034     0.8968683   -0.3182081    -0.0001361    0.0001386     0.0001379    0.0001298     0.0005770    0.0001074 
   0.072268059     0.8935475   -0.3142222    -0.0004633   -0.0002920     0.0001103    0.0002650     0.0001828    0.0003569 
   0.072368084     0.9042975   -0.3232776     0.0000220   -0.0006389     0.0001393    0.0002747     0.0001801    0.0001179 
   0.072468109     0.8873196   -0.3157829    -0.0001425    0.0001856    -0.0000040    0.0002941     0.0006273   -0.0002906 
   0.072568134     0.8905487   -0.3078299     0.0003537   -0.0006173     0.0002544    0.0000347     0.0006744    0.0003845 
   0.072668159     0.8953192   -0.3092777     0.0005169   -0.0010611    -0.0001665    0.0000059     0.0005951    0.0001704 
   0.072768184     0.9005467   -0.3193047     0.0005875    0.0007571    -0.0000555   -0.0001026    -0.0000383   -0.0002512 
   0.072868209     0.9004108   -0.3241716    -0.0000489    0.0000409    -0.0000085   -0.0000494     0.0002797    0.0000849 
   0.072968234     0.8998749   -0.3175277    -0.0014155   -0.0001271    -0.0001138   -0.0001495     0.0007780    0.0001974 
   0.073068259     0.8897515   -0.3163433    -0.0000846    0.0000950    -0.0001269    0.0000888     0.0009930    0.0001979 
   0.073168284     0.8994421   -0.3201690     0.0001073    0.0000430     0.0003290    0.0001778     0.0003743    0.0002478 
   0.073268309     0.8956614   -0.3142529    -0.0010509    0.0008250    -0.0002722    0.0000441     0.0004670    0.0001686 
   0.073368334     0.8897668   -0.3211820     0.0001910   -0.0004642     0.0001821    0.0000956     0.0005960    0.0002484 
   0.073468359     0.8847461   -0.3097690    -0.0009585   -0.0001643     0.0000714   -0.0002387     0.0006126   -0.0000362 
   0.073568384     0.8952461   -0.3209261     0.0002403   -0.0006155     0.0002556    0.0000512     0.0001199   -0.0000064 
   0.073668409     0.8945614   -0.3071241    -0.0000340   -0.0004785     0.0000808   -0.0003069     0.0005486    0.0002069 
   0.073768434     0.8937464   -0.3263572     0.0002444   -0.0001205     0.0002797    0.0000192     0.0004751    0.0000926 
   0.073868459     0.8950843   -0.3129985     0.0001208   -0.0000307    -0.0001862    0.0000350     0.0006199   -0.0001365 
   0.073968484     0.8892431   -0.3288408     0.0005146   -0.0002314    -0.0002106    0.0000969     0.0003439   -0.0000099 
   0.074068509     0.8914855   -0.3327999     0.0000512   -0.0002783    -0.0000652   -0.0001789    -0.0000315   -0.0000542 
   0.074168534     0.8927101   -0.3119710     0.0003695    0.0005838    -0.0000364   -0.0004056     0.0003761    0.0003051 
   0.074268559     0.8907404   -0.3241938    -0.0003010   -0.0004181    -0.0001689    0.0002083     0.0001474    0.0001795 
   0.074368584     0.8954139   -0.3206394     0.0003594    0.0001688     0.0000375   -0.0001033     0.0006437    0.0002414 
   0.074468609     0.8884653   -0.3132155     0.0004477   -0.0006124     0.0000740   -0.0005484     0.0005606   -0.0002066 
   0.074568634     0.8923118   -0.3178768     0.0002497   -0.0008086     0.0003292   -0.0000531     0.0004723    0.0002486 
   0.074668659     0.8871766   -0.3206985     0.0001322    0.0002377    -0.0002164    0.0001380     0.0005948   -0.0003493 
   0.074768684     0.8939826   -0.3189246    -0.0003210   -0.0006209    -0.0001868   -0.0000453     0.0004527    0.0000232 
   0.074868709     0.8907828   -0.3223859     0.0000496   -0.0001778    -0.0002773   -0.0002405     0.0009625    0.0004270 
   0.074968734     0.8896858   -0.3181089     0.0004338   -0.0004960     0.0001405    0.0001264     0.0000352   -0.0000347 
   0.075068759     0.8932332   -0.3292751     0.0000241    0.0002352     0.0000448    0.0001704     0.0007234    0.0001403 
   0.075168784     0.8942096   -0.3249042     0.0000874   -0.0002732    -0.0001015   -0.0003895     0.0011445   -0.0000316 
   0.075268809     0.8922961   -0.3267594    -0.0002221    0.0004753    -0.0000296   -0.0002073     0.0005707    0.0001817 
   0.075368834     0.8919836   -0.3326584    -0.0001219    0.0001383    -0.0000986    0.0003021     0.0004468    0.0000626 
   0.075468859     0.8905022   -0.3212048    -0.0001386    0.0008586    -0.0000548    0.0002199     0.0003008    0.0001834 
   0.075568884     0.8894385   -0.3279653     0.0003811   -0.0002913    -0.0000644    0.0001805     0.0006194    0.0002203 
   0.075668909     0.8971106   -0.3327371    -0.0001315    0.0000769     0.0000425   -0.0000773     0.0000427    0.0003847 
   0.075768934     0.8879389   -0.3299899     0.0001588   -0.0005067     0.0002332    0.0001222     0.0005719   -0.0001187 
   0.075868959     0.8831331   -0.3182410    -0.0007550   -0.0008273     0.0001176   -0.0000151     0.0007819   -0.0001873 
   0.075968984     0.8931243   -0.3281757     0.0000352   -0.0003876    -0.0002625   -0.0001265     0.0006126   -0.0001161 
   0.076069010     0.8919399   -0.3220737     0.0003896    0.0001317    -0.0000552   -0.0000211     0.0005805    0.0004115 
   0.076169035     0.9007665   -0.3290208    -0.0000589    0.0003758    -0.0001086    0.0000727     0.0000224    0.0001898 
   0.076269060     0.8931624   -0.3261546     0.0002739   -0.0003629     0.0000417    0.0000276     0.0003706   -0.0000200 
   0.076369085     0.8898024   -0.3299225    -0.0000869    0.0002364    -0.0001269   -0.0000299     0.0003980    0.0000957 
   0.076469110     0.8862801   -0.3286202    -0.0003962   -0.0002000     0.0000778   -0.0000906     0.0003474    0.0001569 
   0.076569135     0.8820597   -0.3341907    -0.0000016   -0.0000050    -0.0002272    0.0002880     0.0004719    0.0000110 
   0.076669160     0.8961529   -0.3339200    -0.0000723    0.0006363    -0.0000394   -0.0001076     0.0005703   -0.0001086 
   0.076769185     0.8992696   -0.3332893     0.0002380    0.0001804     0.0001585    0.0001426     0.0005725    0.0003833 
   0.076869210     0.8937625   -0.3373704    -0.0001432   -0.0004073    -0.0002820   -0.0002930     0.0011015   -0.0000934 
   0.076969235     0.8974870   -0.3365853     0.0003167    0.0003460    -0.0000392    0.0002501     0.0009599    0.0003868 
   0.077069260     0.8831915   -0.3216490    -0.0001382   -0.0004505    -0.0001975    0.0000163     0.0008570   -0.0003887 
   0.077169285     0.8843097   -0.3250620    -0.0004859    0.0001297    -0.0001467    0.0002140     0.0006779    0.0002877 
   0.077269310     0.8762295   -0.3220613    -0.0003021   -0.0000481     0.0001112    0.0000199     0.0004632   -0.0005907 
   0.077369335     0.8915028   -0.3311398    -0.0006857    0.0000361     0.0002632   -0.0000363     0.0004983    0.0001981 
   0.077469360     0.8876960   -0.3294165     0.0003815   -0.0000498    -0.0001447    0.0000258     0.0004498    0.0003898 
   0.077569385     0.8961422   -0.3322110     0.0000077    0.0008313    -0.0002102    0.0001642     0.0004418    0.0000397 
   0.077669410     0.8834884   -0.3315710     0.0000580    0.0000456    -0.0001998    0.0000803     0.0005218   -0.0000659 
   0.077769435     0.8843994   -0.3344861     0.0000258    0.0000350    -0.0000169   -0.0001022     0.0005707    0.0004296 
   0.077869460     0.8891631   -0.3493262    -0.0005829    0.0007867    -0.0000881   -0.0000813     0.0002977   -0.0001286 
   0.077969485     0.8876549   -0.3378030     0.0000137    0.0004051    -0.0002183   -0.0003715     0.0004327    0.0000308 
   0.078069510     0.8882660   -0.3382426    -0.0005487    0.0009064    -0.0001348    0.0000707     0.0004525    0.0000807 
   0.078169535     0.8864859   -0.3322873    -0.0004570    0.0000483     0.0000634    0.0001579     0.0002832    0.0001963 
   0.078269560     0.8831232   -0.3369509    -0.0001177    0.0000432    -0.0002954   -0.0002461     0.0008930    0.0000097 
   0.078369585     0.8916579   -0.3363541     0.0002821    0.0002304    -0.0001837    0.0003129     0.0006636   -0.0000667 
   0.078469610     0.8854126   -0.3407922     0.0008346   -0.0001300     0.0000495    0.0006381     0.0004743   -0.0001243 
   0.078569635     0.8857899   -0.3262484     0.0000077   -0.0003396    -0.0001209    0.0003719     0.0003764    0.0003745 
   0.078669660     0.8879720   -0.3303814    -0.0002575    0.0002152    -0.0000895   -0.0001456     0.0004974   -0.0002719 
   0.078769685     0.8864329   -0.3360201     0.0003952   -0.0000504    -0.0001019    0.0001166     0.0010081   -0.0001317 
   0.078869710     0.8906117   -0.3495892    -0.0009367   -0.0001864     0.0000849    0.0000710     0.0007601    0.0002323 
   0.078969735     0.8853810   -0.3366519     0.0001775   -0.0002654    -0.0000922    0.0003787     0.0005438    0.0004099 
   0.079069760     0.8714039   -0.3499099     0.0003019   -0.0002352    -0.0001349   -0.0001659     0.0004690    0.0001005 
   0.079169785     0.8810576   -0.3399226     0.0001021   -0.0001463     0.0000795   -0.0000631     0.0005855    0.0003371 
   0.079269810     0.8833119   -0.3315161     0.0001715    0.0002088    -0.0000163   -0.0000265     0.0005903   -0.0001252 
   0.079369835     0.8783820   -0.3484746    -0.0002420   -0.0000625     0.0001715    0.0000708     0.0006653    0.0004317 
   0.079469860     0.8966395   -0.3440869     0.0005514    0.0004429    -0.0000190    0.0002407     0.0005351    0.0003313 
   0.079569885     0.8800210   -0.3431088    -0.0005628    0.0004301    -0.0000166    0.0000005     0.0006298    0.0002413 
   0.079669910     0.8835352   -0.3484083    -0.0002077   -0.0001016     0.0002537    0.0001587     0.0006809    0.0001500 
   0.079769935     0.8866096   -0.3377132     0.0004556    0.0003028     0.0001696   -0.0002891     0.0005595    0.0000390 
   0.079869960     0.8785115   -0.3497417    -0.0003093    0.0001574    -0.0004279    0.0000732     0.0003479   -0.0004337 
   0.079969985     0.8860613   -0.3506846    -0.0001229   -0.0001828    -0.0000584    0.0000117     0.0009347   -0.0000095 
   0.080070010     0.8892346   -0.3408492    -0.0000794   -0.0007305     0.0002450   -0.0000683     0.0006824   -0.0002530 
   0.080170035     0.8848374   -0.3369884    -0.0001647    0.0000326    -0.0001184    0.0000916     0.0007368    0.0001092 
   0.080270060     0.8885763   -0.3393930    -0.0006390   -0.0011356    -0.0004322    0.0000617     0.0008261    0.0007721 
   0.080370085     0.8821487   -0.3491188    -0.0000628   -0.0001693     0.0004590   -0.0000611     0.0005108    0.0002976 
   0.080470110     0.8905653   -0.3496183    -0.0004660   -0.0001199     0.0000739    0.0001607     0.0007545    0.0000397 
   0.080570135     0.8899028   -0.3434896     0.0000912   -0.0000964     0.0000615    0.0001348     0.0006125    0.0000525 
   0.080670160     0.8882975   -0.3563579    -0.0000422   -0.0000378    -0.0005160    0.0000421     0.0007101    0.0000318 
   0.080770185     0.8828460   -0.3480312     0.0002614    0.0008904    -0.0002804    0.0000978     0.0006623   -0.0004029 
   0.080870210     0.8747992   -0.3529146    -0.0003609   -0.0003401     0.0001391    0.0001484     0.0003177   -0.0000370 
   0.080970235     0.8881834   -0.3458609     0.0002789    0.0001014     0.0001837   -0.0001625     0.0002250    0.0000302 
   0.081070260     0.8787861   -0.3492208     0.0002251    0.0002308     0.0001601   -0.0004140     0.0011176    0.0001999 
   0.081170285     0.8907843   -0.3560829    -0.0003036   -0.0002230     0.0001594   -0.0001860     0.0001978    0.0001874 
   0.081270310     0.8896350   -0.3475545    -0.0000661    0.0005206    -0.0004081    0.0003030     0.0007624    0.0005732 
   0.081370335     0.8802868   -0.3434412     0.0003455    0.0000270    -0.0000521    0.0002160     0.0002865    0.0002734 
   0.081470360     0.8804096   -0.3438807    -0.0002143   -0.0002998     0.0000976    0.0000404     0.0007359    0.0001873 
   0.081570385     0.8745467   -0.3481041    -0.0003712   -0.0002309    -0.0000464   -0.0003191     0.0006305   -0.0004061 
   0.081670410     0.8836111   -0.3450399     0.0006858   -0.0001788    -0.0001410    0.0000877     0.0009403    0.0000022 
   0.081770435     0.8839477   -0.3511619    -0.0005742    0.0002843    -0.0000256    0.0002850     0.0009129    0.0000956 
   0.081870460     0.8822894   -0.3555638     0.0001919    0.0007544    -0.0002717   -0.0001359     0.0006458   -0.0001112 
   0.081970485     0.8744599   -0.3419411     0.0001667   -0.0001669    -0.0000917    0.0001378     0.0006746   -0.0000887 
   0.082070510     0.8814588   -0.3538041    -0.0001995   -0.0005713     0.0001549   -0.0000339     0.0001720   -0.0000290 
   0.082170535     0.8780882   -0.3483195    -0.0005936    0.0002673    -0.0000590    0.0000240     0.0006736   -0.0001574 
   0.082270560     0.8768385   -0.3505822     0.0002060    0.0003212     0.0003079   -0.0001298     0.0009853    0.0003779 
   0.082370585     0.8821869   -0.3524709     0.0003316   -0.0007748     0.0001078    0.0003438     0.0008989    0.0000888 
   0.082470610     0.8792565   -0.3632357     0.0008513   -0.0002451     0.0003594    0.0000346     0.0007654    0.0002013 
   0.082570635     0.8727408   -0.3548011     0.0000168    0.0003822    -0.0001776   -0.0000544     0.0007852   -0.0001120 
   0.082670660     0.8677599   -0.3558355     0.0000027   -0.0001130     0.0002072    0.0002758     0.0004680   -0.0002528 
   0.082770685     0.8781657   -0.3546414     0.0001204   -0.0000318     0.0000606   -0.0002824     0.0004775    0.0002343 
   0.082870710     0.8737486   -0.3555386     0.0007882   -0.0005053     0.0001628    0.0000140     0.0007242   -0.0002423 
   0.082970735     0.8761519   -0.3547077     0.0000260   -0.0001080     0.0001267    0.0001483     0.0010305    0.0000393 
   0.083070760     0.8714405   -0.3465079     0.0002249    0.0000302    -0.0002108    0.0000138     0.0003770   -0.0000393 
   0.083170785     0.8804646   -0.3579529     0.0001254   -0.0000164     0.0001407    0.0003189     0.0011859   -0.0000516 
   0.083270810     0.8747187   -0.3580410    -0.0003572    0.0002567     0.0000467    0.0000803     0.0006559    0.0005710 
   0.083370835     0.8807418   -0.3596812     0.0000904    0.0001710     0.0001443    0.0002788     0.0004365    0.0001048 
   0.083470860     0.8798010   -0.3642830     0.0003288   -0.0003011    -0.0000641    0.0000916     0.0004023    0.0003287 
   0.083570885     0.8790463   -0.3502219    -0.0002200    0.0005111     0.0001292   -0.0002499     0.0004405    0.0000809 
   0.083670910     0.8831477   -0.3547496    -0.0005860   -0.0000032     0.0001558   -0.0001600     0.0002631    0.0002948 
   0.083770935     0.8741742   -0.3548399    -0.0004600    0.0000717    -0.0000742   -0.0001377     0.0010331   -0.0000351 
   0.083870960     0.8771393   -0.3627096     0.0004053    0.0003283    -0.0001142    0.0000760     0.0007197    0.0003246 
   0.083970985     0.8700554   -0.3555534     0.0003094    0.0001770    -0.0001007    0.0001152     0.0003356    0.0002142 
   0.084071011     0.8836514   -0.3582881     0.0001908    0.0003956    -0.0001018   -0.0002064     0.0004013    0.0000439 
   0.084171036     0.8770788   -0.3593166    -0.0000864    0.0000385    -0.0001657   -0.0001777     0.0005152    0.0001580 
   0.084271061     0.8767322   -0.3660942     0.0006160   -0.0003974     0.0003026    0.0002792     0.0003723    0.0003378 
   0.084371086     0.8770204   -0.3630034     0.0005319    0.0007752     0.0002532    0.0000732     0.0008612    0.0001344 
   0.084471111     0.8720666   -0.3535514     0.0002655    0.0001509    -0.0001863   -0.0000169     0.0004456    0.0002792 
   0.084571136     0.8831713   -0.3561562    -0.0005258    0.0002549     0.0002513    0.0000387     0.0004847    0.0002520 
   0.084671161     0.8685229   -0.3668922     0.0004880    0.0004116    -0.0001799   -0.0000275     0.0007397    0.0004108 
   0.084771186     0.8743729   -0.3666126     0.0010736    0.0002210     0.0000259    0.0004576     0.0004368    0.0002640 
   0.084871211     0.8883671   -0.3742218     0.0001432    0.0001808     0.0001591    0.0000571     0.0006600    0.0000851 
   0.084971236     0.8698875   -0.3583787     0.0002993   -0.0000117    -0.0000620   -0.0001289     0.0006447   -0.0000106 
   0.085071261     0.8761851   -0.3611692    -0.0003552    0.0006343    -0.0001915   -0.0000272     0.0008394    0.0000020 
   0.085171286     0.8809064   -0.3703996    -0.0007166   -0.0001510     0.0000781    0.0001751     0.0007396   -0.0001102 
   0.085271311     0.8739843   -0.3638962    -0.0002883    0.0000173    -0.0000765   -0.0000360     0.0004617    0.0001672 
   0.085371336     0.8773881   -0.3694256    -0.0005970    0.0003796    -0.0000949   -0.0000448     0.0008494    0.0001883 
   0.085471361     0.8733337   -0.3591997    -0.0004190   -0.0001340    -0.0000938   -0.0002531     0.0003170    0.0000984 
   0.085571386     0.8778620   -0.3749702    -0.0001284    0.0004536    -0.0002055    0.0001178     0.0008314   -0.0000970 
   0.085671411     0.8696399   -0.3737068    -0.0003683   -0.0003879    -0.0002185   -0.0000379     0.0006601    0.0001440 
   0.085771436     0.8773059   -0.3714408    -0.0007566   -0.0005548     0.0000225   -0.0001797     0.0005035    0.0001219 
   0.085871461     0.8803498   -0.3733943    -0.0004015   -0.0000151    -0.0003206    0.0002678     0.0010502    0.0004478 
   0.085971486     0.8760527   -0.3731466     0.0002180   -0.0001425     0.0001890   -0.0002878     0.0009477    0.0004190 
   0.086071511     0.8726874   -0.3807346     0.0008321   -0.0002718    -0.0001095   -0.0001009     0.0005540    0.0003262 
   0.086171536     0.8738776   -0.3658394    -0.0002600   -0.0000940     0.0000688   -0.0000357     0.0007353    0.0001991 
   0.086271561     0.8655722   -0.3733789    -0.0004075   -0.0005579     0.0001217    0.0000233     0.0006548    0.0000802 
   0.086371586     0.8681055   -0.3804399     0.0001310   -0.0002862    -0.0001204    0.0000231     0.0009512    0.0002731 
   0.086471611     0.8723051   -0.3694605    -0.0003745   -0.0006823     0.0001159    0.0001298     0.0006515    0.0001172 
   0.086571636     0.8737126   -0.3700450    -0.0000257    0.0000521     0.0003404   -0.0002710     0.0004845    0.0004990 
   0.086671661     0.8701522   -0.3677346    -0.0005821    0.0006237    -0.0000908   -0.0004653     0.0008830    0.0001002 
   0.086771686     0.8713243   -0.3687127     0.0002515    0.0004399     0.0000765    0.0000008     0.0002894    0.0001498 
   0.086871711     0.8821707   -0.3651995    -0.0002595    0.0000510    -0.0002934   -0.0000931     0.0006693    0.0000481 
   0.086971736     0.8653752   -0.3707604    -0.0000562    0.0003188     0.0000666    0.0001216     0.0009930   -0.0001994 
   0.087071761     0.8780665   -0.3697160     0.0001388   -0.0003007    -0.0002082    0.0003183     0.0004085   -0.0000435 
   0.087171786     0.8737844   -0.3619257     0.0005097    0.0004401     0.0001587    0.0000381     0.0007055    0.0002016 
   0.087271811     0.8651922   -0.3694831     0.0002531   -0.0003995    -0.0000950   -0.0001717     0.0006776   -0.0000573 
   0.087371836     0.8742468   -0.3741576     0.0007871   -0.0000812    -0.0002116   -0.0003767     0.0005826    0.0002460 
   0.087471861     0.8776203   -0.3700900    -0.0001085    0.0000275     0.0002384   -0.0000342     0.0001834   -0.0005373 
   0.087571886     0.8762934   -0.3655459    -0.0003014    0.0002299     0.0000830   -0.0003204     0.0002814   -0.0000476 
   0.087671911     0.8826201   -0.3583848    -0.0009386    0.0003177     0.0001011    0.0002712     0.0004399   -0.0000539 
   0.087771936     0.8613787   -0.3719821     0.0006038    0.0002527    -0.0000903    0.0001445     0.0006291    0.0002322 
   0.087871961     0.8737167   -0.3718606    -0.0001517    0.0002386     0.0001791    0.0002988     0.0010170   -0.0000425 
   0.087971986     0.8663083   -0.3726690     0.0000018    0.0000524     0.0000437    0.0002415     0.0001549    0.0001897 
   0.088072011     0.8623509   -0.3721668     0.0001476   -0.0005726     0.0000219   -0.0001494     0.0001857   -0.0000745 
   0.088172036     0.8651747   -0.3748715     0.0001724   -0.0001977     0.0000749    0.0002915     0.0006314    0.0003813 
   0.088272061     0.8639764   -0.3777880    -0.0001167   -0.0005699    -0.0001666    0.0000445     0.0009811    0.0002030 
   0.088372086     0.8649831   -0.3761047    -0.0004620   -0.0010095    -0.0000947   -0.0001537     0.0003823   -0.0003148 
   0.088472111     0.8635463   -0.3789710     0.0001972   -0.0000748     0.0001213   -0.0002554     0.0006749    0.0003378 
   0.088572136     0.8779786   -0.3795177    -0.0006029    0.0000402    -0.0001218    0.0000363     0.0002218    0.0001906 
   0.088672161     0.8708726   -0.3818284     0.0000775   -0.0005103    -0.0000064   -0.0001110     0.0004602    0.0000195 
   0.088772186     0.8688478   -0.3844758     0.0004237   -0.0003780    -0.0000422    0.0001876     0.0010356    0.0002916 
   0.088872211     0.8658130   -0.3781175     0.0001752    0.0002328     0.0001648   -0.0000397     0.0007429    0.0003138 
   0.088972236     0.8644217   -0.3788009    -0.0003339   -0.0005417     0.0001692    0.0001538     0.0007567    0.0002636 
   0.089072261     0.8583758   -0.3768770    -0.0000331    0.0000052     0.0000544    0.0001094     0.0002273    0.0000933 
   0.089172286     0.8768300   -0.3822087    -0.0002400   -0.0000656    -0.0000194    0.0003624     0.0006836   -0.0001722 
   0.089272311     0.8613786   -0.3810947    -0.0003116   -0.0005350     0.0002679   -0.0001772     0.0005318    0.0000680 
   0.089372336     0.8656872   -0.3714874     0.0002756    0.0001289     0.0000446   -0.0000357     0.0002965    0.0001870 
   0.089472361     0.8644686   -0.3785444     0.0004451    0.0004980     0.0001424   -0.0000868     0.0010216   -0.0004590 
   0.089572386     0.8752928   -0.3858434    -0.0000756    0.0000768    -0.0002139    0.0003198     0.0005962    0.0001802 
   0.089672411     0.8616788   -0.3901337    -0.0002677    0.0002178    -0.0001980   -0.0000089     0.0008283    0.0004932 
   0.089772436     0.8701175   -0.3887848    -0.0001733   -0.0000921     0.0000594    0.0001430     0.0008309    0.0003135 
   0.089872461     0.8737945   -0.3797996     0.0003262   -0.0002365     0.0001005   -0.0001918     0.0010336    0.0005748 
   0.089972486     0.8681658   -0.3711730     0.0003795    0.0002875     0.0001578   -0.0001568     0.0005976    0.0000386 
   0.090072511     0.8723038   -0.3831693    -0.0002338   -0.0002314     0.0000003    0.0000542     0.0011037    0.0000348 
   0.090172536     0.8558569   -0.3789409     0.0000893   -0.0005486     0.0000067    0.0003077     0.0008295    0.0005858 
   0.090272561     0.8692335   -0.3828974     0.0005400    0.0002898    -0.0002485   -0.0002119     0.0005268    0.0003864 
   0.090372586     0.8701186   -0.3884049    -0.0004536   -0.0000176    -0.0000190    0.0001666     0.0004630    0.0003777 
   0.090472611     0.8660316   -0.3785868     0.0001396    0.0003384    -0.0000783   -0.0000192     0.0011532    0.0003368 
   0.090572636     0.8660992   -0.3898847     0.0001159   -0.0000583    -0.0000999   -0.0001465     0.0004806    0.0001209 
   0.090672661     0.8584674   -0.3904032    -0.0002684    0.0007631     0.0001481   -0.0000025     0.0008265    0.0004445 
   0.090772686     0.8609676   -0.3898205     0.0000507    0.0000879     0.0000865    0.0000538     0.0004201    0.0007482 
   0.090872711     0.8635478   -0.3936243    -0.0001497   -0.0002152    -0.0000028   -0.0002896     0.0004600    0.0002683 
   0.090972736     0.8755488   -0.3828805     0.0005523   -0.0000909    -0.0001644    0.0004311     0.0004999    0.0002936 
   0.091072761     0.8617737   -0.3866521     0.0005707    0.0001835    -0.0001198    0.0001148     0.0005067    0.0005821 
   0.091172786     0.8536516   -0.3828903    -0.0000582   -0.0004438     0.0001668   -0.0001161     0.0006079   -0.0001402 
   0.091272811     0.8681632   -0.3869078     0.0003783   -0.0000461    -0.0001837    0.0001029     0.0006165   -0.0001083 
   0.091372836     0.8638091   -0.3786713     0.0006057    0.0002259     0.0001838   -0.0002544     0.0006291    0.0003385 
   0.091472861     0.8617086   -0.3959970    -0.0002928    0.0000893     0.0000379   -0.0001001     0.0010109    0.0001425 
   0.091572886     0.8633282   -0.3981931    -0.0001532    0.0001850    -0.0000344   -0.0000692     0.0011886    0.0002417 
   0.091672911     0.8661507   -0.3912926     0.0002035   -0.0001549     0.0003586   -0.0001199     0.0003812   -0.0000121 
   0.091772936     0.8601656   -0.3914919     0.0001210   -0.0000855     0.0002030   -0.0000572     0.0006914   -0.0000072 
   0.091872961     0.8708891   -0.3919950    -0.0000904    0.0000261     0.0001538   -0.0000178     0.0005882   -0.0000722 
   0.091972986     0.8601242   -0.3892736    -0.0000678   -0.0006390     0.0000912    0.0001248     0.0006366   -0.0001977 
   0.092073012     0.8583972   -0.3878341     0.0004073    0.0001537    -0.0000522    0.0001937     0.0008434   -0.0001423 
   0.092173037     0.8561653   -0.3916748    -0.0003658    0.0000159     0.0000171   -0.0002252     0.0009214    0.0003068 
   0.092273062     0.8735656   -0.3930383    -0.0002707   -0.0001788     0.0002913    0.0000920     0.0006448   -0.0000697 
   0.092373087     0.8643283   -0.3954071    -0.0001559   -0.0001395     0.0001428    0.0001783     0.0007395    0.0003314 
   0.092473112     0.8592678   -0.3870773     0.0004444    0.0002951     0.0002869    0.0000131     0.0010353    0.0005881 
   0.092573137     0.8638995   -0.3990033    -0.0000569   -0.0000895     0.0001950   -0.0000194     0.0006136   -0.0003558 
   0.092673162     0.8695158   -0.3994625    -0.0001902    0.0002157     0.0001010   -0.0002486     0.0000495    0.0002835 
   0.092773187     0.8614956   -0.3901059    -0.0001821    0.0000299     0.0000341    0.0000167     0.0011256   -0.0001663 
   0.092873212     0.8612531   -0.3861895     0.0000802   -0.0001559    -0.0003361   -0.0000408     0.0010954    0.0001892 
   0.092973237     0.8555902   -0.3957915     0.0003070    0.0003025     0.0001062    0.0001788     0.0005353    0.0000883 
   0.093073262     0.8632466   -0.3932109    -0.0003792    0.0000629     0.0003734   -0.0001037     0.0004890    0.0005102 
   0.093173287     0.8623551   -0.4023595    -0.0004934    0.0002702    -0.0002722    0.0000276     0.0001070    0.0009076 
   0.093273312     0.8622158   -0.3901210     0.0001163    0.0002148     0.0000437   -0.0001246     0.0004641    0.0006177 
   0.093373337     0.8593347   -0.3925335     0.0001780    0.0005170     0.0000431    0.0002352     0.0005994    0.0004805 
   0.093473362     0.8595367   -0.3993754    -0.0006471   -0.0007125    -0.0000376    0.0000994     0.0008746    0.0003448 
   0.093573387     0.8539960   -0.4046978    -0.0000188    0.0001626    -0.0001775    0.0002590     0.0007518    0.0002047 
   0.093673412     0.8506646   -0.3943059    -0.0000484    0.0000126     0.0001228   -0.0004801     0.0006712    0.0001483 
   0.093773437     0.8577897   -0.3868487    -0.0001769    0.0000845    -0.0001348   -0.0000159     0.0006471    0.0003858 
   0.093873462     0.8534899   -0.3922049     0.0000675   -0.0003923     0.0001151   -0.0001356     0.0005677    0.0005249 
   0.093973487     0.8580814   -0.3950576    -0.0002410    0.0000246     0.0001027   -0.0001095     0.0004245    0.0001283 
   0.094073512     0.8590891   -0.4002682     0.0009332    0.0008363    -0.0000247   -0.0004244     0.0006473    0.0002411 
   0.094173537     0.8572485   -0.4091866     0.0004670    0.0000977    -0.0000812    0.0001693     0.0010142    0.0002824 
   0.094273562     0.8571368   -0.3938369     0.0001099   -0.0002868     0.0001434    0.0002459     0.0006806    0.0001718 
   0.094373587     0.8584054   -0.3974229     0.0002923    0.0001906     0.0001930    0.0001646     0.0007241    0.0005736 
   0.094473612     0.8615754   -0.4032283    -0.0003336    0.0005266     0.0001645    0.0000876     0.0008753    0.0006135 
   0.094573637     0.8621587   -0.4053184    -0.0001932    0.0003488    -0.0000173   -0.0000484     0.0008279    0.0004312 
   0.094673662     0.8736849   -0.4080525     0.0001321   -0.0000447     0.0002047   -0.0002621     0.0007760    0.0002313 
   0.094773687     0.8618215   -0.4035604     0.0004411    0.0006313     0.0000131    0.0000441     0.0005229    0.0003128 
   0.094873712     0.8542045   -0.4010591     0.0004140   -0.0000644    -0.0001080    0.0002103     0.0005990   -0.0000618 
   0.094973737     0.8549575   -0.3925389     0.0002429    0.0003860    -0.0001669    0.0001695     0.0008257    0.0002380 
   0.095073762     0.8547850   -0.3969865    -0.0003538    0.0007847     0.0002344   -0.0002649     0.0008302    0.0004038 
   0.095173787     0.8560440   -0.3997780     0.0000679    0.0003411    -0.0000421    0.0002409     0.0014060    0.0006284 
   0.095273812     0.8579664   -0.4046178     0.0003713   -0.0003435     0.0003772   -0.0000251     0.0009391   -0.0002678 
   0.095373837     0.8557135   -0.4026416     0.0000080   -0.0002239     0.0000549    0.0001752     0.0009095    0.0000751 
   0.095473862     0.8634384   -0.4059716     0.0002660   -0.0003823    -0.0000757    0.0000726     0.0010620    0.0000217 
   0.095573887     0.8520851   -0.4009243     0.0003056   -0.0004762    -0.0000016    0.0001162     0.0007264    0.0000575 
   0.095673912     0.8564116   -0.4062169    -0.0000864   -0.0002870    -0.0000291    0.0000828     0.0008683    0.0000271 
   0.095773937     0.8539597   -0.4014674     0.0001200    0.0000755    -0.0001805    0.0000422     0.0007513    0.0000746 
   0.095873962     0.8560448   -0.4102395     0.0000805   -0.0003721     0.0000534   -0.0001717     0.0007376    0.0004770 
   0.095973987     0.8539646   -0.4077214     0.0004189   -0.0000773     0.0001283    0.0000809     0.0008662    0.0002763 
   0.096074012     0.8508021   -0.4060296    -0.0001327    0.0003605    -0.0000863    0.0001726     0.0010959    0.0002380 
   0.096174037     0.8526154   -0.4066233    -0.0003434    0.0002491    -0.0001590   -0.0001238     0.0005256    0.0003750 
   0.096274062     0.8594652   -0.4074931     0.0001678    0.0000897     0.0000850   -0.0000527     0.0005296    0.0002571 
   0.096374087     0.8566049   -0.4036624    -0.0003672    0.0002344     0.0000879    0.0000428     0.0008242   -0.0000967 
   0.096474112     0.8519075   -0.4112357     0.0000645    0.0000029    -0.0000759   -0.0000762     0.0008203    0.0003965 
   0.096574137     0.8607401   -0.4095864    -0.0001650   -0.0002613    -0.0000523   -0.0000528     0.0004664    0.0000035 
   0.096674162     0.8532982   -0.4034303     0.0003117   -0.0000788     0.0001440    0.0002373     0.0006153    0.0004252 
   0.096774187     0.8531283   -0.4075335    -0.0002114   -0.0001791     0.0000404    0.0000401     0.0009968    0.0004268 
   0.096874212     0.8544844   -0.4093319     0.0000546    0.0002931     0.0000105   -0.0000239     0.0010663    0.0004254 
   0.096974237     0.8410614   -0.4075204     0.0002016    0.0000299     0.0001308    0.0000710     0.0007122    0.0005150 
   0.097074262     0.8462633   -0.4091153    -0.0004063   -0.0000288    -0.0000368    0.0000427     0.0012843   -0.0000111 
   0.097174287     0.8522695   -0.4059073     0.0001103   -0.0006082     0.0002283    0.0000408     0.0007473    0.0004591 
   0.097274312     0.8568348   -0.4031322    -0.0002337   -0.0003055    -0.0000643    0.0002242     0.0009202    0.0001492 
   0.097374337     0.8505161   -0.4047151    -0.0000647   -0.0000945    -0.0001060    0.0000420     0.0006736    0.0002247 
   0.097474362     0.8519589   -0.4157878    -0.0000482   -0.0004247    -0.0000429    0.0003036     0.0005262   -0.0001817 
   0.097574387     0.8516401   -0.4042374     0.0001533   -0.0003718    -0.0001519    0.0000291     0.0007496    0.0003858 
   0.097674412     0.8500774   -0.4105933    -0.0002480    0.0000535     0.0002161   -0.0001782     0.0006570    0.0002858 
   0.097774437     0.8538516   -0.4125348     0.0000406    0.0000676     0.0000420    0.0001121     0.0007682    0.0005982 
   0.097874462     0.8527249   -0.4083501     0.0003018    0.0004060     0.0002396    0.0000124     0.0006690    0.0002451 
   0.097974487     0.8572456   -0.4108417    -0.0000449    0.0000763     0.0000108   -0.0000503     0.0005927    0.0002519 
   0.098074512     0.8473093   -0.4171146     0.0000494   -0.0000888     0.0000339    0.0002170     0.0008662    0.0002047 
   0.098174537     0.8453180   -0.4158640    -0.0002891   -0.0001320     0.0001424    0.0000956     0.0008822    0.0006450 
   0.098274562     0.8521705   -0.4154289     0.0005537   -0.0001601     0.0000343   -0.0000663     0.0006828    0.0002720 
   0.098374587     0.8477288   -0.4115861     0.0000976   -0.0003383     0.0000392   -0.0000443     0.0006499    0.0000264 
   0.098474612     0.8520858   -0.4152650     0.0002544   -0.0000928    -0.0000141    0.0000629     0.0009766    0.0004938 
   0.098574637     0.8479176   -0.4160242    -0.0003416    0.0002974     0.0002036    0.0001262     0.0009616    0.0004388 
   0.098674662     0.8497126   -0.4166434    -0.0002435   -0.0001616     0.0000688   -0.0001206     0.0009441   -0.0000674 
   0.098774687     0.8432602   -0.4151433     0.0003181   -0.0003296     0.0001040   -0.0001896     0.0005127    0.0000466 
   0.098874712     0.8468710   -0.4148954    -0.0003193   -0.0000877     0.0002430   -0.0001098     0.0011185    0.0001639 
   0.098974737     0.8492290   -0.4158763    -0.0001768   -0.0001953     0.0000936    0.0002024     0.0008977    0.0005988 
   0.099074762     0.8448135   -0.4156964    -0.0004794   -0.0000547    -0.0001953   -0.0000466     0.0009461    0.0001519 
   0.099174787     0.8494244   -0.4184072     0.0000142   -0.0001243     0.0002341   -0.0000035     0.0013173    0.0005160 
   0.099274812     0.8510630   -0.4196386     0.0000236   -0.0000250    -0.0000341   -0.0000644     0.0009681    0.0002378 
   0.099374837     0.8505097   -0.4186704    -0.0000739   -0.0006733    -0.0002348    0.0001196     0.0008943    0.0005437 
   0.099474862     0.8443122   -0.4228683     0.0001814    0.0000374    -0.0002093    0.0001292     0.0008311    0.0002867 
   0.099574887     0.8468890   -0.4187620    -0.0002309   -0.0000931    -0.0000391    0.0002364     0.0009216    0.0007851 
   0.099674912     0.8425084   -0.4218793    -0.0000775    0.0000417    -0.0002383    0.0001192     0.0006135    0.0003767 
   0.099774937     0.8515947   -0.4231745     0.0003512   -0.0000976    -0.0000270    0.0001112     0.0005049    0.0000436 
   0.099874962     0.8542981   -0.4179526     0.0002389   -0.0002570    -0.0001479   -0.0002811     0.0004528    0.0003036 
   0.099974987     0.8484878   -0.4210325     0.0001775   -0.0002384     0.0001889    0.0000408     0.0007395    0.0002171 
   0.100075013     0.8539386   -0.4227805     0.0002388    0.0000021    -0.0000524   -0.0000287     0.0006925    0.0004546 
   0.100175038     0.8477369   -0.4202794     0.0002435    0.0000173    -0.0001447   -0.0001459     0.0007761    0.0001035 
   0.100275063     0.8471166   -0.4227059    -0.0001858   -0.0001908    -0.0001473   -0.0000786     0.0004834    0.0003892 
   0.100375088     0.8439049   -0.4236905    -0.0000540    0.0002267    -0.0000086    0.0001091     0.0006460    0.0000850 
   0.100475113     0.8488210   -0.4201721    -0.0001646    0.0003127     0.0000056    0.0000509     0.0010537    0.0009943 
   0.100575138     0.8429811   -0.4229270     0.0003498    0.0003994    -0.0001670    0.0001765     0.0011117    0.0006751 
   0.100675163     0.8482691   -0.4185998    -0.0000845    0.0003019    -0.0001615    0.0000439     0.0009259    0.0004215 
   0.100775188     0.8443220   -0.4229491     0.0005054   -0.0001059     0.0000520    0.0000717     0.0006917    0.0000410 
   0.100875213     0.8449326   -0.4187507    -0.0001071   -0.0001647     0.0001436   -0.0000721     0.0008696    0.0005087 
   0.100975238     0.8465890   -0.4220422     0.0002555   -0.0000791    -0.0000919    0.0001698     0.0003389   -0.0001668 
   0.101075263     0.8456140   -0.4259558    -0.0005569    0.0000438     0.0001693    0.0000766     0.0006494    0.0005090 
   0.101175288     0.8428960   -0.4230820    -0.0000631   -0.0000992     0.0001936   -0.0000680     0.0006221   -0.0001158 
   0.101275313     0.8416570   -0.4214660    -0.0000701    0.0000716    -0.0002127    0.0001514     0.0003889    0.0005331 
   0.101375338     0.8456119   -0.4269501     0.0001455   -0.0004177    -0.0001263   -0.0001153     0.0008068    0.0000697 
   0.101475363     0.8406303   -0.4303145     0.0001318   -0.0002396     0.0000257    0.0000497     0.0008027    0.0001717 
   0.101575388     0.8411387   -0.4281508    -0.0003309    0.0003797     0.0001629    0.0001536     0.0003957    0.0003281 
   0.101675413     0.8445540   -0.4310114     0.0002968    0.0004487    -0.0000862    0.0001113     0.0010036    0.0004572 
   0.101775438     0.8409282   -0.4298494    -0.0000050   -0.0004616    -0.0001692   -0.0000493     0.0008055    0.0003740 
   0.101875463     0.8428492   -0.4208791     0.0003642    0.0000060    -0.0002837   -0.0001320     0.0004261    0.0008098 
   0.101975488     0.8350708   -0.4360693    -0.0005418    0.0000635     0.0001452    0.0000391     0.0007796    0.0000817 
   0.102075513     0.8407951   -0.4321783    -0.0000913    0.0001521    -0.0000199    0.0000744     0.0006985    0.0004780 
   0.102175538     0.8358015   -0.4329583     0.0005239   -0.0002156    -0.0001827   -0.0002248     0.0010904    0.0001539 
   0.102275563     0.8428990   -0.4308020    -0.0003472    0.0000792     0.0000531   -0.0001230     0.0008512    0.0005149 
   0.102375588     0.8404077   -0.4242695    -0.0004362   -0.0000628     0.0001043   -0.0001066     0.0008368    0.0001976 
   0.102475613     0.8371411   -0.4284281    -0.0005972   -0.0002027     0.0001080   -0.0000846     0.0008234    0.0004215 
   0.102575638     0.8404923   -0.4257191    -0.0002709   -0.0002950     0.0001516   -0.0001831     0.0006768    0.0005557 
   0.102675663     0.8421027   -0.4286225     0.0000522    0.0002920    -0.0001215    0.0001565     0.0005764   -0.0000337 
   0.102775688     0.8407369   -0.4371580    -0.0001954    0.0000794    -0.0001472    0.0000325     0.0007680    0.0006188 
   0.102875713     0.8442585   -0.4262617     0.0000610   -0.0002500    -0.0000863   -0.0000790     0.0007532    0.0003201 
   0.102975738     0.8400623   -0.4298637     0.0002139   -0.0000253    -0.0000301   -0.0000448     0.0009785    0.0003217 
   0.103075763     0.8424535   -0.4404047    -0.0003049    0.0001133    -0.0000431    0.0000066     0.0008492    0.0004775 
   0.103175788     0.8374745   -0.4393337     0.0000509   -0.0001178    -0.0002450   -0.0000853     0.0006450    0.0002950 
   0.103275813     0.8378419   -0.4318281     0.0001012    0.0003690     0.0000437    0.0000894     0.0006363    0.0006954 
   0.103375838     0.8461602   -0.4331316     0.0002051    0.0003586    -0.0000005   -0.0000089     0.0005709    0.0001600 
   0.103475863     0.8369952   -0.4284894    -0.0000533   -0.0001128    -0.0003270    0.0000819     0.0005721    0.0001568 
   0.103575888     0.8372768   -0.4337112    -0.0000437   -0.0001860     0.0000391    0.0002513     0.0009083    0.0007243 
   0.103675913     0.8375647   -0.4365522     0.0001227    0.0002101     0.0000723   -0.0001717     0.0011271    0.0005358 
   0.103775938     0.8463923   -0.4318133     0.0003818   -0.0002080     0.0002274   -0.0000408     0.0009364    0.0002972 
   0.103875963     0.8386143   -0.4350798    -0.0000621   -0.0001429    -0.0001603    0.0000225     0.0006094    0.0005846 
   0.103975988     0.8408774   -0.4371594    -0.0000232    0.0000051    -0.0000349    0.0000919     0.0003506    0.0002472 
   0.104076013     0.8378987   -0.4305106    -0.0001441    0.0001508    -0.0000819    0.0001481     0.0002485    0.0003776 
   0.104176038     0.8384249   -0.4305076    -0.0004022   -0.0000853    -0.0000428    0.0000250     0.0008645    0.0005613 
   0.104276063     0.8343266   -0.4368104     0.0002210    0.0003545     0.0000486    0.0000318     0.0008404    0.0005731 
   0.104376088     0.8358999   -0.4359131    -0.0002032   -0.0003826    -0.0000195   -0.0001548     0.0006287    0.0005340 
   0.104476113     0.8339506   -0.4394154    -0.0001191    0.0007062    -0.0003104    0.0000468     0.0008641    0.0003540 
   0.104576138     0.8350845   -0.4387625    -0.0004387   -0.0000848     0.0000518   -0.0000942     0.0008813    0.0007327 
   0.104676163     0.8371592   -0.4384084    -0.0000615    0.0001747     0.0000701   -0.0000070     0.0007718    0.0005530 
   0.104776188     0.8362768   -0.4403019    -0.0002270    0.0001796    -0.0002062   -0.0000496     0.0004078    0.0001814 
   0.104876213     0.8315216   -0.4426509     0.0004348    0.0003361    -0.0001393   -0.0001223     0.0012942    0.0008143 
   0.104976238     0.8354539   -0.4447619     0.0003578    0.0003551    -0.0001245   -0.0000947     0.0008285    0.0004249 
   0.105076263     0.8339233   -0.4438576     0.0002202    0.0000912     0.0001014   -0.0001951     0.0009882    0.0004600 
   0.105176288     0.8347673   -0.4424843     0.0000502   -0.0001779     0.0001690    0.0002011     0.0011386    0.0004486 
   0.105276313     0.8335919   -0.4429923    -0.0000157    0.0000111    -0.0002383   -0.0000783     0.0009531    0.0003715 
   0.105376338     0.8327231   -0.4394803    -0.0000842    0.0002127     0.0000292   -0.0000457     0.0006408    0.0007621 
   0.105476363     0.8378356   -0.4433837    -0.0000356   -0.0000673     0.0000571   -0.0000026     0.0008460    0.0006653 
   0.105576388     0.8348037   -0.4449695    -0.0000350   -0.0000952    -0.0000949   -0.0000591     0.0009186    0.0008180 
   0.105676413     0.8365804   -0.4422831    -0.0002355   -0.0000456     0.0000275   -0.0000178     0.0007704    0.0003434 
   0.105776438     0.8350101   -0.4420499    -0.0000055    0.0001946    -0.0000039    0.0000345     0.0004682    0.0007608 
   0.105876463     0.8285179   -0.4485889     0.0001458   -0.0002043     0.0000803   -0.0000544     0.0010723    0.0007704 
   0.105976488     0.8371896   -0.4479840     0.0004420   -0.0001530    -0.0000558    0.0001845     0.0007777    0.0008190 
   0.106076513     0.8351123   -0.4462755     0.0001349    0.0001632     0.0000877   -0.0000459     0.0008720    0.0002759 
   0.106176538     0.8349425   -0.4502146    -0.0001506    0.0002140    -0.0000623   -0.0000176     0.0008906    0.0005759 
   0.106276563     0.8338270   -0.4447545    -0.0002501   -0.0001116    -0.0001255    0.0000367     0.0003752    0.0004500 
   0.106376588     0.8370147   -0.4429246     0.0000688    0.0000035    -0.0000179   -0.0000153     0.0004126    0.0004971 
   0.106476613     0.8324881   -0.4471857    -0.0001013    0.0000117     0.0000178   -0.0000457     0.0006964    0.0008543 
   0.106576638     0.8332304   -0.4448513     0.0000768    0.0002983     0.0000111    0.0000489     0.0011388    0.0007018 
   0.106676663     0.8385532   -0.4421589    -0.0000317    0.0002081     0.0000179   -0.0001083     0.0009171    0.0002353 
   0.106776688     0.8324415   -0.4479177    -0.0001534   -0.0002819    -0.0000740   -0.0000604     0.0004351    0.0005217 
   0.106876713     0.8334994   -0.4473358    -0.0003656    0.0001276     0.0000158    0.0000363     0.0006362    0.0002840 
   0.106976738     0.8353421   -0.4497510     0.0002436    0.0002727    -0.0000062    0.0001409     0.0012691    0.0002994 
   0.107076763     0.8392667   -0.4554465    -0.0001147    0.0000118    -0.0002032   -0.0001141     0.0007254    0.0008058 
   0.107176788     0.8316746   -0.4495965     0.0000345    0.0000878    -0.0000122   -0.0000629     0.0007767    0.0011146 
   0.107276813     0.8363851   -0.4481247    -0.0000189    0.0002154    -0.0001254   -0.0001637     0.0006911    0.0005694 
   0.107376838     0.8268880   -0.4482816     0.0001686   -0.0003690     0.0000655    0.0001209     0.0005622    0.0002756 
   0.107476863     0.8328304   -0.4502989    -0.0001219   -0.0002828     0.0000593   -0.0000191     0.0010155    0.0003099 
   0.107576888     0.8292930   -0.4472887    -0.0003396    0.0000007     0.0001978   -0.0000287     0.0008049    0.0001800 
   0.107676913     0.8306286   -0.4499261     0.0000362    0.0000771    -0.0000586   -0.0000140     0.0009712    0.0005097 
   0.107776938     0.8250369   -0.4516364    -0.0002106    0.0001914     0.0000296   -0.0001078     0.0005939    0.0003231 
   0.107876963     0.8331882   -0.4550854     0.0000595   -0.0000950     0.0000227   -0.0000648     0.0009776    0.0005057 
   0.107976988     0.8312315   -0.4520327    -0.0001526   -0.0002445    -0.0000167    0.0000322     0.0010328    0.0001950 
   0.108077014     0.8329695   -0.4511229     0.0002005    0.0001951     0.0001802    0.0000698     0.0002231    0.0002810 
   0.108177039     0.8262576   -0.4538931     0.0000163    0.0002016     0.0000954    0.0000333     0.0003865    0.0006422 
   0.108277064     0.8291214   -0.4528088     0.0002924   -0.0000489     0.0000264   -0.0000302     0.0009859    0.0009462 
   0.108377089     0.8273786   -0.4525512     0.0001975    0.0000223     0.0000454    0.0001423     0.0004309    0.0005049 
   0.108477114     0.8294147   -0.4541114     0.0001763   -0.0001153     0.0000699    0.0001662     0.0006456    0.0006942 
   0.108577139     0.8277897   -0.4624646     0.0000502   -0.0002219    -0.0000783    0.0000506     0.0005152    0.0001082 
   0.108677164     0.8318451   -0.4529268     0.0003643   -0.0004781     0.0000110   -0.0000466     0.0005810    0.0005646 
   0.108777189     0.8299996   -0.4536960    -0.0000041    0.0000596     0.0000531    0.0001315     0.0005983    0.0004595 
   0.108877214     0.8325611   -0.4504451    -0.0000862   -0.0001709    -0.0000026    0.0000055     0.0004876    0.0007536 
   0.108977239     0.8319681   -0.4535519    -0.0001224   -0.0002591    -0.0001088   -0.0001923     0.0009868    0.0003901 
   0.109077264     0.8259452   -0.4554364     0.0000075   -0.0001653    -0.0000042   -0.0001507     0.0004249    0.0007132 
   0.109177289     0.8315712   -0.4552459     0.0000286    0.0000343    -0.0000340   -0.0001264     0.0004146   -0.0000825 
   0.109277314     0.8283655   -0.4550911     0.0001740   -0.0002180     0.0000142    0.0000618     0.0008102    0.0004691 
   0.109377339     0.8246950   -0.4597275     0.0001147    0.0000788    -0.0001459    0.0001314     0.0007177    0.0004947 
   0.109477364     0.8273417   -0.4557030    -0.0000980   -0.0002246    -0.0000603    0.0000894     0.0008068    0.0001583 
   0.109577389     0.8311553   -0.4580629     0.0000882    0.0001246    -0.0000532   -0.0001216     0.0005440    0.0006821 
   0.109677414     0.8278474   -0.4593117     0.0001591    0.0000262    -0.0000044    0.0001424     0.0010446    0.0002750 
   0.109777439     0.8260297   -0.4587824    -0.0000780    0.0001409    -0.0000116    0.0000104     0.0001086    0.0009738 
   0.109877464     0.8247932   -0.4587128     0.0000889   -0.0001649    -0.0000027   -0.0000546     0.0004240    0.0002854 
   0.109977489     0.8278610   -0.4613748    -0.0000015    0.0003672    -0.0000591    0.0001216     0.0010352    0.0004927 
   0.110077514     0.8229528   -0.4609599     0.0000007    0.0001018     0.0001057   -0.0000212     0.0004522    0.0006379 
   0.110177539     0.8255082   -0.4664459     0.0000503    0.0000914    -0.0000793    0.0000249     0.0009383    0.0010391 
   0.110277564     0.8279986   -0.4600757    -0.0001310   -0.0000950     0.0001203    0.0000258     0.0005425    0.0002167 
   0.110377589     0.8254151   -0.4602169     0.0001079   -0.0000078     0.0001685   -0.0001992     0.0004421    0.0005537 
   0.110477614     0.8247002   -0.4570991    -0.0000634   -0.0000205     0.0000392   -0.0000216     0.0008240    0.0002575 
   0.110577639     0.8262208   -0.4626329    -0.0000937    0.0001395     0.0000819   -0.0001040     0.0006458    0.0005691 
   0.110677664     0.8281298   -0.4622693    -0.0001264    0.0000283    -0.0000069    0.0000160     0.0001580    0.0007476 
   0.110777689     0.8263731   -0.4634601     0.0000612    0.0001346    -0.0000618    0.0000182     0.0009026    0.0005342 
   0.110877714     0.8204262   -0.4591352     0.0001692   -0.0001070     0.0001080   -0.0000425     0.0004654    0.0010516 
   0.110977739     0.8235555   -0.4629890     0.0001038    0.0001859     0.0001074    0.0000860     0.0009517    0.0007798 
   0.111077764     0.8220756   -0.4623393    -0.0001726    0.0000794    -0.0001335    0.0000411     0.0004700    0.0000384 
   0.111177789     0.8244123   -0.4606637     0.0000004    0.0000764     0.0000774   -0.0000293     0.0006602    0.0008111 
   0.111277814     0.8212264   -0.4625481    -0.0000688   -0.0000781    -0.0000307    0.0002056     0.0005677    0.0006261 
   0.111377839     0.8285177   -0.4637074    -0.0001092   -0.0001801     0.0000532   -0.0000319     0.0000950    0.0007670 
   0.111477864     0.8227760   -0.4636077    -0.0000269    0.0000299     0.0000176    0.0000799     0.0008923    0.0007193 
   0.111577889     0.8204132   -0.4652108    -0.0000316   -0.0001007    -0.0000583    0.0000775     0.0007844    0.0008896 
   0.111677914     0.8244726   -0.4632945     0.0001350    0.0002103     0.0000484    0.0000794     0.0004878    0.0007401 
   0.111777939     0.8230870   -0.4666196     0.0000747   -0.0001742     0.0000126   -0.0000098     0.0004651    0.0005175 
   0.111877964     0.8233204   -0.4677844     0.0000554    0.0000961     0.0001131    0.0000901     0.0001167    0.0006932 
   0.111977989     0.8223499   -0.4658091     0.0000947   -0.0000206    -0.0000889   -0.0000549     0.0009107    0.0006504 
   0.112078014     0.8219206   -0.4674932     0.0002708   -0.0000315    -0.0000033    0.0000523     0.0007622    0.0009949 
   0.112178039     0.8203984   -0.4661223    -0.0002190   -0.0001795     0.0000452    0.0000080     0.0005008    0.0008082 
   0.112278064     0.8208285   -0.4668993     0.0000700   -0.0001066     0.0000246   -0.0000160     0.0011267    0.0005609 
   0.112378089     0.8183553   -0.4658959    -0.0000194    0.0002104    -0.0000113   -0.0000408     0.0000543    0.0003923 
   0.112478114     0.8249466   -0.4701436     0.0001240   -0.0000259     0.0000695    0.0000541     0.0007842    0.0004033 
   0.112578139     0.8193864   -0.4727777    -0.0000377    0.0001006    -0.0000660    0.0000383     0.0008459    0.0008995 
   0.112678164     0.8224633   -0.4697465     0.0000216    0.0003754    -0.0000888    0.0000085     0.0009505    0.0006324 
   0.112778189     0.8227941   -0.4685985    -0.0001074    0.0000054    -0.0000916   -0.0000607     0.0006696    0.0010824 
   0.112878214     0.8180707   -0.4696748    -0.0000006    0.0000573     0.0000110    0.0000577     0.0006820    0.0009088 
   0.112978239     0.8201114   -0.4714246    -0.0001286    0.0000062    -0.0000391   -0.0000261     0.0009951    0.0007621 
   0.113078264     0.8225783   -0.4740411    -0.0001443   -0.0000292    -0.0001205   -0.0001071     0.0008815    0.0006770 
   0.113178289     0.8225968   -0.4718290     0.0001266   -0.0001887    -0.0000193    0.0000162     0.0006380    0.0003410 
   0.113278314     0.8210870   -0.4700269    -0.0001405    0.0000914    -0.0000288    0.0000452     0.0004507    0.0004758 
   0.113378339     0.8207390   -0.4704060    -0.0001682   -0.0000543     0.0000819   -0.0000138     0.0007730    0.0005071 
   0.113478364     0.8186828   -0.4722190     0.0001495   -0.0002617     0.0000296    0.0000260     0.0005619    0.0004459 
   0.113578389     0.8221905   -0.4718638    -0.0001117   -0.0001724    -0.0000578    0.0000421     0.0005781    0.0008403 
   0.113678414     0.8184327   -0.4706455    -0.0001139    0.0000340    -0.0000683   -0.0000916     0.0008334    0.0004690 
   0.113778439     0.8224569   -0.4744017     0.0001859   -0.0000153    -0.0000873   -0.0001095     0.0009156    0.0010666 
   0.113878464     0.8139604   -0.4730145     0.0002244   -0.0002395    -0.0001374   -0.0000064     0.0003664    0.0003595 
   0.113978489     0.8198484   -0.4743772     0.0002153    0.0000275     0.0000767    0.0000351     0.0005181    0.0006360 
   0.114078514     0.8184095   -0.4748969    -0.0000932    0.0001032     0.0000056    0.0001178     0.0009027    0.0008800 
   0.114178539     0.8176635   -0.4761947    -0.0000207    0.0000607     0.0000095   -0.0000267     0.0006406    0.0007123 
   0.114278564     0.8165392   -0.4741310     0.0000932   -0.0002340     0.0000151    0.0000382     0.0006627    0.0007834 
   0.114378589     0.8204224   -0.4761098     0.0000814    0.0000903    -0.0000618    0.0000364     0.0007509    0.0006583 
   0.114478614     0.8167459   -0.4748726    -0.0001733    0.0001389     0.0000535    0.0000275     0.0004133    0.0005342 
   0.114578639     0.8178324   -0.4739886     0.0001933    0.0000595     0.0000085    0.0000076    -0.0000061    0.0005236 
   0.114678664     0.8156556   -0.4775595     0.0001172    0.0001343    -0.0000048   -0.0000857     0.0007681    0.0002915 
   0.114778689     0.8166862   -0.4814621    -0.0000805   -0.0000992     0.0000637   -0.0000043     0.0005492    0.0006832 
   0.114878714     0.8203591   -0.4802761     0.0000568    0.0000031     0.0000068   -0.0000019     0.0000245    0.0007921 
   0.114978739     0.8152009   -0.4781950     0.0001631    0.0000814    -0.0000130    0.0000559     0.0011570    0.0009355 
   0.115078764     0.8183173   -0.4796277     0.0001231    0.0000200    -0.0000815   -0.0000737     0.0004420    0.0007125 
   0.115178789     0.8140572   -0.4819455    -0.0000059   -0.0000438    -0.0000136    0.0000145     0.0003628    0.0007846 
   0.115278814     0.8149177   -0.4787690     0.0000826   -0.0000945     0.0000218    0.0001046     0.0005779    0.0008269 
   0.115378839     0.8146900   -0.4792784    -0.0000716   -0.0000013     0.0000465   -0.0000026     0.0004555    0.0008038 
   0.115478864     0.8159521   -0.4782193    -0.0000766    0.0000852    -0.0000157    0.0000352     0.0003519    0.0006777 
   0.115578889     0.8150220   -0.4775636     0.0001087    0.0000952     0.0000040    0.0000469     0.0002228    0.0008629 
   0.115678914     0.8128157   -0.4793954    -0.0000514   -0.0000793     0.0000636    0.0000369     0.0005205    0.0004050 
   0.115778939     0.8134283   -0.4772797     0.0000841    0.0001053     0.0000322   -0.0000253     0.0005603    0.0009946 
   0.115878964     0.8143726   -0.4791299    -0.0000018    0.0000802    -0.0000588   -0.0000156     0.0008372    0.0007249 
   0.115978989     0.8125240   -0.4797427     0.0001077   -0.0000137     0.0000623    0.0001558     0.0008640    0.0010563 
   0.116079015     0.8118889   -0.4767899     0.0000554   -0.0001176     0.0000462    0.0001242     0.0006266    0.0005231 
   0.116179040     0.8131896   -0.4814191     0.0000341   -0.0000510    -0.0000211    0.0000427     0.0005471    0.0003405 
   0.116279065     0.8137344   -0.4795720     0.0001019    0.0000048    -0.0000642   -0.0000269     0.0004423    0.0011800 
   0.116379090     0.8130822   -0.4811679     0.0000532   -0.0000640     0.0000167    0.0000083     0.0008186    0.0009017 
   0.116479115     0.8141041   -0.4835258     0.0000469    0.0000464    -0.0000229   -0.0000519     0.0005556    0.0010574 
   0.116579140     0.8114536   -0.4847335     0.0000833   -0.0000319     0.0000038    0.0000532     0.0012624    0.0010308 
   0.116679165     0.8115564   -0.4846359     0.0000616    0.0001498     0.0000531    0.0000086     0.0000729    0.0002895 
   0.116779190     0.8151003   -0.4864127    -0.0000676   -0.0000503    -0.0000730    0.0000710     0.0006415    0.0005754 
   0.116879215     0.8123240   -0.4846807    -0.0000530    0.0000945     0.0000715   -0.0000087     0.0003954    0.0008677 
   0.116979240     0.8124768   -0.4824150     0.0000033    0.0000583     0.0000902   -0.0000108     0.0005305    0.0005115 
   0.117079265     0.8136840   -0.4809962     0.0000493    0.0000060    -0.0000661    0.0000235     0.0007293    0.0007607 
   0.117179290     0.8145171   -0.4839869    -0.0001543    0.0000751     0.0000222   -0.0000407     0.0007605    0.0003068 
   0.117279315     0.8112746   -0.4850263     0.0000062   -0.0000001     0.0000025   -0.0000147     0.0009075    0.0006803 
   0.117379340     0.8083521   -0.4839899    -0.0000291   -0.0000211     0.0000290    0.0000242     0.0005989    0.0006392 
   0.117479365     0.8123306   -0.4876206     0.0000253   -0.0000741     0.0000118    0.0001279     0.0005494    0.0007871 
   0.117579390     0.8081154   -0.4873182     0.0000312    0.0000329     0.0000016    0.0000732     0.0002741    0.0007816 
   0.117679415     0.8118282   -0.4882322     0.0000190   -0.0000761     0.0000237   -0.0000317     0.0006553    0.0007323 
   0.117779440     0.8079706   -0.4846605     0.0000317    0.0000201     0.0000356    0.0000342     0.0002947    0.0007824 
   0.117879465     0.8094036   -0.4874406    -0.0000801   -0.0001677    -0.0001077   -0.0000592     0.0003779    0.0001693 
   0.117979490     0.8080550   -0.4875366    -0.0001237   -0.0000391    -0.0000014   -0.0000701     0.0006984    0.0003204 
   0.118079515     0.8113987   -0.4867139     0.0000696    0.0000532    -0.0000514    0.0000343     0.0001776    0.0005696 
   0.118179540     0.8118291   -0.4897788     0.0000989   -0.0000880    -0.0000340   -0.0000241     0.0008994    0.0007757 
   0.118279565     0.8081494   -0.4867837     0.0000929    0.0000934     0.0000420    0.0000687     0.0003540    0.0005278 
   0.118379590     0.8059520   -0.4890081    -0.0000563    0.0000619    -0.0000608   -0.0000210     0.0001785    0.0009608 
   0.118479615     0.8092703   -0.4907700    -0.0000757   -0.0000368    -0.0000010   -0.0000037     0.0001095    0.0006581 
   0.118579640     0.8095961   -0.4887897     0.0002030   -0.0000849     0.0000186   -0.0000443     0.0004262    0.0009978 
   0.118679665     0.8068234   -0.4910330     0.0000617   -0.0000179     0.0000500   -0.0000251     0.0007344    0.0005534 
   0.118779690     0.8074543   -0.4892839    -0.0000432   -0.0000268     0.0000348   -0.0000280     0.0006677    0.0001984 
   0.118879715     0.8061901   -0.4930668    -0.0001162    0.0001070    -0.0000171   -0.0000239     0.0004422    0.0009098 
   0.118979740     0.8062726   -0.4945631     0.0000075    0.0000150    -0.0000032    0.0000003     0.0007299    0.0007126 
   0.119079765     0.8072781   -0.4928751    -0.0000005   -0.0000042     0.0000279    0.0000012     0.0002069    0.0013230 
   0.119179790     0.8054581   -0.4918171     0.0000573    0.0000192     0.0000428    0.0000641     0.0009818    0.0010203 
   0.119279815     0.8087764   -0.4933756     0.0001341   -0.0001166    -0.0000100   -0.0000391     0.0009427    0.0010588 
   0.119379840     0.8040528   -0.4929432    -0.0000259   -0.0001369     0.0000539   -0.0000123     0.0004339    0.0004029 
   0.119479865     0.8060090   -0.4939118     0.0000319   -0.0000287     0.0000133    0.0000262     0.0006574    0.0008267 
   0.119579890     0.8062795   -0.4938721     0.0000533    0.0000213    -0.0000689    0.0000300     0.0007983    0.0005959 
   0.119679915     0.8046936   -0.4946052    -0.0000827    0.0000177    -0.0000453    0.0000182     0.0005121    0.0005797 
   0.119779940     0.8037945   -0.4941856     0.0000334   -0.0000483     0.0000295   -0.0000166     0.0003490    0.0004335 
   0.119879965     0.8032757   -0.4953236     0.0000796    0.0000867    -0.0000846   -0.0000111     0.0004354    0.0007837 
   0.119979990     0.8032239   -0.4925709    -0.0000265   -0.0001049    -0.0000573    0.0000057     0.0005323    0.0004720 
   0.120080015     0.8038814   -0.4954625    -0.0000795   -0.0000267     0.0000577    0.0000228     0.0006979    0.0009645 
   0.120180040     0.8052460   -0.4955091     0.0000071   -0.0001691    -0.0000165    0.0000872     0.0003858    0.0009890 
   0.120280065     0.8044700   -0.4961107    -0.0000660    0.0000630     0.0000474    0.0000632     0.0008428    0.0007142 
   0.120380090     0.8028036   -0.4952311    -0.0000749    0.0000295     0.0000240    0.0001130     0.0007133    0.0006903 
   0.120480115     0.8028679   -0.4943814     0.0000045    0.0000256     0.0000444   -0.0000547     0.0005521    0.0009519 
   0.120580140     0.8025934   -0.4960283     0.0000354    0.0000875    -0.0000171   -0.0000237     0.0002126    0.0003578 
   0.120680165     0.8012105   -0.4963472    -0.0000765   -0.0000655     0.0000485   -0.0000007     0.0005429    0.0008239 
   0.120780190     0.8044217   -0.4968096     0.0000017    0.0000002    -0.0000105   -0.0000480     0.0001097    0.0004520 
   0.120880215     0.8006541   -0.4961026    -0.0000479    0.0002385     0.0000765   -0.0000614     0.0003898    0.0000555 
   0.120980240     0.8015864   -0.4973039    -0.0000312   -0.0000902    -0.0000283   -0.0000118     0.0004996    0.0005881 
   0.121080265     0.8006050   -0.4993125    -0.0000898   -0.0000124     0.0000458    0.0000497     0.0001228    0.0011484 
   0.121180290     0.8017424   -0.4989687    -0.0000806    0.0000007    -0.0000708   -0.0000203    -0.0000019    0.0008607 
   0.121280315     0.8005121   -0.4977974    -0.0000786   -0.0000278     0.0000378    0.0000322     0.0003277    0.0009015 
   0.121380340     0.8008073   -0.4998561    -0.0001102   -0.0000241    -0.0000042   -0.0000201     0.0007531    0.0008501 
   0.121480365     0.8023568   -0.5006619    -0.0000048   -0.0001469     0.0000107   -0.0000468     0.0002393    0.0005948 
   0.121580390     0.8016019   -0.5005712     0.0000209    0.0000983    -0.0000463    0.0000755     0.0004721    0.0011866 
   0.121680415     0.7987021   -0.5024102    -0.0000200   -0.0001302     0.0000682    0.0000420     0.0004097    0.0005337 
   0.121780440     0.8004016   -0.4989869     0.0000942   -0.0001435    -0.0000354    0.0000723     0.0000580    0.0004994 
   0.121880465     0.7983034   -0.4995147    -0.0001872   -0.0000882     0.0000395    0.0000659     0.0005465    0.0013247 
   0.121980490     0.7983761   -0.5010915     0.0000030   -0.0000090    -0.0000268    0.0000129     0.0001905    0.0006424 
   0.122080515     0.7968808   -0.5025680    -0.0000310    0.0000332    -0.0000256   -0.0000186     0.0003787    0.0008508 
   0.122180540     0.7992611   -0.5006841    -0.0000610    0.0000763     0.0000059    0.0000433     0.0006043    0.0009200 
   0.122280565     0.7991951   -0.5031615    -0.0000171   -0.0000024     0.0000880    0.0000653     0.0006557    0.0003708 
   0.122380590     0.7970077   -0.5033426     0.0000021    0.0001079     0.0000438   -0.0000426     0.0002205    0.0007136 
   0.122480615     0.8019021   -0.5042739    -0.0000839   -0.0000712    -0.0000327   -0.0001154     0.0006636    0.0006497 
   0.122580640     0.7982195   -0.5039541     0.0000033   -0.0000286    -0.0000586   -0.0000399     0.0005862    0.0007572 
   0.122680665     0.7958230   -0.5047101    -0.0000260    0.0000006    -0.0000876   -0.0000458     0.0001993    0.0010443 
   0.122780690     0.7992394   -0.5044838     0.0001111   -0.0000143    -0.0000343   -0.0000427     0.0004484    0.0007916 
   0.122880715     0.7967600   -0.5061958     0.0000624   -0.0001270     0.0000318    0.0000239     0.0004650    0.0004020 
   0.122980740     0.7964182   -0.5059342    -0.0001074   -0.0001313     0.0000632    0.0000668     0.0003457    0.0009123 
   0.123080765     0.7961644   -0.5049843    -0.0001016    0.0000407    -0.0000189   -0.0000165     0.0004865    0.0005875 
   0.123180790     0.7971395   -0.5031984     0.0000721    0.0000949    -0.0000387   -0.0000512     0.0004906    0.0008334 
   0.123280815     0.7949664   -0.5075799     0.0000171   -0.0000596    -0.0000215    0.0000018     0.0007057    0.0008213 
   0.123380840     0.7963107   -0.5058533     0.0001422   -0.0000252     0.0000175    0.0000569     0.0005698    0.0005677 
   0.123480865     0.7945798   -0.5056213    -0.0000517    0.0000362     0.0000084   -0.0000216     0.0000479    0.0009517 
   0.123580890     0.7959725   -0.5082690     0.0001885    0.0000191    -0.0000504   -0.0000204     0.0000387    0.0002258 
   0.123680915     0.7955501   -0.5051562    -0.0000473    0.0000003     0.0000520   -0.0000085     0.0002129    0.0006254 
   0.123780940     0.7958390   -0.5078706    -0.0000380    0.0001467    -0.0000216   -0.0000163     0.0005092    0.0005470 
   0.123880965     0.7963621   -0.5073244     0.0001401   -0.0000121    -0.0000701    0.0000684     0.0001181    0.0003233 
   0.123980990     0.7920455   -0.5090937    -0.0000023    0.0000895    -0.0000244   -0.0000394     0.0004156    0.0008931 
   0.124081016     0.7930554   -0.5100481    -0.0000069    0.0001430    -0.0000874    0.0000219     0.0000929    0.0006118 
   0.124181041     0.7919929   -0.5096673    -0.0000812   -0.0000216    -0.0000329    0.0000457     0.0001686    0.0010977 
   0.124281066     0.7940434   -0.5086629     0.0000153    0.0000910     0.0000017    0.0000190     0.0004821    0.0004592 
   0.124381091     0.7929985   -0.5056245     0.0000645   -0.0000136     0.0000029   -0.0000029     0.0004898    0.0006935 
   0.124481116     0.7904828   -0.5099194    -0.0000257   -0.0000327     0.0000257    0.0000241     0.0001603    0.0007780 
   0.124581141     0.7918398   -0.5125617    -0.0000647   -0.0000665    -0.0000440   -0.0000880     0.0004363    0.0007225 
   0.124681166     0.7899241   -0.5128005     0.0001108    0.0000124     0.0000326   -0.0000327     0.0003793    0.0003986 
   0.124781191     0.7929892   -0.5119003    -0.0000786   -0.0000440     0.0000368   -0.0000369     0.0001027    0.0006187 
   0.124881216     0.7892209   -0.5078069    -0.0000492   -0.0000030    -0.0001345    0.0000259     0.0001971    0.0009315 
   0.124981241     0.7921219   -0.5114617    -0.0001014   -0.0000262     0.0000104    0.0000277     0.0005289    0.0008631 
   0.125081266     0.7894948   -0.5094799     0.0000019    0.0000338     0.0000684   -0.0000674     0.0007031    0.0014155 
   0.125181291     0.7896909   -0.5140444     0.0000036    0.0001731    -0.0000466    0.0000068     0.0007127    0.0012056 
   0.125281316     0.7889155   -0.5127228    -0.0001005   -0.0000232     0.0000360    0.0000063     0.0004405    0.0008189 
   0.125381341     0.7911499   -0.5123428     0.0000258    0.0002686    -0.0000015    0.0000062     0.0005719    0.0004961 
   0.125481366     0.7885101   -0.5109512     0.0001472   -0.0000441     0.0000363    0.0000312     0.0006382    0.0004635 
   0.125581391     0.7898736   -0.5132090     0.0000794    0.0000732     0.0000068    0.0000547     0.0002543    0.0006146 
   0.125681416     0.7888702   -0.5139795     0.0000349    0.0000256    -0.0000146   -0.0000558     0.0002539    0.0009221 
   0.125781441     0.7876940   -0.5132075     0.0000162    0.0001216    -0.0000908    0.0000821    -0.0000892    0.0010229 
   0.125881466     0.7885403   -0.5121404     0.0001527   -0.0002031    -0.0000487   -0.0000216     0.0008295    0.0009084 
   0.125981491     0.7872547   -0.5147461     0.0001080   -0.0000887     0.0001289    0.0000302     0.0000269    0.0008912 
   0.126081516     0.7884441   -0.5128824     0.0001189   -0.0000621    -0.0001131    0.0000113     0.0002232    0.0007689 
   0.126181541     0.7855748   -0.5125355    -0.0000747   -0.0000486     0.0001464    0.0000311     0.0005976    0.0004770 
   0.126281566     0.7839025   -0.5193115    -0.0001083   -0.0001250    -0.0000775    0.0000741     0.0008159    0.0002069 
   0.126381591     0.7872415   -0.5165819     0.0000270   -0.0000346     0.0000650   -0.0000381    -0.0000369    0.0007195 
   0.126481616     0.7853779   -0.5162268    -0.0001167    0.0001890     0.0000556   -0.0000122     0.0002293    0.0007438 
   0.126581641     0.7866827   -0.5159277     0.0001374   -0.0000953    -0.0000435   -0.0001263     0.0000985    0.0006821 
   0.126681666     0.7853968   -0.5166560     0.0001232    0.0001485     0.0000083   -0.0000386     0.0003530    0.0003864 
   0.126781691     0.7858050   -0.5160434    -0.0000150   -0.0001076    -0.0000746    0.0001793     0.0004176    0.0006829 
   0.126881716     0.7837034   -0.5169345     0.0001760    0.0000544    -0.0000414    0.0001245     0.0000255    0.0007007 
   0.126981741     0.7857117   -0.5156026    -0.0001077   -0.0000816     0.0000037   -0.0000998     0.0001202    0.0006322 
   0.127081766     0.7873935   -0.5159774     0.0001268   -0.0001713     0.0000041    0.0000922    -0.0002601    0.0008583 
   0.127181791     0.7820538   -0.5184917    -0.0000672   -0.0001563    -0.0000042    0.0000408     0.0000982    0.0006921 
   0.127281816     0.7833255   -0.5170075    -0.0000976   -0.0000701    -0.0000498    0.0000385     0.0007301    0.0009223 
   0.127381841     0.7815679   -0.5210863     0.0000972    0.0000412     0.0000443    0.0000056    -0.0000618    0.0010457 
   0.127481866     0.7826613   -0.5182182     0.0002394    0.0001372     0.0000051   -0.0000480     0.0001905    0.0007222 
   0.127581891     0.7853110   -0.5199834     0.0000740   -0.0000312    -0.0000804   -0.0000408     0.0001172    0.0010930 
   0.127681916     0.7844241   -0.5194378     0.0000757    0.0001459    -0.0001343    0.0000199     0.0003551    0.0004471 
   0.127781941     0.7823694   -0.5200070    -0.0000644   -0.0001557    -0.0001321   -0.0000090     0.0000613    0.0006469 
   0.127881966     0.7798617   -0.5215648    -0.0000892   -0.0001388     0.0000871   -0.0000072    -0.0000122    0.0007339 
   0.127981991     0.7823650   -0.5211345    -0.0000564   -0.0000040     0.0000298    0.0000365     0.0001212    0.0006692 
   0.128082016     0.7843309   -0.5221685     0.0000231   -0.0001526    -0.0000024    0.0000757     0.0005612    0.0011625 
   0.128182041     0.7808754   -0.5198049    -0.0000144   -0.0001724     0.0000053   -0.0000444     0.0005130    0.0008285 
   0.128282066     0.7790432   -0.5241346     0.0000631    0.0001646    -0.0000721   -0.0000093     0.0006578    0.0013355 
   0.128382091     0.7786986   -0.5221065    -0.0001702    0.0001289     0.0000550   -0.0000506     0.0001572    0.0006124 
   0.128482116     0.7785050   -0.5231762     0.0001083    0.0000513     0.0000225    0.0000629    -0.0002275    0.0005524 
   0.128582141     0.7809563   -0.5233133     0.0001280   -0.0001142     0.0000668   -0.0001235     0.0003474    0.0006978 
   0.128682166     0.7792195   -0.5223767     0.0000902    0.0001971    -0.0001558   -0.0000913     0.0002361    0.0008437 
   0.128782191     0.7783498   -0.5237238     0.0000488   -0.0001155    -0.0000456   -0.0000173     0.0004507    0.0003984 
   0.128882216     0.7800513   -0.5241960    -0.0000369    0.0001172    -0.0000340   -0.0000161     0.0001474    0.0006639 
   0.128982241     0.7798044   -0.5250091     0.0000244   -0.0000380    -0.0001030    0.0000927     0.0004407    0.0001955 
   0.129082266     0.7786855   -0.5246587     0.0000337   -0.0000394    -0.0001162    0.0001280     0.0004877    0.0004589 
   0.129182291     0.7779315   -0.5231169     0.0000468   -0.0002500    -0.0000529    0.0000972     0.0004616    0.0004130 
   0.129282316     0.7768735   -0.5277256     0.0000126   -0.0000883     0.0000286   -0.0001398     0.0002349    0.0004362 
   0.129382341     0.7803839   -0.5262572    -0.0000302    0.0001496     0.0000509    0.0000817    -0.0000532    0.0006321 
   0.129482366     0.7783649   -0.5266439    -0.0000788    0.0000293    -0.0000247    0.0000531     0.0010586    0.0006644 
   0.129582391     0.7776012   -0.5253122     0.0000257    0.0003161    -0.0000712    0.0000264     0.0007965    0.0004230 
   0.129682416     0.7788902   -0.5298094     0.0000479   -0.0000723    -0.0000453   -0.0000165     0.0000553    0.0007083 
   0.129782441     0.7758338   -0.5317692    -0.0001259    0.0000769     0.0001570   -0.0001086     0.0004765    0.0007444 
   0.129882466     0.7749445   -0.5279893    -0.0001136    0.0002154    -0.0000469   -0.0000120     0.0004757    0.0007584 
   0.129982491     0.7749423   -0.5269341     0.0000469   -0.0001537     0.0001957    0.0001116     0.0006159    0.0008777 
   0.130082516     0.7798015   -0.5275276    -0.0002278    0.0000804    -0.0001490    0.0000622     0.0003876    0.0003392 
   0.130182541     0.7741408   -0.5280101     0.0000318   -0.0000059     0.0000505    0.0000907     0.0002501    0.0007168 
   0.130282566     0.7761148   -0.5314546     0.0000240    0.0003594     0.0000719   -0.0000707     0.0001281    0.0007507 
   0.130382591     0.7744287   -0.5279133     0.0000089    0.0004041     0.0001752   -0.0000456    -0.0000144    0.0007621 
   0.130482616     0.7756231   -0.5315797    -0.0001216   -0.0000102    -0.0000809   -0.0000548    -0.0003784    0.0010572 
   0.130582641     0.7708208   -0.5269991    -0.0000535    0.0001702     0.0000039    0.0000033    -0.0001778    0.0006193 
   0.130682666     0.7757797   -0.5301224    -0.0002611   -0.0000093    -0.0000283    0.0000872     0.0000172    0.0008260 
   0.130782691     0.7771360   -0.5313195    -0.0000559    0.0001255     0.0000528   -0.0001683     0.0004259    0.0006802 
   0.130882716     0.7764272   -0.5291384    -0.0001343   -0.0000025     0.0000230    0.0000588     0.0005174    0.0008046 
   0.130982741     0.7745373   -0.5284793     0.0000560   -0.0002286     0.0000266   -0.0000375     0.0000931    0.0005976 
   0.131082766     0.7711458   -0.5284721     0.0002406    0.0000169     0.0000479   -0.0002038     0.0005678    0.0005702 
   0.131182791     0.7723897   -0.5292238     0.0003898    0.0000217    -0.0000004   -0.0000619     0.0001641    0.0007146 
   0.131282816     0.7713935   -0.5311568     0.0000523    0.0001132    -0.0001469    0.0000641     0.0005397    0.0008303 
   0.131382841     0.7749885   -0.5329590     0.0001846    0.0000166    -0.0001220   -0.0000157     0.0001679    0.0005492 
   0.131482866     0.7722883   -0.5338467    -0.0000390    0.0001969    -0.0000838   -0.0000142     0.0003073    0.0008217 
   0.131582891     0.7720391   -0.5318475     0.0000636    0.0003120    -0.0000352    0.0000446    -0.0002165    0.0010670 
   0.131682916     0.7739770   -0.5338650     0.0001215   -0.0001091    -0.0001051   -0.0000024     0.0000691    0.0008593 
   0.131782941     0.7680119   -0.5329840     0.0001698    0.0000583     0.0000328   -0.0000873     0.0001290    0.0006912 
   0.131882966     0.7686507   -0.5332831    -0.0001381   -0.0000022    -0.0000189   -0.0001599     0.0002915    0.0005629 
   0.131982991     0.7694188   -0.5349649    -0.0001047   -0.0000234     0.0000455   -0.0000760    -0.0000704    0.0010019 
   0.132083017     0.7692673   -0.5369515     0.0000511    0.0000403    -0.0000477    0.0000103     0.0002021    0.0011267 
   0.132183042     0.7704425   -0.5342004    -0.0000188   -0.0001571    -0.0000047   -0.0001581    -0.0006088    0.0009095 
   0.132283067     0.7720541   -0.5357755    -0.0000603   -0.0000285    -0.0001278    0.0000241     0.0005299    0.0007606 
   0.132383092     0.7680243   -0.5377492     0.0002471   -0.0002995     0.0001077    0.0001364    -0.0000598    0.0010052 
   0.132483117     0.7688254   -0.5380546     0.0001229   -0.0000822    -0.0000403    0.0000364    -0.0002465    0.0009642 
   0.132583142     0.7706020   -0.5382552     0.0002536   -0.0001023    -0.0000477    0.0000264     0.0002607    0.0007398 
   0.132683167     0.7674225   -0.5346216    -0.0001382   -0.0002013    -0.0001103    0.0000772     0.0003549    0.0006842 
   0.132783192     0.7651116   -0.5366133     0.0000843   -0.0000189    -0.0001159    0.0000586    -0.0001584    0.0008471 
   0.132883217     0.7705640   -0.5373338    -0.0000047    0.0000910     0.0000009   -0.0000254     0.0002252    0.0011344 
   0.132983242     0.7662919   -0.5347555     0.0000452   -0.0002961    -0.0000454   -0.0001781     0.0006256    0.0007796 
   0.133083267     0.7687498   -0.5365428     0.0001170   -0.0001314    -0.0000706   -0.0001226     0.0003250    0.0007109 
   0.133183292     0.7649150   -0.5356330     0.0001451   -0.0002031    -0.0000444    0.0000891     0.0001749    0.0005481 
   0.133283317     0.7657912   -0.5372646    -0.0002924   -0.0000996     0.0001148    0.0000620     0.0000477    0.0010102 
   0.133383342     0.7677496   -0.5390090    -0.0001499    0.0000678    -0.0000462   -0.0000341    -0.0000021    0.0005406 
   0.133483367     0.7650311   -0.5386553    -0.0002425    0.0000543     0.0000124   -0.0000390     0.0000037    0.0003126 
   0.133583392     0.7675094   -0.5405833     0.0002358   -0.0001074    -0.0000369   -0.0001283     0.0000574    0.0003810 
   0.133683417     0.7690999   -0.5429290    -0.0001620    0.0000680     0.0000188    0.0000081     0.0003042    0.0007081 
   0.133783442     0.7650192   -0.5374348     0.0000808    0.0000034    -0.0001179   -0.0000167     0.0003941    0.0005710 
   0.133883467     0.7653444   -0.5427783    -0.0000552    0.0002208    -0.0001139   -0.0002238     0.0003188    0.0003837 
   0.133983492     0.7663096   -0.5399981    -0.0000928    0.0001502     0.0000472    0.0000109    -0.0001473    0.0004512 
   0.134083517     0.7665843   -0.5402077    -0.0003823    0.0003420     0.0000246   -0.0000892    -0.0001307    0.0011546 
   0.134183542     0.7642466   -0.5440012    -0.0001263   -0.0000483    -0.0000077   -0.0001598     0.0003858    0.0009584 
   0.134283567     0.7672851   -0.5384212    -0.0000386   -0.0001385    -0.0000672    0.0000274     0.0006318    0.0004349 
   0.134383592     0.7678441   -0.5418339     0.0002766   -0.0003309     0.0000227   -0.0000060    -0.0002432    0.0006481 
   0.134483617     0.7617921   -0.5422142    -0.0000053   -0.0000025    -0.0001621    0.0000954    -0.0000247    0.0002830 
   0.134583642     0.7645583   -0.5395744    -0.0000134    0.0002682    -0.0000532    0.0000467     0.0003171    0.0008187 
   0.134683667     0.7633803   -0.5453317     0.0000914   -0.0001876     0.0001761    0.0001264     0.0004416    0.0006672 
   0.134783692     0.7610506   -0.5425225    -0.0000870   -0.0000135     0.0000984    0.0001383    -0.0000025    0.0009775 
   0.134883717     0.7650383   -0.5458636    -0.0000462   -0.0001171    -0.0000152    0.0001388     0.0000758    0.0008312 
   0.134983742     0.7589082   -0.5439322     0.0000315    0.0001825    -0.0000387    0.0000075    -0.0003351    0.0009698 
   0.135083767     0.7628391   -0.5464033    -0.0001754    0.0000172     0.0000161    0.0000702     0.0000837    0.0007914 
   0.135183792     0.7629113   -0.5423298    -0.0000428   -0.0001245    -0.0000460    0.0000759     0.0003280    0.0007497 
   0.135283817     0.7637171   -0.5442451    -0.0000728   -0.0000733    -0.0001807   -0.0000559     0.0001922    0.0005025 
   0.135383842     0.7611612   -0.5478395    -0.0002185    0.0001383     0.0000660    0.0002217     0.0002804    0.0006218 
   0.135483867     0.7611716   -0.5476857    -0.0003690    0.0002095     0.0000778   -0.0000234     0.0000195    0.0003151 
   0.135583892     0.7600350   -0.5435118    -0.0000217    0.0000361     0.0002687    0.0000249     0.0004218    0.0007697 
   0.135683917     0.7647201   -0.5485230     0.0000023   -0.0000824     0.0000037   -0.0000202     0.0001004    0.0006739 
   0.135783942     0.7647232   -0.5481398    -0.0001103   -0.0003883    -0.0000127   -0.0001360     0.0000203    0.0006254 
   0.135883967     0.7599539   -0.5470201     0.0001413    0.0002661     0.0000410   -0.0001252    -0.0000846    0.0008087 
   0.135983992     0.7638476   -0.5476972    -0.0001729    0.0001190     0.0001353   -0.0001129    -0.0004614    0.0005247 
   0.136084017     0.7631095   -0.5504272     0.0002319    0.0000274    -0.0000165    0.0001246     0.0004124    0.0003987 
   0.136184042     0.7605864   -0.5504467     0.0002348   -0.0002941     0.0002077    0.0000199     0.0003626    0.0002636 
   0.136284067     0.7589312   -0.5473415     0.0001114   -0.0002022    -0.0001251   -0.0000003    -0.0000433    0.0006025 
   0.136384092     0.7591854   -0.5507591     0.0000525   -0.0000717     0.0000040    0.0001426     0.0001418    0.0012287 
   0.136484117     0.7643408   -0.5490837     0.0000847    0.0000830    -0.0002834   -0.0001124     0.0006307    0.0009302 
   0.136584142     0.7578932   -0.5524072     0.0000033   -0.0005831    -0.0000246   -0.0000874     0.0006093    0.0008565 
   0.136684167     0.7601673   -0.5480350    -0.0002449    0.0000566     0.0000898   -0.0000287    -0.0003263    0.0007736 
   0.136784192     0.7556320   -0.5511873     0.0001981   -0.0003245     0.0000659    0.0001999     0.0002265    0.0001685 
   0.136884217     0.7574890   -0.5534555     0.0001866   -0.0001443    -0.0000994   -0.0000105    -0.0005400    0.0007931 
   0.136984242     0.7614994   -0.5579180    -0.0001340    0.0001817    -0.0000578   -0.0000238    -0.0000100    0.0003196 
   0.137084267     0.7574139   -0.5506878     0.0000645    0.0000444     0.0000818    0.0001598    -0.0000137    0.0003686 
   0.137184292     0.7585352   -0.5536436     0.0001641    0.0000578     0.0000040   -0.0000571    -0.0007083    0.0007401 
   0.137284317     0.7550232   -0.5518285     0.0000134   -0.0000035     0.0001046   -0.0000863     0.0001146    0.0012157 
   0.137384342     0.7579199   -0.5544656     0.0001119   -0.0000094    -0.0000853    0.0001983     0.0002932    0.0005605 
   0.137484367     0.7597279   -0.5560774     0.0000577   -0.0001405    -0.0000491    0.0000510    -0.0001307    0.0002138 
   0.137584392     0.7578515   -0.5532834    -0.0001816    0.0001284     0.0000531   -0.0000924     0.0003624    0.0004103 
   0.137684417     0.7540198   -0.5533164    -0.0001480    0.0000096     0.0001063   -0.0000197     0.0003053    0.0008991 
   0.137784442     0.7537367   -0.5534563    -0.0002259   -0.0003776     0.0000833    0.0000494     0.0000248    0.0004377 
   0.137884467     0.7508897   -0.5530961    -0.0001847    0.0000522     0.0000232   -0.0000482    -0.0000076    0.0003204 
   0.137984492     0.7546430   -0.5561610     0.0001893    0.0000528    -0.0002428   -0.0001196     0.0003992    0.0009696 
   0.138084517     0.7563054   -0.5554569     0.0003465    0.0000308    -0.0000066   -0.0001512     0.0003401    0.0005694 
   0.138184542     0.7531776   -0.5548810    -0.0002827    0.0000313     0.0000558   -0.0000389     0.0000112    0.0009110 
   0.138284567     0.7536640   -0.5583066    -0.0000298    0.0006953     0.0001139    0.0001291    -0.0002452    0.0008211 
   0.138384592     0.7500880   -0.5573327     0.0002979   -0.0004070     0.0002019    0.0001177     0.0000246    0.0010294 
   0.138484617     0.7585283   -0.5559584     0.0003266   -0.0001033     0.0001639   -0.0001635     0.0004793    0.0007004 
   0.138584642     0.7530078   -0.5584779     0.0001135   -0.0001425     0.0000959   -0.0000694     0.0000156    0.0004174 
   0.138684667     0.7547735   -0.5586384     0.0002328   -0.0001612     0.0001919   -0.0000886    -0.0000338    0.0005754 
   0.138784692     0.7534424   -0.5557598     0.0001011   -0.0000806     0.0000373    0.0000584     0.0003476    0.0004570 
   0.138884717     0.7511707   -0.5568821    -0.0000499   -0.0001936     0.0002230   -0.0000375    -0.0000916    0.0006877 
   0.138984742     0.7551733   -0.5566159    -0.0002521   -0.0001306     0.0001495    0.0001402     0.0005840    0.0005725 
   0.139084767     0.7515222   -0.5585994     0.0000976    0.0000604    -0.0000758   -0.0001589     0.0001795    0.0007846 
   0.139184792     0.7510862   -0.5660205    -0.0002656    0.0000312     0.0000562    0.0000025    -0.0001512    0.0006033 
   0.139284817     0.7467911   -0.5629533     0.0000846   -0.0002458     0.0002003   -0.0000098     0.0002014    0.0005189 
   0.139384842     0.7546149   -0.5608028     0.0003374    0.0002704     0.0001237    0.0000617    -0.0003712    0.0006639 
   0.139484867     0.7520431   -0.5591042     0.0001533   -0.0000592    -0.0001648   -0.0000654    -0.0002994    0.0011447 
   0.139584892     0.7514978   -0.5599703     0.0000312    0.0001710     0.0000561   -0.0000375     0.0005232    0.0007389 
   0.139684917     0.7499761   -0.5600269    -0.0001022    0.0000070    -0.0000142   -0.0000874    -0.0003864    0.0002527 
   0.139784942     0.7530409   -0.5598134    -0.0003190   -0.0000019    -0.0000161    0.0001417    -0.0000904    0.0000287 
   0.139884967     0.7510501   -0.5591602    -0.0000488   -0.0000337    -0.0001746    0.0001037     0.0000828    0.0007979 
   0.139984992     0.7495347   -0.5642697    -0.0002151    0.0003083     0.0001110   -0.0002446     0.0003674    0.0002332 
   0.140085018     0.7503819   -0.5620902     0.0001948    0.0000538    -0.0000313    0.0001073     0.0001846    0.0008159 
   0.140185043     0.7484332   -0.5621246    -0.0003434   -0.0000324    -0.0001411    0.0002301    -0.0002731    0.0006453 
   0.140285068     0.7416219   -0.5599792     0.0000513    0.0000698     0.0002162    0.0001082     0.0004295    0.0007064 
   0.140385093     0.7453092   -0.5640003    -0.0000693   -0.0000362     0.0001139    0.0000288     0.0003307    0.0005204 
   0.140485118     0.7518610   -0.5645500     0.0000171   -0.0001783    -0.0000954   -0.0003719     0.0000607    0.0007854 
   0.140585143     0.7492138   -0.5636246    -0.0001002    0.0003270     0.0001965    0.0000919     0.0005751    0.0003465 
   0.140685168     0.7454863   -0.5657228    -0.0002447    0.0003188    -0.0000480   -0.0000774    -0.0004271    0.0004784 
   0.140785193     0.7451397   -0.5646463     0.0001871    0.0001408    -0.0000492    0.0000447     0.0001234    0.0007281 
   0.140885218     0.7442492   -0.5635053     0.0000354    0.0000388    -0.0000810   -0.0000321    -0.0004791    0.0008098 
   0.140985243     0.7471222   -0.5666041     0.0000879    0.0000796     0.0001823    0.0000129     0.0002896    0.0004075 
   0.141085268     0.7476794   -0.5614080     0.0000496   -0.0000553    -0.0001919    0.0000139     0.0000882    0.0000855 
   0.141185293     0.7481384   -0.5646783    -0.0002437   -0.0001275     0.0001306   -0.0001915     0.0005438    0.0007560 
   0.141285318     0.7450876   -0.5649122     0.0000207   -0.0001338     0.0001506   -0.0001865    -0.0001801    0.0005618 
   0.141385343     0.7412443   -0.5657513     0.0000805   -0.0001917     0.0001084    0.0000245    -0.0000330    0.0006348 
   0.141485368     0.7440225   -0.5664193     0.0002025    0.0000817    -0.0000118    0.0000429     0.0005670    0.0002899 
   0.141585393     0.7463868   -0.5679482    -0.0000527    0.0000318     0.0000319   -0.0001883     0.0002889    0.0005057 
   0.141685418     0.7477158   -0.5686652    -0.0002125    0.0000906     0.0001526   -0.0000689     0.0001578    0.0006027 
   0.141785443     0.7458046   -0.5703559     0.0001848    0.0007596     0.0000278    0.0002701    -0.0000170    0.0006636 
   0.141885468     0.7475563   -0.5673181    -0.0000279   -0.0000815     0.0000778   -0.0000526    -0.0000273    0.0006077 
   0.141985493     0.7479934   -0.5716646     0.0001015   -0.0002481     0.0001225    0.0003228    -0.0003091    0.0003447 
   0.142085518     0.7440956   -0.5706731     0.0000644    0.0000076     0.0001100   -0.0001054    -0.0003865    0.0006624 
   0.142185543     0.7453203   -0.5711308     0.0000224   -0.0001087     0.0001447    0.0000359     0.0001828    0.0003281 
   0.142285568     0.7460011   -0.5716867    -0.0003683    0.0000421     0.0000477    0.0000569    -0.0000270    0.0002248 
   0.142385593     0.7428879   -0.5674070    -0.0001569    0.0002900    -0.0002502   -0.0000387    -0.0003163    0.0007803 
   0.142485618     0.7442575   -0.5734696     0.0003486    0.0000288     0.0000034    0.0001043    -0.0003877    0.0005492 
   0.142585643     0.7429172   -0.5682301    -0.0003908    0.0001078     0.0001319    0.0001142     0.0002968    0.0005583 
   0.142685668     0.7408276   -0.5717726     0.0000403   -0.0000593     0.0000228    0.0001353    -0.0001580    0.0005811 
   0.142785693     0.7433206   -0.5728842    -0.0001205    0.0002661     0.0000443    0.0000334    -0.0003907    0.0009525 
   0.142885718     0.7417291   -0.5704754     0.0002239   -0.0000692    -0.0002257    0.0000643    -0.0004813    0.0010543 
   0.142985743     0.7385848   -0.5724297     0.0002120    0.0002362     0.0000270    0.0000522    -0.0002181    0.0003989 
   0.143085768     0.7424386   -0.5693232    -0.0001718   -0.0002705     0.0000282   -0.0001443    -0.0000759    0.0006480 
   0.143185793     0.7443457   -0.5702729     0.0004176    0.0000479     0.0001684    0.0000765    -0.0005459    0.0004526 
   0.143285818     0.7408235   -0.5764223     0.0000806   -0.0006960    -0.0000587    0.0002211    -0.0001550    0.0007470 
   0.143385843     0.7448670   -0.5754860     0.0000178    0.0000431     0.0001124   -0.0000110     0.0004628    0.0006868 
   0.143485868     0.7398225   -0.5759773     0.0002313   -0.0001450    -0.0001567   -0.0000160    -0.0000667    0.0006612 
   0.143585893     0.7387922   -0.5773451    -0.0000842    0.0000043     0.0001089    0.0000071    -0.0003444    0.0005564 
   0.143685918     0.7403442   -0.5777396     0.0002489    0.0004748    -0.0000326    0.0000819    -0.0002309    0.0004406 
   0.143785943     0.7406698   -0.5760045     0.0001114    0.0001021     0.0000671   -0.0000311    -0.0005088    0.0008094 
   0.143885968     0.7413334   -0.5760671    -0.0004567   -0.0002311    -0.0000081   -0.0000626     0.0000424    0.0003576 
   0.143985993     0.7383491   -0.5722728     0.0002207   -0.0002113     0.0001849   -0.0002994     0.0001537    0.0004984 
   0.144086018     0.7428405   -0.5741702    -0.0000912   -0.0002440     0.0001125   -0.0000779     0.0002607    0.0004285 
   0.144186043     0.7443901   -0.5826680    -0.0000614   -0.0000451     0.0000396   -0.0000113    -0.0001487    0.0005874 
   0.144286068     0.7425753   -0.5772488    -0.0001437    0.0005010    -0.0001195   -0.0000545     0.0000273    0.0004092 
   0.144386093     0.7378630   -0.5786953     0.0001084   -0.0001517    -0.0001002    0.0000042    -0.0000730    0.0001986 
   0.144486118     0.7365569   -0.5809443     0.0002414   -0.0000221     0.0000683   -0.0002547    -0.0002217    0.0001939 
   0.144586143     0.7382693   -0.5766680    -0.0003837   -0.0002090     0.0002531   -0.0004397     0.0000535    0.0005402 
   0.144686168     0.7344525   -0.5735074     0.0003336   -0.0002402     0.0003220   -0.0000877     0.0000429    0.0007202 
   0.144786193     0.7381849   -0.5765509     0.0003895    0.0003335     0.0000504   -0.0000018    -0.0002394    0.0007590 
   0.144886218     0.7370597   -0.5822018    -0.0005160   -0.0001058     0.0001531    0.0002095     0.0001024    0.0006286 
   0.144986243     0.7357434   -0.5769300     0.0000793    0.0000186    -0.0002792    0.0000325    -0.0002283    0.0009098 
   0.145086268     0.7403047   -0.5780551     0.0001162   -0.0002255    -0.0002431    0.0001552    -0.0000560    0.0001116 
   0.145186293     0.7339625   -0.5786433    -0.0000078   -0.0000379    -0.0000467   -0.0000389    -0.0004539    0.0000678 
   0.145286318     0.7365564   -0.5832222    -0.0002663    0.0001479     0.0000300   -0.0000506    -0.0000084    0.0003541 
   0.145386343     0.7311444   -0.5805739    -0.0007806   -0.0000887    -0.0001629    0.0000221    -0.0002055    0.0004865 
   0.145486368     0.7325664   -0.5800742     0.0000209   -0.0000437    -0.0001340    0.0000254     0.0001957    0.0010949 
   0.145586393     0.7319723   -0.5794955     0.0001260   -0.0002256     0.0000599   -0.0000886    -0.0006578    0.0003256 
   0.145686418     0.7422829   -0.5742828     0.0000012   -0.0000454     0.0001448   -0.0001515    -0.0002614    0.0001048 
   0.145786443     0.7312698   -0.5772309     0.0002228    0.0000736    -0.0000420    0.0002454    -0.0006071    0.0010235 
   0.145886468     0.7357008   -0.5806039     0.0000477    0.0000385    -0.0001635   -0.0001372    -0.0003477    0.0002454 
   0.145986493     0.7352130   -0.5794793    -0.0002284   -0.0003158     0.0000989    0.0000254    -0.0002737    0.0005733 
   0.146086518     0.7332597   -0.5833097     0.0002091    0.0001623     0.0000743    0.0000271    -0.0001236    0.0005024 
   0.146186543     0.7358584   -0.5864505    -0.0001984   -0.0003704     0.0001052    0.0002630    -0.0003523    0.0007419 
   0.146286568     0.7330148   -0.5871790     0.0002698   -0.0005737     0.0001477    0.0002153    -0.0002671    0.0005866 
   0.146386593     0.7313706   -0.5850437    -0.0000894   -0.0000847     0.0002149    0.0000477    -0.0002569    0.0007168 
   0.146486618     0.7293677   -0.5891589    -0.0003181   -0.0001972    -0.0001244   -0.0001128    -0.0000226    0.0002333 
   0.146586643     0.7344607   -0.5861465     0.0000153   -0.0001276    -0.0001081    0.0003258    -0.0001943    0.0009461 
   0.146686668     0.7352113   -0.5842631     0.0002451   -0.0001479     0.0000829    0.0000389    -0.0004884    0.0004642 
   0.146786693     0.7333214   -0.5840557     0.0002284    0.0002436    -0.0000201    0.0003328     0.0002416    0.0008729 
   0.146886718     0.7311871   -0.5895944    -0.0002680    0.0000255     0.0000845   -0.0000637    -0.0003227    0.0011083 
   0.146986743     0.7344760   -0.5849075     0.0001421   -0.0003110     0.0000634   -0.0000962    -0.0000667    0.0004148 
   0.147086768     0.7269996   -0.5851557    -0.0003495    0.0001645    -0.0002210    0.0000328    -0.0004014    0.0004016 
   0.147186793     0.7332261   -0.5852500    -0.0004084    0.0000492    -0.0000780    0.0002527    -0.0005804    0.0004765 
   0.147286818     0.7283034   -0.5827757     0.0000860   -0.0001310     0.0000216    0.0000571     0.0000987    0.0007736 
   0.147386843     0.7313464   -0.5853809    -0.0000347    0.0000730     0.0000455   -0.0001212    -0.0005732    0.0004657 
   0.147486868     0.7339453   -0.5875820     0.0000827    0.0002101     0.0001064   -0.0001735    -0.0000168    0.0005866 
   0.147586893     0.7286652   -0.5870878    -0.0002442    0.0002318     0.0000028   -0.0000786    -0.0006137    0.0005583 
   0.147686918     0.7244312   -0.5874764    -0.0000475   -0.0001855     0.0001512   -0.0001892    -0.0001136    0.0005337 
   0.147786943     0.7262220   -0.5939745    -0.0000153   -0.0001279    -0.0000585    0.0000897    -0.0001598    0.0005905 
   0.147886968     0.7269866   -0.5905750     0.0001547   -0.0002807    -0.0001584    0.0001623    -0.0003198    0.0006701 
   0.147986993     0.7289133   -0.5918911    -0.0000048   -0.0000034    -0.0001097   -0.0001785    -0.0000430    0.0004204 
   0.148087019     0.7299387   -0.5904694     0.0004231   -0.0002726     0.0001726   -0.0002457     0.0000828    0.0007858 
   0.148187044     0.7277185   -0.5876446    -0.0001555    0.0003643     0.0001519   -0.0002339    -0.0003352    0.0005130 
   0.148287069     0.7339153   -0.5914272     0.0004683   -0.0001652    -0.0001059    0.0000289    -0.0005295    0.0004412 
   0.148387094     0.7286317   -0.5918260    -0.0001779   -0.0004086    -0.0000653   -0.0001091    -0.0000809    0.0006120 
   0.148487119     0.7362070   -0.5855172     0.0000308    0.0004453    -0.0002306   -0.0001041     0.0001556    0.0003185 
   0.148587144     0.7336990   -0.5928221     0.0003837   -0.0004399    -0.0000211   -0.0003452     0.0002237    0.0006872 
   0.148687169     0.7236346   -0.5904077    -0.0002799    0.0001965     0.0002083    0.0001483    -0.0003902    0.0005299 
   0.148787194     0.7300249   -0.5924020     0.0001113    0.0005405    -0.0000228   -0.0002217    -0.0001353    0.0002465 
   0.148887219     0.7235805   -0.5943750    -0.0000778   -0.0001169     0.0000683   -0.0001250    -0.0001104    0.0002535 
   0.148987244     0.7254519   -0.5941852    -0.0002459   -0.0004050     0.0001620    0.0000834    -0.0002572    0.0004043 
   0.149087269     0.7244396   -0.5928661    -0.0000088   -0.0002112     0.0001841   -0.0000173    -0.0002176    0.0006534 
   0.149187294     0.7248397   -0.5974407    -0.0000087   -0.0001874    -0.0002066    0.0002202    -0.0005141    0.0000042 
   0.149287319     0.7238654   -0.5968429    -0.0001634   -0.0002277    -0.0000493   -0.0000268    -0.0005719    0.0001874 
   0.149387344     0.7234890   -0.5957987    -0.0003633   -0.0000300     0.0000944    0.0000881    -0.0003317   -0.0001413 
   0.149487369     0.7263049   -0.5967147     0.0001580   -0.0003776     0.0001586    0.0000021    -0.0003791    0.0000683 
   0.149587394     0.7219897   -0.5907085     0.0002636   -0.0005040     0.0001764    0.0001165    -0.0004368    0.0001941 
   0.149687419     0.7250728   -0.5899910     0.0002171    0.0001491     0.0002440   -0.0000518    -0.0002580    0.0005710 
   0.149787444     0.7207760   -0.5951020     0.0001501   -0.0002419     0.0000453   -0.0000990    -0.0002239    0.0006040 
   0.149887469     0.7259815   -0.5999092     0.0002310    0.0002124    -0.0000117    0.0000244    -0.0002339    0.0003514 
   0.149987494     0.7227333   -0.5984145    -0.0000471    0.0000435    -0.0000347   -0.0000200    -0.0002011    0.0007590 
   0.150087519     0.7245286   -0.6019695     0.0000796    0.0001618     0.0000017    0.0000531    -0.0003846    0.0004510 
   0.150187544     0.7261246   -0.5976989    -0.0003284    0.0002256    -0.0000193   -0.0001061    -0.0003711    0.0006153 
   0.150287569     0.7263811   -0.5980775    -0.0003902    0.0001834    -0.0002029    0.0000528    -0.0002622    0.0005152 
   0.150387594     0.7197273   -0.5945000     0.0002895   -0.0002441    -0.0002067    0.0001331    -0.0000269   -0.0000462 
   0.150487619     0.7159727   -0.5973288    -0.0003602    0.0001723     0.0002127   -0.0001894     0.0000987    0.0004770 
   0.150587644     0.7233343   -0.5996756     0.0001725    0.0000014    -0.0000010    0.0000639     0.0001555    0.0004876 
   0.150687669     0.7171447   -0.5998682     0.0000761   -0.0001905    -0.0000920    0.0002375    -0.0000579    0.0004875 
   0.150787694     0.7191554   -0.5999056     0.0000477   -0.0001624    -0.0001020   -0.0000883    -0.0000083    0.0001585 
   0.150887719     0.7222165   -0.5991487    -0.0003602   -0.0000736    -0.0000308   -0.0003224    -0.0002605    0.0004759 
   0.150987744     0.7219414   -0.5955901     0.0001852    0.0001853     0.0001117   -0.0001002     0.0000404    0.0000396 
   0.151087769     0.7167557   -0.6015010    -0.0002353    0.0000718    -0.0000093    0.0002992     0.0000878    0.0004228 
   0.151187794     0.7153437   -0.6044241    -0.0003066   -0.0002936    -0.0000492    0.0001730    -0.0001646    0.0003148 
   0.151287819     0.7200521   -0.6024125    -0.0000376   -0.0000237    -0.0001265   -0.0003866     0.0000834    0.0002799 
   0.151387844     0.7184272   -0.6019356    -0.0001804    0.0000317     0.0001842   -0.0001639     0.0001614    0.0004460 
   0.151487869     0.7193959   -0.5980819    -0.0001296    0.0004246     0.0000011    0.0002025    -0.0000758   -0.0000253 
   0.151587894     0.7163001   -0.6031191    -0.0004519    0.0001476    -0.0001615   -0.0000694    -0.0000937    0.0005554 
   0.151687919     0.7171687   -0.6004806     0.0005457    0.0001330     0.0001462   -0.0000833    -0.0001589    0.0006257 
   0.151787944     0.7170736   -0.5987712    -0.0001905    0.0000874    -0.0001933   -0.0004554    -0.0004255    0.0003663 
   0.151887969     0.7175975   -0.6021745     0.0003766    0.0004611    -0.0000896    0.0002484    -0.0003296    0.0003093 
   0.151987994     0.7128189   -0.6076766    -0.0001261   -0.0001076     0.0001511    0.0001560     0.0000207    0.0007798 
   0.152088019     0.7175119   -0.5989897    -0.0000792   -0.0004796    -0.0001536   -0.0001511     0.0000279    0.0002667 
   0.152188044     0.7157061   -0.6000029    -0.0001894   -0.0001310    -0.0002930   -0.0001926     0.0000645    0.0005339 
   0.152288069     0.7121835   -0.6056904     0.0000042    0.0003038     0.0000049   -0.0000873     0.0001108    0.0006566 
   0.152388094     0.7214476   -0.6064649     0.0000659    0.0001303     0.0002771    0.0001747     0.0000227    0.0002623 
   0.152488119     0.7152975   -0.6035101    -0.0002900   -0.0000920     0.0000494    0.0000771    -0.0001202    0.0005003 
   0.152588144     0.7138553   -0.6027772     0.0004088   -0.0005046    -0.0000297   -0.0001069    -0.0003125    0.0004141 
   0.152688169     0.7147129   -0.6014013    -0.0004247   -0.0000881     0.0000855    0.0001704    -0.0000985   -0.0002919 
   0.152788194     0.7156171   -0.6045205     0.0003754   -0.0004380    -0.0000651   -0.0000040    -0.0002865    0.0006472 
   0.152888219     0.7178474   -0.6074803     0.0001105    0.0001092     0.0001480    0.0002378    -0.0001667    0.0002764 
   0.152988244     0.7076927   -0.6030824    -0.0006259   -0.0000460    -0.0001105    0.0000868    -0.0004049   -0.0001539 
   0.153088269     0.7130257   -0.6054217    -0.0000356    0.0000717     0.0001455   -0.0000057     0.0001901    0.0005163 
   0.153188294     0.7077864   -0.6079858    -0.0002521    0.0005364     0.0002094   -0.0002791    -0.0000487    0.0000812 
   0.153288319     0.7122587   -0.6103908     0.0003264    0.0003127     0.0001159    0.0001772    -0.0004173    0.0005379 
   0.153388344     0.7147161   -0.6019714     0.0000996   -0.0002412    -0.0000476   -0.0000763    -0.0001292    0.0007216 
   0.153488369     0.7125766   -0.6068306    -0.0003124   -0.0003542    -0.0004293    0.0001233     0.0000353    0.0005495 
   0.153588394     0.7175174   -0.6066095    -0.0006094   -0.0001884    -0.0002445   -0.0001323    -0.0003908    0.0003135 
   0.153688419     0.7128479   -0.6079112     0.0002942    0.0003187    -0.0000734    0.0000338    -0.0000608    0.0003273 
   0.153788444     0.7152854   -0.6094477    -0.0003067   -0.0004902     0.0001432   -0.0001550    -0.0004279    0.0003366 
   0.153888469     0.7125133   -0.6083102     0.0000001   -0.0001845    -0.0003260   -0.0002145    -0.0003442    0.0001544 
   0.153988494     0.7151345   -0.6070684    -0.0002678   -0.0004148     0.0002574    0.0000682    -0.0001573    0.0008166 
   0.154088519     0.7093695   -0.6094892    -0.0003039   -0.0001407     0.0000818    0.0000715    -0.0000509    0.0008426 
   0.154188544     0.7051856   -0.6056983    -0.0001990    0.0003910     0.0002365   -0.0001414    -0.0001415    0.0002224 
   0.154288569     0.7085733   -0.6126297     0.0002207   -0.0000416    -0.0002484   -0.0001016    -0.0000606    0.0004955 
   0.154388594     0.7121692   -0.6064634    -0.0001278   -0.0000195    -0.0001368   -0.0000584    -0.0001266    0.0000612 
   0.154488619     0.7074863   -0.6140712    -0.0003849   -0.0001185    -0.0000301    0.0001434    -0.0002297    0.0002981 
   0.154588644     0.7037542   -0.6124771     0.0005526   -0.0003899    -0.0000631   -0.0000549    -0.0005307    0.0001158 
   0.154688669     0.7059942   -0.6166094    -0.0002971    0.0003495    -0.0001161    0.0001220     0.0000003    0.0003643 
   0.154788694     0.7110538   -0.6091245     0.0003191    0.0004665     0.0003287   -0.0001824    -0.0003728    0.0001295 
   0.154888719     0.7085226   -0.6099088     0.0001319   -0.0003294    -0.0000760    0.0001396     0.0001323    0.0001294 
   0.154988744     0.7088478   -0.6118888     0.0001472   -0.0001395     0.0000501    0.0003377    -0.0001066    0.0002306 
   0.155088769     0.7086820   -0.6105257     0.0002137    0.0004245     0.0000884    0.0000001    -0.0003149    0.0002632 
   0.155188794     0.7076886   -0.6140122     0.0000179    0.0002843     0.0001408   -0.0001278    -0.0001788    0.0002701 
   0.155288819     0.7090940   -0.6103221     0.0004544    0.0001131    -0.0002945   -0.0000292    -0.0001706    0.0002250 
   0.155388844     0.7067700   -0.6112561    -0.0001532   -0.0001224    -0.0003413   -0.0000778    -0.0003066   -0.0000384 
   0.155488869     0.7033446   -0.6120589    -0.0001666    0.0000148    -0.0001095   -0.0001549    -0.0002987    0.0002271 
   0.155588894     0.7123717   -0.6129791     0.0002082    0.0003330     0.0000700   -0.0001225    -0.0002253   -0.0000272 
   0.155688919     0.7110587   -0.6171296     0.0000026   -0.0003003    -0.0000664   -0.0001549    -0.0005696    0.0006290 
   0.155788944     0.7052165   -0.6188930     0.0002500   -0.0000903     0.0000692    0.0001671     0.0000726    0.0001918 
   0.155888969     0.7090307   -0.6178452    -0.0002759   -0.0000586    -0.0000215    0.0000387    -0.0003177    0.0004882 
   0.155988994     0.7118931   -0.6234536    -0.0001007    0.0000079    -0.0002405    0.0004039     0.0000402    0.0001777 
   0.156089020     0.7041146   -0.6173259    -0.0004623    0.0001430     0.0001198    0.0002227    -0.0002240    0.0006158 
   0.156189045     0.7047224   -0.6180666    -0.0004723   -0.0004212    -0.0000050    0.0000765    -0.0000886    0.0004400 
   0.156289070     0.7000946   -0.6186366     0.0000807   -0.0002508     0.0001981   -0.0002275    -0.0000795    0.0005780 
   0.156389095     0.7039819   -0.6158491    -0.0001284   -0.0002678     0.0002452   -0.0000108     0.0001133    0.0001738 
   0.156489120     0.7090057   -0.6158066     0.0000023   -0.0002847    -0.0000142   -0.0004153    -0.0000122    0.0005223 
   0.156589145     0.7059877   -0.6171217     0.0005855   -0.0000265     0.0001452    0.0002765    -0.0003046    0.0003023 
   0.156689170     0.7023669   -0.6197326    -0.0003299    0.0002724     0.0000992   -0.0000131    -0.0003627    0.0003217 
   0.156789195     0.7073078   -0.6139549    -0.0002697   -0.0001255    -0.0000331    0.0001668    -0.0005010    0.0001501 
   0.156889220     0.7056308   -0.6187972     0.0000037   -0.0001571     0.0001748    0.0000858     0.0001665    0.0000409 
   0.156989245     0.7011594   -0.6183305    -0.0000322   -0.0004551    -0.0000208    0.0001038    -0.0003265    0.0005805 
   0.157089270     0.6962148   -0.6213169     0.0004277    0.0005389    -0.0000572    0.0001505    -0.0002955   -0.0002217 
   0.157189295     0.7037267   -0.6216842     0.0005977   -0.0004669    -0.0000278   -0.0000486    -0.0004633   -0.0001183 
   0.157289320     0.7025853   -0.6205461    -0.0001981    0.0002314    -0.0002264    0.0001951    -0.0002177    0.0001266 
   0.157389345     0.7029533   -0.6168776     0.0002352   -0.0000987     0.0000968    0.0000400    -0.0002886    0.0003788 
   0.157489370     0.7001389   -0.6155431    -0.0000477   -0.0002238    -0.0001472   -0.0003414     0.0000867    0.0004467 
   0.157589395     0.7003841   -0.6209039    -0.0001537   -0.0003999    -0.0000928    0.0000466    -0.0003218    0.0001466 
   0.157689420     0.6987359   -0.6224634    -0.0001667    0.0003738    -0.0001763   -0.0001823    -0.0001270    0.0000935 
   0.157789445     0.6975423   -0.6223950    -0.0001784    0.0002226    -0.0003121   -0.0001572     0.0002239    0.0005473 
   0.157889470     0.7039092   -0.6188016    -0.0001672   -0.0004845     0.0000024    0.0001551    -0.0003634    0.0001067 
   0.157989495     0.7031556   -0.6225799    -0.0005402    0.0003000     0.0003446   -0.0000931    -0.0005449    0.0003521 
   0.158089520     0.7001789   -0.6213524     0.0000078    0.0003941    -0.0000191   -0.0001270    -0.0002183   -0.0003184 
   0.158189545     0.6958873   -0.6234632    -0.0001775   -0.0000193    -0.0000786    0.0002153    -0.0002737    0.0004539 
   0.158289570     0.7015934   -0.6223437     0.0007955    0.0000063    -0.0001557   -0.0000401     0.0000969   -0.0000056 
   0.158389595     0.6961187   -0.6196528    -0.0000464   -0.0001260     0.0001667    0.0001852     0.0002219   -0.0002062 
   0.158489620     0.6890966   -0.6210783     0.0000465    0.0001565     0.0000787    0.0001937    -0.0004450    0.0004327 
   0.158589645     0.6947124   -0.6252188     0.0003038   -0.0001750     0.0001179   -0.0001474    -0.0004481    0.0001303 
   0.158689670     0.6960820   -0.6239392     0.0003305   -0.0001695     0.0000604   -0.0003310     0.0001167    0.0001875 
   0.158789695     0.6942036   -0.6237077    -0.0003777   -0.0002826     0.0000531   -0.0001557    -0.0003183    0.0000893 
   0.158889720     0.6983136   -0.6179594     0.0000564   -0.0000121     0.0001172    0.0001620    -0.0000454   -0.0001281 
   0.158989745     0.6958343   -0.6207359    -0.0001408   -0.0001670     0.0001648   -0.0000965    -0.0004665   -0.0000375 
   0.159089770     0.6973119   -0.6229835    -0.0004053    0.0002802     0.0001884   -0.0000844     0.0002252    0.0005183 
   0.159189795     0.6931167   -0.6230400     0.0000883    0.0000885    -0.0000499   -0.0000561     0.0000516    0.0001667 
   0.159289820     0.6931409   -0.6278568    -0.0000552    0.0003726    -0.0001899    0.0000755    -0.0004514    0.0001875 
   0.159389845     0.6891373   -0.6243309     0.0001461   -0.0000310    -0.0000011   -0.0001377    -0.0000884    0.0001064 
   0.159489870     0.6954044   -0.6259611     0.0004110    0.0001810     0.0001062    0.0000143     0.0002460   -0.0005600 
   0.159589895     0.6920695   -0.6273302     0.0001476    0.0000953     0.0000253   -0.0000669    -0.0002596    0.0003752 
   0.159689920     0.6975685   -0.6290370     0.0000413    0.0003892    -0.0000347   -0.0002181    -0.0004403    0.0003389 
   0.159789945     0.6945344   -0.6283165     0.0001298    0.0001267     0.0002605    0.0000336    -0.0003103   -0.0000018 
   0.159889970     0.6927494   -0.6307442     0.0002483    0.0004502     0.0001142    0.0000498    -0.0003798    0.0003477 
   0.159989995     0.6959848   -0.6284431     0.0001181    0.0001558     0.0000373    0.0000098    -0.0004050    0.0000729 
   0.160090020     0.6962834   -0.6239135    -0.0001457   -0.0001270     0.0000850   -0.0001212    -0.0004162    0.0000551 
   0.160190045     0.6954594   -0.6271048     0.0000342   -0.0003320    -0.0000754   -0.0000844     0.0000644   -0.0001698 
   0.160290070     0.6880500   -0.6336715     0.0003675   -0.0003732    -0.0000493   -0.0002508    -0.0002298    0.0002298 
   0.160390095     0.6943356   -0.6265840    -0.0002282    0.0001003     0.0000404   -0.0001155     0.0002733   -0.0000159 
   0.160490120     0.6861048   -0.6259936    -0.0003151   -0.0001783    -0.0001398    0.0000178    -0.0010223   -0.0001174 
   0.160590145     0.6936738   -0.6274673    -0.0007561    0.0001862     0.0001811   -0.0001018     0.0004143    0.0002585 
   0.160690170     0.6856328   -0.6320252    -0.0000156    0.0001531    -0.0001294    0.0001749    -0.0001208   -0.0003814 
   0.160790195     0.6896825   -0.6288016    -0.0001194   -0.0000632     0.0002072   -0.0002809     0.0001003    0.0001224 
   0.160890220     0.6920967   -0.6266483     0.0002502   -0.0002272     0.0002333   -0.0000837    -0.0004258    0.0001293 
   0.160990245     0.6881658   -0.6371560    -0.0000671    0.0004597    -0.0000894    0.0001343    -0.0000552    0.0004649 
   0.161090270     0.6895953   -0.6370921    -0.0000734   -0.0000124     0.0000911   -0.0000979    -0.0001215    0.0001347 
   0.161190295     0.6859645   -0.6297451     0.0000751   -0.0002803     0.0001740   -0.0001146    -0.0005469    0.0005586 
   0.161290320     0.6831403   -0.6323723    -0.0001318   -0.0000650     0.0000874    0.0001490    -0.0000803   -0.0003057 
   0.161390345     0.6859562   -0.6331216    -0.0000835   -0.0002239    -0.0000970   -0.0000702    -0.0004965    0.0002850 
   0.161490370     0.6887858   -0.6336645     0.0005776   -0.0004291     0.0002197    0.0002016    -0.0003710    0.0001319 
   0.161590395     0.6866338   -0.6384708     0.0002957   -0.0000467    -0.0000081   -0.0001421     0.0002954   -0.0003716 
   0.161690420     0.6794963   -0.6325624    -0.0000207    0.0002455     0.0000359    0.0000660    -0.0003131    0.0003227 
   0.161790445     0.6849398   -0.6342421    -0.0000874    0.0000607     0.0002880    0.0002563     0.0004581   -0.0002224 
   0.161890470     0.6840526   -0.6343454     0.0000099    0.0000439     0.0001346    0.0001206    -0.0001214    0.0001840 
   0.161990495     0.6887541   -0.6301309     0.0005068    0.0002551    -0.0001693    0.0001695     0.0000326    0.0001734 
   0.162090520     0.6836231   -0.6343589     0.0002340   -0.0002719    -0.0002165   -0.0000501    -0.0001298    0.0003465 
   0.162190545     0.6829772   -0.6383207    -0.0005837   -0.0007717     0.0001309    0.0001575    -0.0006468   -0.0000909 
   0.162290570     0.6870004   -0.6365277     0.0000434   -0.0006389    -0.0000606   -0.0001125    -0.0000585   -0.0001208 
   0.162390595     0.6882923   -0.6314153    -0.0001453    0.0000867     0.0000238    0.0003907    -0.0002253   -0.0000752 
   0.162490620     0.6810582   -0.6342909    -0.0002905   -0.0003431    -0.0000405    0.0001647    -0.0004628   -0.0002268 
   0.162590645     0.6847153   -0.6325864     0.0000130   -0.0000548    -0.0000120   -0.0001561    -0.0003066   -0.0000100 
   0.162690670     0.6805995   -0.6403006    -0.0003086   -0.0005893    -0.0003326    0.0003305     0.0000611    0.0000418 
   0.162790695     0.6775480   -0.6351131     0.0001757   -0.0002742     0.0001525   -0.0003331    -0.0000331   -0.0002386 
   0.162890720     0.6877997   -0.6383675    -0.0003531    0.0004325    -0.0000831   -0.0001313    -0.0001606   -0.0001438 
   0.162990745     0.6866606   -0.6326867     0.0002055    0.0001100    -0.0000402   -0.0003655    -0.0001492   -0.0000784 
   0.163090770     0.6805549   -0.6316061    -0.0002748   -0.0002823     0.0000361   -0.0000591    -0.0001477   -0.0001510 
   0.163190795     0.6894652   -0.6351649    -0.0001604   -0.0002307    -0.0001787    0.0003555     0.0001448    0.0000262 
   0.163290820     0.6766566   -0.6408272    -0.0003441    0.0004610     0.0000764   -0.0000960    -0.0007037    0.0001473 
   0.163390845     0.6762418   -0.6411663    -0.0003633    0.0000182     0.0002460    0.0000214    -0.0006227   -0.0002712 
   0.163490870     0.6824756   -0.6374342     0.0003951    0.0000337    -0.0001516   -0.0003631     0.0000006    0.0000668 
   0.163590895     0.6779553   -0.6420518     0.0003378    0.0001962    -0.0001844   -0.0000505    -0.0002972    0.0004122 
   0.163690920     0.6865044   -0.6428171    -0.0007706   -0.0000999    -0.0000508    0.0000900     0.0000019   -0.0000632 
   0.163790945     0.6759316   -0.6409120     0.0001188   -0.0001820    -0.0001749    0.0000100     0.0001009    0.0001492 
   0.163890970     0.6786535   -0.6358873    -0.0000203   -0.0000428     0.0005225    0.0003079    -0.0004591   -0.0001174 
   0.163990995     0.6784354   -0.6417959     0.0007538    0.0002856     0.0002711    0.0001509     0.0002806    0.0000678 
   0.164091021     0.6775857   -0.6368415     0.0004943    0.0000935     0.0002541    0.0001120    -0.0001816   -0.0006363 
   0.164191046     0.6782956   -0.6440700    -0.0000712   -0.0005093    -0.0002198   -0.0001265    -0.0006485    0.0001363 
   0.164291071     0.6749228   -0.6356186    -0.0002044   -0.0001958    -0.0001104    0.0000397    -0.0003656   -0.0001024 
   0.164391096     0.6766481   -0.6390750    -0.0000727    0.0001893     0.0001041   -0.0000033    -0.0001899   -0.0004136 
   0.164491121     0.6765611   -0.6429307    -0.0002171   -0.0000634     0.0001514   -0.0001030    -0.0003439    0.0000293 
   0.164591146     0.6784884   -0.6401486    -0.0002448    0.0000723    -0.0001159   -0.0000168    -0.0002095   -0.0000396 
   0.164691171     0.6718942   -0.6456372    -0.0001780   -0.0001303     0.0002182   -0.0000864    -0.0003192   -0.0001220 
   0.164791196     0.6754953   -0.6414180     0.0001643   -0.0003982     0.0001686   -0.0002427    -0.0002120    0.0001884 
   0.164891221     0.6805699   -0.6457761     0.0005494    0.0005528     0.0001779   -0.0001396    -0.0001849   -0.0000953 
   0.164991246     0.6740519   -0.6414512     0.0005681    0.0001950    -0.0000292    0.0002239    -0.0003745   -0.0003184 
   0.165091271     0.6805542   -0.6457686     0.0002758   -0.0000237     0.0000475    0.0001192    -0.0002532    0.0000504 
   0.165191296     0.6768107   -0.6468845     0.0000129   -0.0001603    -0.0002840   -0.0002553    -0.0001607   -0.0000391 
   0.165291321     0.6758081   -0.6445109     0.0000337   -0.0001927     0.0000302   -0.0001702    -0.0002976   -0.0002335 
   0.165391346     0.6794945   -0.6397959     0.0002452   -0.0002238     0.0000127   -0.0001374    -0.0001192   -0.0002267 
   0.165491371     0.6720991   -0.6435583    -0.0001196   -0.0002204     0.0001903   -0.0000847    -0.0001294   -0.0000834 
   0.165591396     0.6752496   -0.6449185    -0.0005421    0.0002179    -0.0001240   -0.0002493    -0.0002527   -0.0001961 
   0.165691421     0.6737064   -0.6480750     0.0001856    0.0002397    -0.0000282   -0.0000120    -0.0008361   -0.0002754 
   0.165791446     0.6719967   -0.6417250     0.0001884   -0.0003410    -0.0001073   -0.0002534    -0.0006854    0.0000197 
   0.165891471     0.6758856   -0.6484534     0.0001776    0.0001526    -0.0004643    0.0001336     0.0001775   -0.0002146 
   0.165991496     0.6715310   -0.6451294    -0.0002843   -0.0002021    -0.0001926   -0.0001185    -0.0002146    0.0000302 
   0.166091521     0.6715717   -0.6460468     0.0001252   -0.0000443     0.0000158   -0.0000604    -0.0007451    0.0000019 
   0.166191546     0.6743833   -0.6449196     0.0000191    0.0003621    -0.0002170   -0.0001266    -0.0003978   -0.0003501 
   0.166291571     0.6683417   -0.6438417     0.0001039    0.0003473    -0.0002468   -0.0000626    -0.0005222   -0.0002715 
   0.166391596     0.6800699   -0.6487077     0.0006166    0.0005457    -0.0001533   -0.0002865    -0.0002913   -0.0001108 
   0.166491621     0.6700233   -0.6504983    -0.0000595   -0.0002188     0.0001506    0.0002022    -0.0000527   -0.0003713 
   0.166591646     0.6678197   -0.6483799    -0.0005111   -0.0000399    -0.0001425   -0.0000277    -0.0003601   -0.0001730 
   0.166691671     0.6747457   -0.6518207     0.0000353    0.0001127    -0.0000198   -0.0001543    -0.0000651   -0.0000786 
   0.166791696     0.6735732   -0.6460840     0.0003385   -0.0001221     0.0002884   -0.0001406     0.0000459   -0.0000122 
   0.166891721     0.6692524   -0.6527911    -0.0002030   -0.0003707     0.0001658    0.0001569    -0.0002766    0.0000363 
   0.166991746     0.6662595   -0.6480777     0.0000203   -0.0000123     0.0001205   -0.0001812    -0.0003307   -0.0002919 
   0.167091771     0.6708393   -0.6501216    -0.0000048    0.0002743    -0.0000599   -0.0002523    -0.0001673   -0.0000859 
   0.167191796     0.6719071   -0.6482356     0.0000193    0.0001552     0.0001346   -0.0000227    -0.0002907    0.0002440 
   0.167291821     0.6699119   -0.6495468    -0.0001911    0.0001893     0.0001095   -0.0000349    -0.0001845    0.0000151 
   0.167391846     0.6643088   -0.6471422    -0.0000985   -0.0004452    -0.0001555    0.0002454    -0.0002416   -0.0001907 
   0.167491871     0.6642826   -0.6509157     0.0002662    0.0000741    -0.0001970   -0.0001062    -0.0005585   -0.0003224 
   0.167591896     0.6715273   -0.6505193     0.0002826    0.0000669     0.0000062   -0.0001669    -0.0004740   -0.0001297 
   0.167691921     0.6669063   -0.6502059    -0.0002083    0.0001017     0.0000267   -0.0001279    -0.0003418   -0.0003885 
   0.167791946     0.6693932   -0.6537060     0.0002677    0.0002240     0.0001280    0.0005028    -0.0001888   -0.0004846 
   0.167891971     0.6690169   -0.6569014     0.0001764    0.0002254    -0.0004551   -0.0000873    -0.0001792   -0.0006694 
   0.167991996     0.6661069   -0.6515099    -0.0000230    0.0000174     0.0001925    0.0000011     0.0000508    0.0000355 
   0.168092021     0.6691216   -0.6498874    -0.0000222   -0.0004745    -0.0000702    0.0001348     0.0001920    0.0001044 
   0.168192046     0.6695114   -0.6556815     0.0001118    0.0001536    -0.0000148   -0.0001992     0.0001561   -0.0002389 
   0.168292071     0.6673475   -0.6501951    -0.0000283   -0.0001954     0.0000034   -0.0001141    -0.0000959   -0.0007534 
   0.168392096     0.6603590   -0.6543605     0.0001748   -0.0001593    -0.0000261    0.0002228    -0.0004326   -0.0005026 
   0.168492121     0.6671566   -0.6540034     0.0000791   -0.0003055    -0.0001455    0.0000240     0.0002782   -0.0004943 
   0.168592146     0.6594893   -0.6557181    -0.0001003    0.0001585     0.0000290    0.0000194     0.0001749   -0.0007432 
   0.168692171     0.6651546   -0.6538913     0.0002345   -0.0001908     0.0000695    0.0001122    -0.0003280    0.0000932 
   0.168792196     0.6562209   -0.6518930    -0.0002361   -0.0003836     0.0000714   -0.0002163    -0.0002000   -0.0002836 
   0.168892221     0.6585550   -0.6520444     0.0003361   -0.0000851     0.0001806   -0.0000798     0.0001374   -0.0001614 
   0.168992246     0.6647710   -0.6571403     0.0001704   -0.0000641    -0.0003813    0.0000758    -0.0003657   -0.0001279 
   0.169092271     0.6630217   -0.6580658     0.0002038    0.0000303     0.0000117    0.0000082    -0.0000563   -0.0000862 
   0.169192296     0.6584418   -0.6528552    -0.0001575   -0.0000352    -0.0000856   -0.0000055    -0.0007543    0.0000896 
   0.169292321     0.6531695   -0.6523640    -0.0002679   -0.0005231     0.0000581   -0.0004446     0.0000013   -0.0001916 
   0.169392346     0.6573111   -0.6572306     0.0001937   -0.0002044     0.0000025   -0.0000930    -0.0000686    0.0000127 
   0.169492371     0.6606473   -0.6559405    -0.0000898   -0.0001978     0.0000528    0.0000479     0.0001586   -0.0002148 
   0.169592396     0.6631963   -0.6593125     0.0002716   -0.0003746    -0.0001211    0.0001821    -0.0001645   -0.0004148 
   0.169692421     0.6590796   -0.6542842     0.0004138   -0.0000823     0.0002553    0.0002636    -0.0002157   -0.0007276 
   0.169792446     0.6610892   -0.6646402    -0.0000147   -0.0001277     0.0001245    0.0001527    -0.0005340   -0.0001685 
   0.169892471     0.6561376   -0.6617798     0.0000027    0.0003256     0.0001047    0.0001399    -0.0004099    0.0000552 
   0.169992496     0.6644140   -0.6607185    -0.0002745    0.0004047    -0.0000435    0.0003489     0.0003277   -0.0000925 
   0.170092521     0.6638944   -0.6544037    -0.0003597   -0.0000021     0.0001628    0.0000253    -0.0006769   -0.0003263 
   0.170192546     0.6604978   -0.6603715     0.0000602    0.0002685    -0.0001501    0.0000740    -0.0001104   -0.0004309 
   0.170292571     0.6539094   -0.6605355    -0.0001254    0.0002021     0.0001460    0.0000680    -0.0001832   -0.0002430 
   0.170392596     0.6597817   -0.6616884     0.0000016    0.0002717     0.0001482    0.0000250     0.0002701   -0.0000137 
   0.170492621     0.6627501   -0.6602655    -0.0000425   -0.0003432     0.0001752   -0.0001868    -0.0005849    0.0002382 
   0.170592646     0.6558059   -0.6594658     0.0001174    0.0000018    -0.0002355    0.0000066    -0.0005087   -0.0002326 
   0.170692671     0.6611191   -0.6564103    -0.0004030   -0.0002988    -0.0001179   -0.0001363    -0.0002335   -0.0000719 
   0.170792696     0.6540313   -0.6583784     0.0000738    0.0004554     0.0002836   -0.0000469    -0.0001622   -0.0000475 
   0.170892721     0.6563983   -0.6654123     0.0002750    0.0001193     0.0001182    0.0000697    -0.0000859   -0.0005787 
   0.170992746     0.6548070   -0.6603522     0.0003174    0.0002257    -0.0000537   -0.0000962    -0.0005945   -0.0002144 
   0.171092771     0.6570284   -0.6606075     0.0001221   -0.0005898    -0.0001083    0.0000178    -0.0004116   -0.0003659 
   0.171192796     0.6513938   -0.6639427     0.0001343   -0.0002708    -0.0000262   -0.0000078    -0.0003189   -0.0001700 
   0.171292821     0.6576752   -0.6595663    -0.0001469   -0.0000827    -0.0001509    0.0000395    -0.0000292   -0.0002487 
   0.171392846     0.6523179   -0.6600718    -0.0002649   -0.0000932    -0.0004918   -0.0002474     0.0000183    0.0000595 
   0.171492871     0.6556161   -0.6615455     0.0002501   -0.0003671    -0.0002044   -0.0000331     0.0001558   -0.0000489 
   0.171592896     0.6537798   -0.6656344    -0.0002010    0.0002555    -0.0000023   -0.0001338    -0.0003348   -0.0001763 
   0.171692921     0.6535717   -0.6610972    -0.0000980    0.0000148     0.0003201    0.0001172     0.0003714   -0.0003388 
   0.171792946     0.6553392   -0.6644028    -0.0000814   -0.0000344     0.0002065    0.0000271    -0.0006237   -0.0002121 
   0.171892971     0.6548377   -0.6624349    -0.0001191   -0.0000027     0.0000622    0.0001010    -0.0003813   -0.0003210 
   0.171992996     0.6553612   -0.6626610     0.0002313   -0.0000600     0.0001991   -0.0001583    -0.0000691   -0.0006785 
   0.172093022     0.6551049   -0.6667820     0.0003590   -0.0000335    -0.0002374   -0.0001946    -0.0002567    0.0000440 
   0.172193047     0.6561686   -0.6687697     0.0000345   -0.0000625     0.0000078   -0.0002015     0.0001578   -0.0004788 
   0.172293072     0.6501310   -0.6625167    -0.0001427    0.0002756     0.0000538   -0.0000996    -0.0002058   -0.0000898 
   0.172393097     0.6525344   -0.6643788    -0.0002051   -0.0000865     0.0000615   -0.0003236    -0.0002312   -0.0007944 
   0.172493122     0.6502739   -0.6713541     0.0002490    0.0002087     0.0000326    0.0001785    -0.0001157   -0.0002390 
   0.172593147     0.6531819   -0.6657826    -0.0000165   -0.0002346     0.0004272   -0.0000121     0.0000141   -0.0002769 
   0.172693172     0.6547369   -0.6645288     0.0002009    0.0001358    -0.0001232   -0.0002858    -0.0004431    0.0002384 
   0.172793197     0.6538518   -0.6695402    -0.0000620    0.0001593    -0.0000794    0.0002078    -0.0001057   -0.0002399 
   0.172893222     0.6460374   -0.6683168     0.0004134    0.0001536    -0.0000921   -0.0000183     0.0001083   -0.0001033 
   0.172993247     0.6514170   -0.6678336     0.0000875   -0.0001598    -0.0000598    0.0004354    -0.0000179   -0.0005823 
   0.173093272     0.6506287   -0.6688796     0.0004255    0.0004873     0.0002599    0.0000602     0.0001552   -0.0001795 
   0.173193297     0.6503248   -0.6732078    -0.0003475    0.0000739    -0.0000133    0.0000657    -0.0000382   -0.0003432 
   0.173293322     0.6512860   -0.6668724    -0.0001105    0.0001854     0.0000871    0.0000994     0.0000595   -0.0001683 
   0.173393347     0.6510917   -0.6713554     0.0003339   -0.0002445     0.0000896    0.0001099     0.0002872    0.0000061 
   0.173493372     0.6502045   -0.6646558    -0.0002049   -0.0001771     0.0001776   -0.0001286     0.0000218   -0.0002572 
   0.173593397     0.6522409   -0.6701304    -0.0001555   -0.0000720     0.0001205    0.0001920    -0.0002671   -0.0001867 
   0.173693422     0.6489368   -0.6705796    -0.0002059    0.0001560    -0.0002076    0.0000654    -0.0000263   -0.0000732 
   0.173793447     0.6536476   -0.6611416     0.0000852    0.0002601     0.0001553    0.0000113     0.0002972   -0.0003862 
   0.173893472     0.6477698   -0.6709694    -0.0000996    0.0001992    -0.0000546   -0.0000724     0.0000964   -0.0006195 
   0.173993497     0.6501181   -0.6648592     0.0001250   -0.0001569    -0.0002380    0.0000363     0.0003154   -0.0004142 
   0.174093522     0.6472681   -0.6727140     0.0001556    0.0000408    -0.0002858    0.0000041    -0.0002776   -0.0005064 
   0.174193547     0.6442658   -0.6707278     0.0001291    0.0001777    -0.0001203    0.0002623    -0.0001040   -0.0001499 
   0.174293572     0.6432502   -0.6745953    -0.0004169    0.0001852     0.0001669   -0.0001907     0.0001269   -0.0000676 
   0.174393597     0.6458908   -0.6716908     0.0002487   -0.0000189     0.0000796    0.0002340    -0.0000523   -0.0001893 
   0.174493622     0.6470688   -0.6763084     0.0000043    0.0000673    -0.0000944   -0.0000822    -0.0003739   -0.0002773 
   0.174593647     0.6514598   -0.6711276     0.0003549    0.0002806     0.0002217   -0.0000026     0.0001808   -0.0006813 
   0.174693672     0.6483786   -0.6709808     0.0000351    0.0001032     0.0000964   -0.0000968    -0.0008340   -0.0001289 
   0.174793697     0.6405277   -0.6740187    -0.0000390   -0.0001005    -0.0000444    0.0001064    -0.0000499   -0.0005881 
   0.174893722     0.6461961   -0.6636927     0.0001615    0.0000857     0.0000833    0.0000758     0.0002505   -0.0004925 
   0.174993747     0.6393771   -0.6725029    -0.0001743    0.0000661     0.0000335   -0.0000666     0.0003226   -0.0000343 
   0.175093772     0.6418753   -0.6757633    -0.0001667    0.0002778     0.0000231   -0.0000565    -0.0000655   -0.0007721 
   0.175193797     0.6428626   -0.6679068     0.0000427    0.0001762     0.0000947    0.0000580    -0.0002017   -0.0000248 
   0.175293822     0.6419868   -0.6772767     0.0002945    0.0001539    -0.0000683   -0.0001817    -0.0002968   -0.0008617 
   0.175393847     0.6451176   -0.6714222    -0.0001701   -0.0000629    -0.0002777    0.0000005    -0.0001352   -0.0002325 
   0.175493872     0.6414449   -0.6728829     0.0002240   -0.0000119    -0.0003017   -0.0004202    -0.0005475   -0.0005029 
   0.175593897     0.6476159   -0.6706801    -0.0002851    0.0003531    -0.0000298    0.0001704    -0.0000398   -0.0001322 
   0.175693922     0.6439323   -0.6764876    -0.0002038   -0.0002123     0.0000959    0.0000668     0.0001467   -0.0006859 
   0.175793947     0.6427543   -0.6708301     0.0000936    0.0002190     0.0000631   -0.0000999    -0.0000989   -0.0001411 
   0.175893972     0.6376494   -0.6761851     0.0001485   -0.0000418    -0.0002644   -0.0000362     0.0001278   -0.0005299 
   0.175993997     0.6450425   -0.6806009     0.0000516   -0.0002196    -0.0000027   -0.0003127    -0.0002498   -0.0006703 
   0.176094022     0.6421705   -0.6783999    -0.0001384   -0.0002383    -0.0002597    0.0000231     0.0003049   -0.0000947 
   0.176194047     0.6413628   -0.6759275    -0.0000497    0.0003933    -0.0001839   -0.0000811     0.0000898   -0.0005998 
   0.176294072     0.6442873   -0.6764113    -0.0002157    0.0000204    -0.0001505    0.0000579    -0.0002647   -0.0000217 
   0.176394097     0.6396907   -0.6788834     0.0001208   -0.0001248    -0.0000257   -0.0000862    -0.0002469   -0.0007321 
   0.176494122     0.6416253   -0.6744735    -0.0001912    0.0003536     0.0000881   -0.0000811    -0.0001287   -0.0002678 
   0.176594147     0.6372215   -0.6755711     0.0001797   -0.0000245    -0.0000785    0.0000201     0.0001588   -0.0006741 
   0.176694172     0.6394994   -0.6764596     0.0003880   -0.0001316    -0.0000395   -0.0002360     0.0000958   -0.0002526 
   0.176794197     0.6410241   -0.6811311     0.0000005    0.0000116    -0.0000273    0.0000574    -0.0001877   -0.0005714 
   0.176894222     0.6422871   -0.6820546     0.0000347   -0.0001088    -0.0001845    0.0000986     0.0004166   -0.0003820 
   0.176994247     0.6406881   -0.6766871    -0.0000481   -0.0000963     0.0000759   -0.0001647     0.0003022   -0.0005001 
   0.177094272     0.6393399   -0.6773131    -0.0000658   -0.0000441     0.0002251   -0.0000139     0.0001181   -0.0005289 
   0.177194297     0.6406549   -0.6791453    -0.0002656   -0.0001890    -0.0001374   -0.0001708     0.0001462   -0.0005834 
   0.177294322     0.6346379   -0.6803424    -0.0001171    0.0003498     0.0000785   -0.0002448     0.0001280   -0.0004555 
   0.177394347     0.6347399   -0.6781678    -0.0004229   -0.0001483    -0.0000168   -0.0002008     0.0001307    0.0000019 
   0.177494372     0.6382588   -0.6821448    -0.0001710   -0.0001023     0.0001719    0.0000387     0.0003732   -0.0005518 
   0.177594397     0.6376260   -0.6804565    -0.0000670    0.0001642     0.0001034    0.0001698    -0.0002618   -0.0003721 
   0.177694422     0.6390911   -0.6795814    -0.0000477   -0.0002638    -0.0000075    0.0001065     0.0000034   -0.0006022 
   0.177794447     0.6337843   -0.6800258     0.0002500   -0.0000766    -0.0000192    0.0000004     0.0000168   -0.0002685 
   0.177894472     0.6341184   -0.6831521    -0.0001433   -0.0003435    -0.0000356   -0.0001892     0.0003267   -0.0005330 
   0.177994497     0.6329120   -0.6854436    -0.0000717    0.0001610    -0.0000360   -0.0001128     0.0003200   -0.0001780 
   0.178094522     0.6360080   -0.6780806     0.0000566    0.0000953    -0.0000391    0.0001649     0.0004534   -0.0002038 
   0.178194547     0.6355690   -0.6792726    -0.0001909    0.0002774     0.0000659   -0.0000521     0.0000749   -0.0004073 
   0.178294572     0.6380720   -0.6801239     0.0002369    0.0001545    -0.0001802    0.0001075     0.0000210   -0.0003848 
   0.178394597     0.6354028   -0.6817005    -0.0001912   -0.0001299    -0.0000172   -0.0001594    -0.0000906   -0.0001187 
   0.178494622     0.6305637   -0.6792414     0.0000006   -0.0000056     0.0000321    0.0001124    -0.0000334   -0.0005646 
   0.178594647     0.6365991   -0.6858534     0.0001914   -0.0003496     0.0001089   -0.0000910     0.0004779   -0.0002441 
   0.178694672     0.6339471   -0.6845745    -0.0004179    0.0003114    -0.0000253    0.0000352     0.0001493   -0.0003891 
   0.178794697     0.6322449   -0.6854931     0.0002048   -0.0000972     0.0001973    0.0000096     0.0002111   -0.0006150 
   0.178894722     0.6333822   -0.6843489     0.0002618   -0.0003279     0.0000794    0.0000652     0.0001786   -0.0000983 
   0.178994747     0.6325369   -0.6826319    -0.0001942   -0.0001315     0.0003491    0.0001447    -0.0001254   -0.0005697 
   0.179094772     0.6315093   -0.6790115     0.0000725    0.0001053    -0.0000909   -0.0000921     0.0003329   -0.0004798 
   0.179194797     0.6299955   -0.6839916     0.0000891   -0.0000250     0.0000122   -0.0000748    -0.0003056   -0.0003171 
   0.179294822     0.6322532   -0.6828663    -0.0002901    0.0000226     0.0001504   -0.0000012     0.0003204   -0.0002432 
   0.179394847     0.6275253   -0.6842318    -0.0001722   -0.0001197     0.0001271   -0.0000300    -0.0002875   -0.0004056 
   0.179494872     0.6323497   -0.6891378    -0.0001022    0.0003105    -0.0000577    0.0001787     0.0001144   -0.0004605 
   0.179594897     0.6324271   -0.6854156    -0.0002060   -0.0001778     0.0000007   -0.0001667     0.0003371   -0.0006250 
   0.179694922     0.6356850   -0.6829188     0.0004212    0.0000165     0.0000825   -0.0002264    -0.0001620    0.0000604 
   0.179794947     0.6295313   -0.6855108     0.0001306   -0.0001077     0.0000748    0.0000400     0.0002579   -0.0004284 
   0.179894972     0.6312874   -0.6869852    -0.0001950   -0.0001148    -0.0000476    0.0002327     0.0005071   -0.0005175 
   0.179994997     0.6276268   -0.6895640     0.0002262    0.0002331     0.0000156    0.0000837     0.0006391   -0.0003406 
   0.180095023     0.6313249   -0.6901097     0.0002305    0.0000416    -0.0000905   -0.0003800     0.0001476   -0.0003374 
   0.180195048     0.6306927   -0.6846300     0.0003228   -0.0001207    -0.0000269   -0.0001371     0.0000966   -0.0002228 
   0.180295073     0.6290375   -0.6878298    -0.0000016   -0.0001362    -0.0001879   -0.0000820     0.0004820   -0.0000388 
   0.180395098     0.6292496   -0.6859056    -0.0002403   -0.0002371     0.0001063   -0.0000075     0.0005003   -0.0006487 
   0.180495123     0.6278087   -0.6831766     0.0000590    0.0000313     0.0002788    0.0000604    -0.0000711   -0.0006220 
   0.180595148     0.6283348   -0.6922011    -0.0002502    0.0002835     0.0000931   -0.0001416    -0.0001783   -0.0005956 
   0.180695173     0.6277829   -0.6890149    -0.0001929    0.0001341     0.0002009   -0.0000029     0.0000969   -0.0007711 
   0.180795198     0.6281052   -0.6905938    -0.0002445   -0.0004875     0.0001402   -0.0001367    -0.0002000   -0.0007614 
   0.180895223     0.6258014   -0.6880628    -0.0001442   -0.0000653     0.0001555    0.0001238     0.0000336   -0.0002673 
   0.180995248     0.6288927   -0.6871212     0.0000404    0.0001405     0.0000184   -0.0000428    -0.0001925    0.0000904 
   0.181095273     0.6230232   -0.6886221     0.0000883   -0.0002442     0.0001182    0.0000003     0.0005018   -0.0010742 
   0.181195298     0.6239644   -0.6900762    -0.0001134   -0.0000319     0.0001537   -0.0000533     0.0002152   -0.0004189 
   0.181295323     0.6233906   -0.6954251    -0.0000358   -0.0001411    -0.0000921    0.0000679    -0.0000137   -0.0000238 
   0.181395348     0.6258172   -0.6928045    -0.0004134    0.0000217    -0.0002254    0.0001348     0.0001617   -0.0006145 
   0.181495373     0.6247734   -0.6914200     0.0001809    0.0000074     0.0000876    0.0000630     0.0006116   -0.0000715 
   0.181595398     0.6239761   -0.6910492     0.0002128   -0.0000381    -0.0000683   -0.0001916     0.0000656   -0.0007889 
   0.181695423     0.6236362   -0.6951627    -0.0001034   -0.0001158     0.0000469    0.0000810     0.0001755   -0.0003752 
   0.181795448     0.6224535   -0.6927449    -0.0000213    0.0000069    -0.0004058    0.0000416    -0.0000148   -0.0004093 
   0.181895473     0.6248400   -0.6894081     0.0002252   -0.0000641    -0.0001050   -0.0001820     0.0001250   -0.0005645 
   0.181995498     0.6202274   -0.6932005    -0.0000620    0.0000320     0.0001810    0.0001636     0.0001253   -0.0000977 
   0.182095523     0.6220431   -0.6939964     0.0000036    0.0001594     0.0000520   -0.0000922     0.0008139   -0.0000391 
   0.182195548     0.6201295   -0.6927599     0.0000954    0.0001395    -0.0002286   -0.0000682    -0.0000010   -0.0001745 
   0.182295573     0.6215892   -0.6969498    -0.0002032    0.0000529    -0.0001336   -0.0000438     0.0001873   -0.0004706 
   0.182395598     0.6236129   -0.6939497    -0.0000593   -0.0000683    -0.0000618   -0.0000789     0.0004688   -0.0007588 
   0.182495623     0.6198609   -0.6936359    -0.0001277   -0.0000376     0.0001878   -0.0000635    -0.0000752   -0.0005012 
   0.182595648     0.6186823   -0.6920672    -0.0001844    0.0001774     0.0002914    0.0000961     0.0002924   -0.0004771 
   0.182695673     0.6205058   -0.6984137     0.0000513   -0.0003430    -0.0000119    0.0000918    -0.0001706   -0.0001667 
   0.182795698     0.6219296   -0.6987334     0.0000722   -0.0000286    -0.0000853   -0.0002024     0.0003648   -0.0004681 
   0.182895723     0.6204337   -0.6957191     0.0001021   -0.0001543     0.0001836    0.0000751     0.0004794   -0.0005508 
   0.182995748     0.6212302   -0.6958265    -0.0002475   -0.0000593    -0.0001030   -0.0000623     0.0004589   -0.0008577 
   0.183095773     0.6215637   -0.6942207    -0.0000284   -0.0000307    -0.0000138    0.0001015    -0.0002449   -0.0004445 
   0.183195798     0.6171723   -0.6952562     0.0001881   -0.0002866     0.0000025    0.0001677     0.0005642   -0.0003711 
   0.183295823     0.6170322   -0.6928402    -0.0000760   -0.0000228    -0.0000237   -0.0000044     0.0000209   -0.0009219 
   0.183395848     0.6236757   -0.6918050    -0.0000497    0.0002977     0.0001125    0.0003070     0.0001879   -0.0004116 
   0.183495873     0.6203435   -0.6978726    -0.0004162    0.0001637    -0.0002412   -0.0000116    -0.0000458   -0.0004567 
   0.183595898     0.6144578   -0.6976896     0.0001159    0.0000593     0.0001520    0.0000833     0.0001356   -0.0006159 
   0.183695923     0.6181845   -0.6986824     0.0000250   -0.0002666    -0.0001400    0.0000001    -0.0001097   -0.0002451 
   0.183795948     0.6147310   -0.6992307     0.0001700    0.0001769     0.0000765   -0.0001912     0.0000706   -0.0002224 
   0.183895973     0.6154854   -0.6943734     0.0001413    0.0000812    -0.0001043   -0.0000317     0.0003419   -0.0006420 
   0.183995998     0.6125078   -0.7044997    -0.0001978    0.0000617     0.0001427    0.0000214     0.0001539   -0.0003889 
   0.184096023     0.6194236   -0.6970820    -0.0000969    0.0000513     0.0000360   -0.0000675     0.0002858   -0.0006474 
   0.184196048     0.6163756   -0.6991199     0.0000942    0.0000180    -0.0000446    0.0000297     0.0001464   -0.0001659 
   0.184296073     0.6157696   -0.7011058     0.0000135    0.0001541     0.0000322    0.0000366     0.0002203   -0.0003819 
   0.184396098     0.6144230   -0.6998205     0.0002260    0.0000567     0.0001256    0.0000178     0.0002585   -0.0003810 
   0.184496123     0.6162132   -0.7010449     0.0000506   -0.0000792    -0.0000882   -0.0002253     0.0002798   -0.0007801 
   0.184596148     0.6154309   -0.6996521     0.0002639   -0.0001021     0.0000219    0.0001247     0.0001059   -0.0007198 
   0.184696173     0.6143605   -0.6999740    -0.0003068   -0.0000588     0.0000120    0.0002253    -0.0001780   -0.0001699 
   0.184796198     0.6137823   -0.7001237     0.0001836    0.0001728     0.0000296    0.0001411     0.0008288   -0.0004396 
   0.184896223     0.6173084   -0.7049674     0.0000871    0.0000830    -0.0001072    0.0000143     0.0003776   -0.0004660 
   0.184996248     0.6137169   -0.7048848     0.0000255   -0.0000564     0.0000650    0.0000615     0.0002341   -0.0003758 
   0.185096273     0.6076690   -0.6990971    -0.0000545    0.0000959     0.0001434    0.0000181     0.0004523   -0.0001231 
   0.185196298     0.6117907   -0.7040581     0.0001365    0.0001263     0.0000640    0.0000863     0.0005598   -0.0005137 
   0.185296323     0.6125262   -0.7036471     0.0000955    0.0000844     0.0000157    0.0000546     0.0006302    0.0000877 
   0.185396348     0.6138512   -0.7008237    -0.0000308   -0.0001550    -0.0001407    0.0000185    -0.0000505   -0.0001064 
   0.185496373     0.6103912   -0.7019800    -0.0000222   -0.0001758    -0.0002844   -0.0000202     0.0001091   -0.0003495 
   0.185596398     0.6091755   -0.7004848     0.0000769    0.0000223     0.0000862   -0.0000978     0.0003591   -0.0001818 
   0.185696423     0.6108926   -0.7003845    -0.0002449   -0.0000423     0.0002615   -0.0001356     0.0002083   -0.0003787 
   0.185796448     0.6088380   -0.7041210    -0.0000858   -0.0000507    -0.0001575   -0.0000444    -0.0000453    0.0000523 
   0.185896473     0.6087041   -0.7010502    -0.0000649    0.0002424    -0.0000335   -0.0000314     0.0003463   -0.0005417 
   0.185996498     0.6118132   -0.7036518    -0.0000931   -0.0000764     0.0001212   -0.0000045     0.0003501   -0.0007468 
   0.186096523     0.6114332   -0.7042496     0.0001850    0.0001518     0.0000775    0.0000399     0.0003676   -0.0004842 
   0.186196548     0.6037201   -0.7039756    -0.0003196    0.0000743     0.0000814   -0.0002166     0.0001330   -0.0002996 
   0.186296573     0.6114894   -0.7050421    -0.0000759    0.0001792    -0.0001894    0.0000551     0.0006272    0.0001697 
   0.186396598     0.6097933   -0.7101412     0.0000681   -0.0000509    -0.0001069   -0.0000010     0.0002785   -0.0004762 
   0.186496623     0.6088279   -0.7047666     0.0001380   -0.0001396    -0.0000686   -0.0000837     0.0002794   -0.0002862 
   0.186596648     0.6045185   -0.7072090     0.0001007    0.0001591    -0.0000221   -0.0000198     0.0001987   -0.0004442 
   0.186696673     0.6057344   -0.7073585    -0.0001869   -0.0000225     0.0000011    0.0001129     0.0004217    0.0000003 
   0.186796698     0.6084692   -0.7082715     0.0000144   -0.0002308     0.0000462    0.0002327     0.0002798   -0.0006184 
   0.186896723     0.6092218   -0.7088208    -0.0002148    0.0000593    -0.0000408    0.0001458     0.0005251   -0.0002827 
   0.186996748     0.6070156   -0.7060990     0.0001886   -0.0001473     0.0001670   -0.0000233     0.0004142   -0.0003630 
   0.187096773     0.6049711   -0.7082943     0.0000616   -0.0002046     0.0000400    0.0000803     0.0001026   -0.0003310 
   0.187196798     0.6008974   -0.7076836     0.0001049   -0.0001135    -0.0000350    0.0000268     0.0004042   -0.0004451 
   0.187296823     0.6047626   -0.7074869     0.0001519   -0.0000183    -0.0002061   -0.0000750    -0.0000003   -0.0007556 
   0.187396848     0.6061401   -0.7070667     0.0000106    0.0001674     0.0000916   -0.0000252     0.0005081   -0.0008935 
   0.187496873     0.6054717   -0.7119262    -0.0001074    0.0001945     0.0000485   -0.0000768     0.0005530   -0.0002012 
   0.187596898     0.6053906   -0.7109768    -0.0001310    0.0001943    -0.0000108   -0.0000674     0.0002097   -0.0002346 
   0.187696923     0.6054658   -0.7102965    -0.0000551   -0.0000367     0.0001343   -0.0000250     0.0002971   -0.0001473 
   0.187796948     0.6027219   -0.7093621    -0.0000332    0.0000397    -0.0001045    0.0000521     0.0002420   -0.0005476 
   0.187896973     0.6047069   -0.7061148    -0.0002923   -0.0000090     0.0000814   -0.0000528     0.0002532   -0.0005478 
   0.187996998     0.6033664   -0.7108245     0.0001167   -0.0000207    -0.0000453   -0.0000237     0.0007204    0.0000647 
   0.188097024     0.6005270   -0.7100640     0.0000479    0.0001264     0.0000318    0.0000256     0.0004121   -0.0007837 
   0.188197049     0.6037194   -0.7093233    -0.0000678    0.0001337     0.0000139   -0.0000232     0.0002521   -0.0004137 
   0.188297074     0.6023890   -0.7103041    -0.0000449    0.0000568     0.0000767    0.0000377     0.0004062   -0.0000828 
   0.188397099     0.6026689   -0.7116351     0.0002005   -0.0000015     0.0002761    0.0002275     0.0001878    0.0002592 
   0.188497124     0.6018828   -0.7110734     0.0000268   -0.0001870     0.0000754   -0.0002157     0.0003731   -0.0006662 
   0.188597149     0.6051472   -0.7096537     0.0000872    0.0000216    -0.0001143   -0.0000163     0.0004927   -0.0007603 
   0.188697174     0.6013561   -0.7118841     0.0000545   -0.0001047     0.0000685    0.0000159     0.0007850   -0.0006114 
   0.188797199     0.6040057   -0.7137024     0.0001657    0.0000153     0.0000810    0.0000874     0.0001772   -0.0001226 
   0.188897224     0.6016703   -0.7127691     0.0000096    0.0001064     0.0000139   -0.0000383     0.0000604   -0.0001801 
   0.188997249     0.6040435   -0.7145858     0.0000280   -0.0000568     0.0000971    0.0000751     0.0003008   -0.0009358 
   0.189097274     0.6007096   -0.7167783     0.0000756    0.0001201     0.0001100   -0.0000758     0.0000052    0.0001076 
   0.189197299     0.6009728   -0.7174487     0.0000745   -0.0000644     0.0000689    0.0001318     0.0002870   -0.0005986 
   0.189297324     0.5985615   -0.7105399    -0.0001425   -0.0000638    -0.0001254    0.0000115     0.0005956    0.0001226 
   0.189397349     0.5985239   -0.7135910     0.0001279    0.0000071    -0.0001317   -0.0000210     0.0001004   -0.0000726 
   0.189497374     0.5970336   -0.7140429    -0.0000771    0.0000714     0.0000079   -0.0000380     0.0006073   -0.0006335 
   0.189597399     0.5994375   -0.7142726    -0.0000312    0.0000791     0.0000503    0.0000646    -0.0000836   -0.0000843 
   0.189697424     0.5971847   -0.7157734    -0.0000123    0.0000843     0.0001035    0.0000642     0.0003878   -0.0002835 
   0.189797449     0.6032662   -0.7138869    -0.0001302   -0.0001291    -0.0001724    0.0001180     0.0006462   -0.0010211 
   0.189897474     0.5954233   -0.7205474    -0.0000703    0.0000971     0.0002216   -0.0000761     0.0005265   -0.0004106 
   0.189997499     0.5984225   -0.7140582    -0.0000765    0.0000693     0.0001146   -0.0000256     0.0006791   -0.0004899 
   0.190097524     0.5946196   -0.7172925     0.0000252   -0.0001316    -0.0001781    0.0001086     0.0004180   -0.0002693 
   0.190197549     0.5943168   -0.7181081     0.0000253    0.0002475     0.0000683    0.0000202     0.0005502   -0.0003085 
   0.190297574     0.5969943   -0.7177624     0.0001744    0.0000661     0.0000163    0.0001049     0.0003099   -0.0002806 
   0.190397599     0.5974953   -0.7161828     0.0000436   -0.0001600     0.0000460    0.0000317     0.0003955   -0.0005181 
   0.190497624     0.5914456   -0.7203333    -0.0000133    0.0000214     0.0001491   -0.0000295     0.0001873    0.0001466 
   0.190597649     0.5975587   -0.7173466    -0.0000155    0.0001508     0.0001232    0.0000901     0.0004611   -0.0007110 
   0.190697674     0.5968126   -0.7170715     0.0001801    0.0003065     0.0000547    0.0001040     0.0005343   -0.0005884 
   0.190797699     0.5938240   -0.7137127     0.0000916    0.0000405     0.0001068   -0.0001120     0.0000045   -0.0008220 
   0.190897724     0.5921021   -0.7145875    -0.0001436    0.0000174     0.0000528   -0.0001305     0.0005323   -0.0002733 
   0.190997749     0.5944674   -0.7190141    -0.0001115    0.0000710    -0.0000701   -0.0000721     0.0005992   -0.0002987 
   0.191097774     0.5927572   -0.7239193    -0.0000138    0.0000020    -0.0000154    0.0000838     0.0001146   -0.0003046 
   0.191197799     0.5958906   -0.7193255    -0.0001214   -0.0001148    -0.0000094   -0.0000877     0.0007924   -0.0003486 
   0.191297824     0.5908676   -0.7218106     0.0000246   -0.0000615    -0.0000237    0.0000845     0.0001033   -0.0003114 
   0.191397849     0.5914143   -0.7192079     0.0000377    0.0001263     0.0000095    0.0000165     0.0006431    0.0002800 
   0.191497874     0.5909247   -0.7211502     0.0000433   -0.0000675     0.0001411   -0.0000447     0.0004770   -0.0000900 
   0.191597899     0.5912145   -0.7220109     0.0000532    0.0000106    -0.0000342    0.0000070     0.0006501   -0.0003135 
   0.191697924     0.5944670   -0.7233061     0.0000973    0.0000015    -0.0000976    0.0000899     0.0006755   -0.0005919 
   0.191797949     0.5910484   -0.7201777    -0.0001229   -0.0000706     0.0001011   -0.0000051     0.0006865   -0.0003938 
   0.191897974     0.5928041   -0.7250425    -0.0000377   -0.0000203     0.0000089    0.0000139     0.0007065   -0.0006804 
   0.191997999     0.5866180   -0.7222630    -0.0000025   -0.0000800     0.0000149   -0.0001898     0.0000600   -0.0002606 
   0.192098024     0.5915560   -0.7237190     0.0000351    0.0000185     0.0001180    0.0000791     0.0004381   -0.0002520 
   0.192198049     0.5897353   -0.7216610    -0.0000021   -0.0000784     0.0000299    0.0000863     0.0004277   -0.0003148 
   0.192298074     0.5890458   -0.7211358     0.0000412   -0.0000775     0.0000287   -0.0001062     0.0002504   -0.0005559 
   0.192398099     0.5890592   -0.7228579    -0.0000055    0.0000092     0.0001245   -0.0000555     0.0004601   -0.0003889 
   0.192498124     0.5890846   -0.7190784     0.0001169    0.0000234     0.0000626   -0.0000696     0.0003877   -0.0001161 
   0.192598149     0.5855274   -0.7247698    -0.0001452    0.0000390     0.0000370   -0.0000200     0.0009739   -0.0007042 
   0.192698174     0.5886772   -0.7215347    -0.0001873   -0.0000203     0.0000058   -0.0000878     0.0002806   -0.0001835 
   0.192798199     0.5869652   -0.7226133    -0.0001084   -0.0000897     0.0000094    0.0000784     0.0003308   -0.0003591 
   0.192898224     0.5885769   -0.7265981     0.0000657   -0.0000990     0.0000625    0.0000027     0.0005846   -0.0000826 
   0.192998249     0.5865490   -0.7272902    -0.0000223   -0.0000842     0.0000461   -0.0000073     0.0002324   -0.0007706 
   0.193098274     0.5857530   -0.7285361    -0.0000510   -0.0000052     0.0000434    0.0000210     0.0001512   -0.0005810 
   0.193198299     0.5878718   -0.7285146    -0.0001370   -0.0000289    -0.0000062   -0.0000657     0.0001589   -0.0006660 
   0.193298324     0.5849270   -0.7247158    -0.0000812   -0.0000292    -0.0000804    0.0001308     0.0003254   -0.0004759 
   0.193398349     0.5845972   -0.7289994     0.0000865    0.0001504    -0.0000844   -0.0001421     0.0004362   -0.0002990 
   0.193498374     0.5913138   -0.7251618     0.0000072    0.0000891     0.0000148    0.0000742     0.0005073   -0.0004845 
   0.193598399     0.5866999   -0.7289290    -0.0000810    0.0000422    -0.0000173    0.0000055     0.0004519   -0.0005187 
   0.193698424     0.5839193   -0.7235634     0.0000044    0.0000544    -0.0000071   -0.0000900     0.0004396   -0.0002084 
   0.193798449     0.5860245   -0.7278737    -0.0001902    0.0000205     0.0000128    0.0001206     0.0003887   -0.0010852 
   0.193898474     0.5835636   -0.7289787    -0.0000271    0.0000555    -0.0000860    0.0000441     0.0006377   -0.0002410 
   0.193998499     0.5813935   -0.7287598    -0.0000222    0.0001745     0.0000243    0.0000160     0.0002258   -0.0004578 
   0.194098524     0.5858301   -0.7297782     0.0001734    0.0000299     0.0000224   -0.0000688     0.0004884   -0.0003432 
   0.194198549     0.5858802   -0.7286392     0.0000276    0.0001068    -0.0001023    0.0000093     0.0010006   -0.0004190 
   0.194298574     0.5846260   -0.7255577    -0.0000576   -0.0000825    -0.0000205   -0.0000442     0.0004828   -0.0002957 
   0.194398599     0.5827467   -0.7292456     0.0000000    0.0000122     0.0000218    0.0000212     0.0006083   -0.0002329 
   0.194498624     0.5801197   -0.7262951    -0.0000635   -0.0000373     0.0001756   -0.0000370     0.0006652   -0.0002421 
   0.194598649     0.5788502   -0.7292965    -0.0000831   -0.0000464    -0.0000453    0.0000440     0.0004996   -0.0008091 
   0.194698674     0.5833812   -0.7306623     0.0000492    0.0001066     0.0000026   -0.0000142     0.0006722   -0.0000337 
   0.194798699     0.5828781   -0.7275715    -0.0001153    0.0000777     0.0000442   -0.0000309     0.0001969   -0.0003698 
   0.194898724     0.5817969   -0.7309977    -0.0000726    0.0000129    -0.0001389   -0.0000760     0.0005759   -0.0005057 
   0.194998749     0.5818164   -0.7315339    -0.0001934    0.0000106     0.0000163    0.0001432     0.0008724   -0.0001778 
   0.195098774     0.5794715   -0.7309277    -0.0000385    0.0000947    -0.0000246   -0.0000599     0.0008092   -0.0002671 
   0.195198799     0.5819923   -0.7310175     0.0000257    0.0000233     0.0000154    0.0000255     0.0011072   -0.0004710 
   0.195298824     0.5763592   -0.7330805    -0.0000176   -0.0000475    -0.0000505    0.0000232     0.0010380   -0.0000957 
   0.195398849     0.5792564   -0.7300460    -0.0001190   -0.0000341     0.0000416   -0.0000522     0.0003870   -0.0004868 
   0.195498874     0.5787208   -0.7332909    -0.0001334    0.0001317    -0.0001012   -0.0000166     0.0006758   -0.0002191 
   0.195598899     0.5776285   -0.7289482    -0.0000349    0.0001911     0.0000078    0.0000204     0.0008878   -0.0005348 
   0.195698924     0.5747200   -0.7340044     0.0000634    0.0000360     0.0001365   -0.0000490     0.0005420   -0.0006552 
   0.195798949     0.5788748   -0.7322826    -0.0001948   -0.0000403    -0.0000458    0.0000175     0.0007664   -0.0003031 
   0.195898974     0.5761521   -0.7322077    -0.0002288    0.0000368    -0.0000424   -0.0000472     0.0001446    0.0000129 
   0.195998999     0.5771614   -0.7275603    -0.0000728    0.0000330    -0.0000026   -0.0001650     0.0006449   -0.0000670 
   0.196099025     0.5763273   -0.7314343    -0.0000709    0.0000793     0.0000524   -0.0000830     0.0005706   -0.0002113 
   0.196199050     0.5763215   -0.7329439    -0.0000121   -0.0000315    -0.0000252    0.0000053     0.0000808   -0.0005628 
   0.196299075     0.5764887   -0.7302568     0.0000963    0.0000638    -0.0000575    0.0000111     0.0007649   -0.0005637 
   0.196399100     0.5745164   -0.7329919     0.0000237    0.0000023     0.0000110   -0.0000251     0.0010052    0.0000181 
   0.196499125     0.5762833   -0.7303450     0.0001146    0.0000035     0.0000268   -0.0000266     0.0007858   -0.0001123 
   0.196599150     0.5739018   -0.7325563     0.0000110   -0.0000686     0.0001293   -0.0001244     0.0005373   -0.0004038 
   0.196699175     0.5765296   -0.7312754    -0.0001852   -0.0000942     0.0000030   -0.0000010     0.0002064   -0.0003986 
   0.196799200     0.5745679   -0.7302437    -0.0000971   -0.0000274     0.0000021   -0.0000216     0.0007746   -0.0003586 
   0.196899225     0.5734575   -0.7324606    -0.0001038    0.0001355    -0.0000163    0.0000010     0.0006429   -0.0001506 
   0.196999250     0.5721193   -0.7357047     0.0000542    0.0001059    -0.0000694    0.0000322     0.0006108   -0.0004995 
   0.197099275     0.5753202   -0.7315634     0.0000549   -0.0001020    -0.0000396    0.0000006     0.0006748   -0.0007530 
   0.197199300     0.5738508   -0.7341214    -0.0000965    0.0001113    -0.0000521    0.0000377     0.0007742   -0.0004756 
   0.197299325     0.5715706   -0.7339510     0.0000294   -0.0000827     0.0001028   -0.0000797     0.0009704   -0.0002219 
   0.197399350     0.5699179   -0.7347571     0.0000089   -0.0000215     0.0000404    0.0000797     0.0006324   -0.0003423 
   0.197499375     0.5743313   -0.7339857    -0.0000162    0.0000139     0.0000450    0.0000719     0.0006095   -0.0003266 
   0.197599400     0.5711635   -0.7355884     0.0001391   -0.0000402    -0.0000544   -0.0000113     0.0010162   -0.0005561 
   0.197699425     0.5704127   -0.7350135     0.0000489   -0.0000251     0.0000421   -0.0000593     0.0009194   -0.0000582 
   0.197799450     0.5710500   -0.7332654    -0.0000807    0.0002618     0.0000373    0.0000496     0.0006131   -0.0001530 
   0.197899475     0.5700201   -0.7367887    -0.0001723   -0.0000215     0.0000400   -0.0000084     0.0004305   -0.0003211 
   0.197999500     0.5713511   -0.7350377    -0.0001052   -0.0000858    -0.0000081   -0.0000768     0.0004046   -0.0002161 
   0.198099525     0.5695287   -0.7383573    -0.0000371   -0.0000319     0.0000657    0.0000452     0.0008896   -0.0002831 
   0.198199550     0.5691836   -0.7367987    -0.0000586    0.0000374     0.0000434   -0.0000373     0.0009085   -0.0002206 
   0.198299575     0.5715283   -0.7367893    -0.0001265   -0.0000109    -0.0000574   -0.0000050     0.0005371    0.0001900 
   0.198399600     0.5685875   -0.7371278     0.0000584   -0.0001104    -0.0000027    0.0000187     0.0005319   -0.0002968 
   0.198499625     0.5682511   -0.7404853     0.0000355   -0.0000263    -0.0000350    0.0000222     0.0003181   -0.0001459 
   0.198599650     0.5678983   -0.7356142     0.0001602    0.0000324    -0.0000864   -0.0000198     0.0008779   -0.0005122 
   0.198699675     0.5679743   -0.7359387     0.0000522    0.0001646    -0.0000176   -0.0000670     0.0005446   -0.0003945 
   0.198799700     0.5684193   -0.7396043    -0.0001057   -0.0001431    -0.0000348   -0.0000197     0.0004254   -0.0005321 
   0.198899725     0.5657293   -0.7392003    -0.0000772    0.0000035    -0.0000043    0.0000743     0.0006113   -0.0003764 
   0.198999750     0.5664017   -0.7407161    -0.0000423    0.0000766    -0.0000106    0.0000473     0.0009926   -0.0004213 
   0.199099775     0.5668719   -0.7381941    -0.0000414    0.0000279    -0.0000864   -0.0000417     0.0004092   -0.0003631 
   0.199199800     0.5662338   -0.7387652     0.0000330    0.0000743     0.0001139    0.0000462     0.0007850   -0.0005938 
   0.199299825     0.5655512   -0.7363014     0.0000229   -0.0000176     0.0000373   -0.0000373     0.0002469   -0.0003580 
   0.199399850     0.5647413   -0.7385514     0.0000211   -0.0000697     0.0000072   -0.0000985     0.0006014   -0.0001117 
   0.199499875     0.5623003   -0.7385499     0.0000720    0.0000843    -0.0000825    0.0000397     0.0007440   -0.0006129 
   0.199599900     0.5640890   -0.7394451     0.0001853   -0.0001367     0.0000127   -0.0000295     0.0008758   -0.0003660 
   0.199699925     0.5656493   -0.7384790    -0.0000341   -0.0000002    -0.0000424    0.0000254     0.0003686   -0.0002313 
   0.199799950     0.5653409   -0.7395437     0.0000182    0.0000190    -0.0000015    0.0000051     0.0005979   -0.0002974 
   0.199899975     0.5636619   -0.7381839    -0.0000310   -0.0000334    -0.0000433   -0.0000035     0.0008205    0.0000461 
   0.200000000     0.5640618   -0.7403533    -0.0000718   -0.0000381     0.0000063    0.0000214     0.0005140    0.0001118 
