! 12-May-26 12:33:27 PM
! E:\REC_VNA_20260512\T1T1E6_HEATEDLOAD.S2P
! CHANNEL.1
! TR.MEASUREMENT
! CORRECTED.DATA
# GHZ S RI R 50.0
! FREQ.GHZ         S11RE         S11IM         S21RE         S21IM         S12RE         S12IM         S22RE         S22IM         
!; PortSelection: Port_12
   0.000050000     0.2525579    0.0525532     0.1166685   -0.3198847     0.0015981    0.0000107     0.0105215    0.0416314 
   0.000150025    -0.0425255    0.1139677    -0.2200977   -0.3905347     0.0001681    0.0001021     0.0022701   -0.0006176 
   0.000250050    -0.3191166   -0.3059460     0.2614914    0.0920951    -0.0019957    0.0001340     0.0008552   -0.0032525 
   0.000350075     1.0230380   -0.0580887    -0.0070569   -0.0031301    -0.0005820    0.0005941    -0.0018415   -0.0002053 
   0.000450100     0.9464422   -0.0373670     0.0006615   -0.0088802    -0.0005154    0.0002996     0.0010286   -0.0004996 
   0.000550125     0.9762700   -0.0320072    -0.0032103   -0.0093277     0.0004317   -0.0006674     0.0019628   -0.0004000 
   0.000650150     0.9557657    0.0116941    -0.0010501   -0.0101596    -0.0004308   -0.0021147     0.0013104   -0.0013553 
   0.000750175     0.9863403   -0.0583183    -0.0075289   -0.0043155     0.0000811    0.0005738     0.0004971   -0.0002878 
   0.000850200     1.0088560   -0.0726574    -0.0064147   -0.0063377    -0.0005274    0.0001252     0.0000052    0.0006231 
   0.000950225     1.0343780   -0.0390109    -0.0124264   -0.0097783    -0.0005050   -0.0003394     0.0019629    0.0014593 
   0.001050250     0.9918171   -0.0647212    -0.0136063   -0.0025213    -0.0001501   -0.0005599     0.0017715    0.0005383 
   0.001150275     1.0213970   -0.0103917    -0.0106387   -0.0035451     0.0006362   -0.0001046     0.0018107    0.0017008 
   0.001250300     0.9466314   -0.0486260    -0.0111823   -0.0060070     0.0010316    0.0000039     0.0019241   -0.0002336 
   0.001350325     1.0282230   -0.0839198    -0.0084485   -0.0029806     0.0002326    0.0002917    -0.0000149   -0.0000780 
   0.001450350     1.0258290   -0.0314878    -0.0105194   -0.0020720     0.0002902   -0.0001590     0.0006232    0.0003568 
   0.001550375     0.9939973   -0.0838044    -0.0068700   -0.0010619     0.0001964   -0.0004973     0.0011039    0.0001083 
   0.001650400     1.0299040   -0.0573893    -0.0066973   -0.0039869    -0.0009809   -0.0007104     0.0004846   -0.0008719 
   0.001750425     0.9604753   -0.0922897    -0.0055554    0.0015188     0.0004786   -0.0001496     0.0015195    0.0003458 
   0.001850450     0.9762681   -0.0697107    -0.0053836    0.0039635     0.0001979   -0.0004177     0.0005013    0.0004934 
   0.001950475     1.0056980   -0.0457314    -0.0054295    0.0040408     0.0007490    0.0000539     0.0011534   -0.0007713 
   0.002050500     0.9661135   -0.0542922    -0.0048407   -0.0000678    -0.0004104   -0.0001475     0.0013349    0.0000491 
   0.002150525     0.9789531   -0.0616522    -0.0100305   -0.0003941    -0.0001731    0.0002640     0.0012374    0.0006827 
   0.002250550     0.9518272   -0.0759144    -0.0077393    0.0025391    -0.0003140    0.0001747     0.0009882   -0.0007547 
   0.002350575     0.9542412   -0.0908134    -0.0045934    0.0024392    -0.0003099   -0.0003088     0.0010219    0.0003457 
   0.002450600     1.0067580   -0.1125765    -0.0043129    0.0009325    -0.0010382   -0.0001255     0.0008225   -0.0000716 
   0.002550625     0.9592410   -0.0973610    -0.0074850    0.0029886     0.0003148   -0.0008377     0.0009719   -0.0001223 
   0.002650650     0.9964779   -0.0744071    -0.0049585    0.0060520    -0.0003199   -0.0002120    -0.0004045    0.0011470 
   0.002750675     0.9721986   -0.0777150    -0.0046962    0.0042852    -0.0001609   -0.0001536     0.0008479    0.0002104 
   0.002850700     0.9784338   -0.1021113    -0.0037082    0.0021246     0.0009459    0.0003088     0.0012247   -0.0001956 
   0.002950725     0.9601732   -0.1151796    -0.0017499    0.0018271    -0.0005957    0.0006087     0.0024725    0.0008848 
   0.003050750     0.9737546   -0.0587545    -0.0033231    0.0051397    -0.0001479   -0.0001057     0.0001309   -0.0001567 
   0.003150775     0.9929321   -0.0954961    -0.0023267    0.0041650    -0.0001641    0.0002580     0.0010420    0.0005329 
   0.003250800     1.0005430   -0.0997949     0.0007140    0.0016003    -0.0003506   -0.0003944     0.0009828    0.0001740 
   0.003350825     0.9773933   -0.1202219    -0.0033062   -0.0010467     0.0001646    0.0004973     0.0016115    0.0005817 
   0.003450850     0.9455160   -0.1333807    -0.0010658    0.0040446     0.0001041    0.0002213     0.0015045   -0.0006915 
   0.003550875     0.9577414   -0.1029223    -0.0001897    0.0000215     0.0001249   -0.0006235     0.0010997   -0.0003614 
   0.003650900     1.0193290   -0.0932967     0.0014566    0.0013645     0.0004727   -0.0002699     0.0020313    0.0000041 
   0.003750925     0.9800332   -0.1392378    -0.0021219    0.0015072     0.0003611   -0.0007404     0.0009148   -0.0004039 
   0.003850950     0.9926751   -0.1460405    -0.0009286    0.0009059     0.0002572   -0.0000332     0.0001634    0.0009976 
   0.003950975     0.9879930   -0.1189005    -0.0022188    0.0028862    -0.0003740   -0.0001689     0.0003082   -0.0000246 
   0.004051001     0.9515209   -0.1831085    -0.0033377    0.0006207    -0.0003013    0.0000119     0.0004779    0.0003555 
   0.004151026     1.0237530   -0.1318782     0.0009162    0.0004326    -0.0000728   -0.0002846     0.0001569    0.0001394 
   0.004251051     0.9954895   -0.1429482    -0.0003113    0.0006332    -0.0001647    0.0003166     0.0000680    0.0002343 
   0.004351076     0.9548514   -0.1449393    -0.0013083    0.0012930    -0.0006087   -0.0001046     0.0011005    0.0006144 
   0.004451101     1.0084900   -0.1859813    -0.0007037    0.0036451     0.0000275   -0.0003191     0.0010817   -0.0004606 
   0.004551126     0.9805056   -0.1572466     0.0007401    0.0003401     0.0000765    0.0002305     0.0004563   -0.0005174 
   0.004651151     0.9601653   -0.1572650    -0.0001693    0.0025319     0.0002681   -0.0003263     0.0010737    0.0001879 
   0.004751176     0.9678463   -0.1767789    -0.0006454    0.0012328    -0.0003919   -0.0002174     0.0007285   -0.0003004 
   0.004851201     0.9558736   -0.1545556    -0.0002734    0.0010477    -0.0003799   -0.0001712     0.0010648    0.0005043 
   0.004951226     0.9496436   -0.1444154    -0.0015101    0.0015783    -0.0005810   -0.0004893     0.0009350   -0.0006582 
   0.005051251     1.0084620   -0.2142822    -0.0000126    0.0002641     0.0001804   -0.0002490     0.0010501   -0.0002037 
   0.005151276     0.9380422   -0.1711586    -0.0001455    0.0015167     0.0004309   -0.0003648     0.0011956   -0.0005111 
   0.005251301     0.9536813   -0.1693911    -0.0000792   -0.0013118    -0.0004565    0.0001546     0.0012215    0.0004565 
   0.005351326     0.9554355   -0.1631413    -0.0012767   -0.0021372     0.0000542   -0.0000229     0.0012005    0.0004885 
   0.005451351     0.9518603   -0.1893793     0.0004667   -0.0006445     0.0007523    0.0002897     0.0011506   -0.0002128 
   0.005551376     0.9737138   -0.2249523     0.0012911    0.0020002    -0.0003609    0.0000136     0.0007900   -0.0004005 
   0.005651401     0.9549978   -0.1939410    -0.0011457   -0.0013951     0.0001889   -0.0000362     0.0005183   -0.0003488 
   0.005751426     0.9292451   -0.1837116    -0.0017496    0.0006429    -0.0001441   -0.0001316     0.0012246    0.0001359 
   0.005851451     0.9508722   -0.2196357    -0.0004526    0.0017905     0.0004282   -0.0001543     0.0003734    0.0000353 
   0.005951476     0.9377984   -0.1938309     0.0004570    0.0018083     0.0002089   -0.0001850     0.0011545    0.0002358 
   0.006051501     0.9424403   -0.2038750    -0.0013759   -0.0001478    -0.0002803    0.0003218     0.0007115   -0.0002805 
   0.006151526     0.9616795   -0.2163574    -0.0008886    0.0002021     0.0001884    0.0006491     0.0013010   -0.0004921 
   0.006251551     0.9354733   -0.1748554    -0.0004647    0.0011973    -0.0000942   -0.0003004     0.0009124    0.0005234 
   0.006351576     0.9420515   -0.2210475     0.0006654   -0.0010649     0.0000828   -0.0000529     0.0007674   -0.0001175 
   0.006451601     0.9469599   -0.2122464    -0.0009730   -0.0006206     0.0003096    0.0001749     0.0008027    0.0004869 
   0.006551626     0.9444712   -0.2343619     0.0002823    0.0000053    -0.0003524    0.0005610    -0.0000090   -0.0003118 
   0.006651651     0.9575707   -0.2307255     0.0001854    0.0002774    -0.0003826   -0.0002576     0.0007231    0.0002620 
   0.006751676     0.9472206   -0.2462518     0.0000884    0.0001366     0.0000317   -0.0000199     0.0012879    0.0005244 
   0.006851701     0.9553205   -0.2340679     0.0017800   -0.0017585     0.0001835    0.0002259     0.0002241    0.0006229 
   0.006951726     0.9175951   -0.2352517     0.0008140    0.0010218    -0.0000226    0.0002361     0.0010849    0.0006203 
   0.007051751     0.9297618   -0.2357516    -0.0009002   -0.0013776     0.0000903    0.0002521     0.0012224   -0.0001178 
   0.007151776     0.9205225   -0.2407436     0.0001607    0.0002142    -0.0000233   -0.0000513     0.0009104    0.0005462 
   0.007251801     0.9497062   -0.2396602    -0.0004084    0.0009234    -0.0000357    0.0003334     0.0009534    0.0000351 
   0.007351826     0.9393985   -0.2405444     0.0004338   -0.0007459    -0.0002520   -0.0005357     0.0011842    0.0008365 
   0.007451851     0.9230003   -0.2384165    -0.0003334   -0.0013335     0.0004831    0.0002239     0.0011049   -0.0002447 
   0.007551876     0.9247133   -0.2521445     0.0004086    0.0008135     0.0004189   -0.0000918     0.0010538   -0.0000658 
   0.007651901     0.9323568   -0.2548710     0.0011688    0.0001483     0.0000616    0.0000523     0.0004042    0.0002361 
   0.007751926     0.9285591   -0.2422125    -0.0003643    0.0007294     0.0002647   -0.0001449     0.0007171   -0.0006286 
   0.007851951     0.9366489   -0.2648188     0.0025004    0.0005819     0.0001460    0.0000615     0.0007759   -0.0000313 
   0.007951976     0.9323925   -0.2851361    -0.0001223   -0.0010194     0.0000512   -0.0001058     0.0007846    0.0001608 
   0.008052001     0.9323609   -0.2565980    -0.0003099   -0.0002056    -0.0000893    0.0003457     0.0007185    0.0002654 
   0.008152026     0.9282328   -0.2728951     0.0010133   -0.0007061    -0.0001506    0.0000994     0.0009009    0.0003979 
   0.008252051     0.9089722   -0.2507776    -0.0008726   -0.0003801     0.0005549   -0.0000231     0.0011884    0.0005125 
   0.008352076     0.9220718   -0.2625185     0.0018655   -0.0008393    -0.0001344   -0.0001204     0.0012587   -0.0003161 
   0.008452101     0.9220509   -0.2566710     0.0003024   -0.0000102    -0.0000781    0.0000215     0.0002246   -0.0003728 
   0.008552126     0.9124301   -0.2648442    -0.0001950    0.0017124     0.0004711    0.0000606     0.0008288    0.0005001 
   0.008652151     0.9202631   -0.2684114     0.0001702    0.0003135    -0.0002230   -0.0003035     0.0007859   -0.0000877 
   0.008752176     0.9235912   -0.2695476    -0.0007957   -0.0003582     0.0000603    0.0002541     0.0004615   -0.0005323 
   0.008852201     0.8963581   -0.2750670     0.0001176   -0.0025454     0.0001946    0.0000185     0.0010107    0.0000389 
   0.008952226     0.9178323   -0.2750794     0.0005287    0.0009495     0.0001242   -0.0000258     0.0011964    0.0000729 
   0.009052251     0.8949947   -0.2797837     0.0001577   -0.0000483    -0.0000674    0.0001477     0.0011256   -0.0004215 
   0.009152276     0.9006700   -0.2737337     0.0004555    0.0005698    -0.0002629    0.0001186     0.0009848    0.0003155 
   0.009252301     0.8996979   -0.2751519    -0.0002113   -0.0002550     0.0003869    0.0004368     0.0006742    0.0001350 
   0.009352326     0.9258283   -0.3040470    -0.0010632   -0.0007977     0.0003706   -0.0002215     0.0010035   -0.0000193 
   0.009452351     0.8974839   -0.2960794    -0.0010085    0.0000847     0.0001466   -0.0000375     0.0006017    0.0006703 
   0.009552376     0.9090135   -0.3157454    -0.0005700    0.0008144    -0.0000857   -0.0001689     0.0008241    0.0003618 
   0.009652401     0.8816504   -0.2976331     0.0010595   -0.0001598     0.0004110    0.0002443     0.0002334    0.0001610 
   0.009752426     0.8890752   -0.2973510     0.0004481   -0.0003400     0.0000547    0.0000309     0.0010596    0.0005440 
   0.009852451     0.8880962   -0.3092946    -0.0001067    0.0009122     0.0002727    0.0000494     0.0009359   -0.0004253 
   0.009952476     0.8823883   -0.3198256     0.0018722    0.0002065    -0.0000424   -0.0001336     0.0008117    0.0000253 
   0.010052501     0.8797612   -0.3069560     0.0009696   -0.0000914     0.0001921   -0.0001241     0.0010005   -0.0000159 
   0.010152526     0.8883486   -0.2895834     0.0003454    0.0003770     0.0003541   -0.0000795     0.0002409    0.0005166 
   0.010252551     0.8717892   -0.3239497    -0.0016776    0.0003090     0.0000508   -0.0001683     0.0004294    0.0001999 
   0.010352576     0.9052757   -0.3219975     0.0009325   -0.0017812    -0.0000614   -0.0000467     0.0010942    0.0003192 
   0.010452601     0.8875284   -0.3056990     0.0001641    0.0003543    -0.0000887   -0.0001886     0.0009550   -0.0001934 
   0.010552626     0.8520240   -0.3221926     0.0006138   -0.0004916     0.0003075    0.0000220     0.0007445    0.0001070 
   0.010652651     0.8758989   -0.3223317    -0.0007858   -0.0005130     0.0004528   -0.0001842     0.0005711    0.0000111 
   0.010752676     0.8586118   -0.3395332     0.0016935   -0.0013460     0.0001295   -0.0001291     0.0006898   -0.0001935 
   0.010852701     0.8747770   -0.3257669     0.0007698    0.0008800     0.0000610   -0.0002795     0.0005538    0.0002124 
   0.010952726     0.8675480   -0.3268112    -0.0001542   -0.0005913    -0.0001942   -0.0001612     0.0003263   -0.0002117 
   0.011052751     0.8669493   -0.3337315    -0.0000538   -0.0006895     0.0001126   -0.0002359     0.0009400    0.0003683 
   0.011152776     0.8802857   -0.3284076    -0.0002515   -0.0009128     0.0003602   -0.0001892     0.0006083    0.0001004 
   0.011252801     0.8529531   -0.3359425    -0.0002475   -0.0004033     0.0000421   -0.0002060     0.0008509    0.0005420 
   0.011352826     0.8643504   -0.3518494    -0.0003579   -0.0006170    -0.0001810   -0.0001389     0.0009985    0.0001408 
   0.011452851     0.8454357   -0.3428418     0.0006822   -0.0006421    -0.0004162   -0.0000166     0.0008635    0.0001644 
   0.011552876     0.8430238   -0.3443334    -0.0006353   -0.0000271    -0.0000488    0.0001942     0.0007613    0.0001515 
   0.011652901     0.8614743   -0.3586163     0.0018019   -0.0009968    -0.0003730    0.0000766     0.0003919    0.0007007 
   0.011752926     0.8410680   -0.3402582    -0.0007288    0.0006348    -0.0002267    0.0002318     0.0009450   -0.0001300 
   0.011852951     0.8573359   -0.3540587     0.0004924    0.0000437    -0.0003485    0.0000758     0.0009389    0.0002784 
   0.011952976     0.8468872   -0.3460012    -0.0003470   -0.0008038     0.0001575    0.0003766     0.0003315    0.0005791 
   0.012053002     0.8367463   -0.3655792    -0.0008925    0.0000564     0.0003129   -0.0000007     0.0007437    0.0006554 
   0.012153027     0.8495876   -0.3618001     0.0010171   -0.0006418    -0.0000826   -0.0001102     0.0009221   -0.0003994 
   0.012253052     0.8319390   -0.3653245     0.0004953    0.0009172    -0.0002044    0.0002170     0.0007501    0.0007226 
   0.012353077     0.8481661   -0.3631146     0.0006723    0.0002433     0.0001943    0.0001262     0.0010273    0.0005494 
   0.012453102     0.8372946   -0.3490583    -0.0001186    0.0007885     0.0000088   -0.0002503     0.0010676   -0.0000427 
   0.012553127     0.8158754   -0.3782772     0.0007014   -0.0011444     0.0003492    0.0001506     0.0009949    0.0000725 
   0.012653152     0.8474926   -0.3635010    -0.0000184    0.0000894     0.0000819   -0.0001102     0.0006843    0.0001764 
   0.012753177     0.8197611   -0.3629356    -0.0013118   -0.0005683    -0.0000743   -0.0003245     0.0005718    0.0001663 
   0.012853202     0.8245407   -0.3493712     0.0000346   -0.0000855     0.0000510    0.0000339     0.0008221    0.0007615 
   0.012953227     0.8259066   -0.3685226    -0.0007454   -0.0002363    -0.0001481    0.0003533     0.0010191    0.0005590 
   0.013053252     0.8163899   -0.3842664     0.0001570   -0.0002283     0.0001700    0.0000565     0.0012391    0.0003159 
   0.013153277     0.8254690   -0.3717129     0.0000861    0.0009069     0.0000555    0.0000391     0.0005852    0.0003863 
   0.013253302     0.8234461   -0.3718351     0.0002546    0.0007602    -0.0000550    0.0001745     0.0009608    0.0002766 
   0.013353327     0.8145911   -0.3815996     0.0005907   -0.0000928    -0.0002374   -0.0001408     0.0010021    0.0000847 
   0.013453352     0.8224649   -0.3728684    -0.0000097   -0.0002662     0.0000236   -0.0000919     0.0009271    0.0003340 
   0.013553377     0.8010839   -0.3691495     0.0000830   -0.0006942    -0.0000743    0.0001430     0.0012404    0.0002218 
   0.013653402     0.8143693   -0.3814734     0.0003981   -0.0006662    -0.0002756   -0.0000465     0.0009209    0.0005456 
   0.013753427     0.8113230   -0.3880991    -0.0010012    0.0006024    -0.0000075    0.0001581     0.0003456    0.0001623 
   0.013853452     0.8088284   -0.3948900     0.0002839    0.0001147     0.0000440   -0.0000781     0.0006536    0.0002358 
   0.013953477     0.7988258   -0.3800315     0.0009059    0.0007830    -0.0001893   -0.0001269     0.0009025    0.0001505 
   0.014053502     0.8072158   -0.3993650    -0.0009818    0.0001587    -0.0003723   -0.0000505     0.0003567    0.0003978 
   0.014153527     0.8015167   -0.3930740    -0.0003126   -0.0003193     0.0000272    0.0001142     0.0004398    0.0005557 
   0.014253552     0.8117864   -0.3909544    -0.0000308    0.0002475    -0.0002817   -0.0001613     0.0009031    0.0000113 
   0.014353577     0.7831952   -0.3934949    -0.0003934   -0.0005719     0.0002546   -0.0000034     0.0009874    0.0002493 
   0.014453602     0.7803180   -0.3913288     0.0000585    0.0008185    -0.0001530   -0.0002185     0.0002626    0.0005232 
   0.014553627     0.7923566   -0.3932434    -0.0001499    0.0009211     0.0001063    0.0002839     0.0007858    0.0002579 
   0.014653652     0.7989855   -0.4094361    -0.0002346   -0.0000031    -0.0001017   -0.0001446     0.0008145    0.0002038 
   0.014753677     0.7778827   -0.4014906     0.0003934   -0.0004171     0.0000040   -0.0001130     0.0005775    0.0002365 
   0.014853702     0.7840345   -0.3995630    -0.0010240    0.0000880    -0.0000367   -0.0000188     0.0006798    0.0003067 
   0.014953727     0.7718941   -0.4198389    -0.0003511    0.0011792     0.0002113   -0.0000628     0.0007071    0.0001928 
   0.015053752     0.7852135   -0.4054922     0.0007633    0.0007060     0.0002065   -0.0000260     0.0004995    0.0010915 
   0.015153777     0.7800087   -0.4079019    -0.0003495   -0.0003168     0.0000683    0.0000750     0.0010283    0.0001591 
   0.015253802     0.7765247   -0.4036797    -0.0006702   -0.0006775     0.0000863    0.0000109     0.0004926    0.0000539 
   0.015353827     0.7766896   -0.4125320     0.0003528   -0.0000895     0.0000157   -0.0001565     0.0013751    0.0002854 
   0.015453852     0.7803842   -0.4132689     0.0005593   -0.0003953     0.0000935    0.0000566     0.0010378    0.0001094 
   0.015553877     0.7727481   -0.4271304    -0.0012600    0.0000337    -0.0000205   -0.0000112     0.0006653    0.0001411 
   0.015653902     0.7628950   -0.4139057    -0.0003137   -0.0001309    -0.0001490    0.0002859     0.0005246    0.0002900 
   0.015753927     0.7571811   -0.4067373     0.0006510    0.0003859     0.0001282   -0.0000707     0.0004489    0.0000411 
   0.015853952     0.7614816   -0.4171783    -0.0004116   -0.0005272    -0.0001918    0.0000542     0.0006346    0.0003247 
   0.015953977     0.7706858   -0.4116980     0.0003824   -0.0000107    -0.0000202    0.0002457     0.0012988    0.0004849 
   0.016054002     0.7548908   -0.4199739    -0.0000086    0.0001404    -0.0000445   -0.0001318     0.0012151    0.0001671 
   0.016154027     0.7577559   -0.4225323    -0.0000574    0.0009459    -0.0000520   -0.0000493     0.0007143   -0.0001571 
   0.016254052     0.7501788   -0.4273074     0.0006628    0.0004861     0.0000759   -0.0002625     0.0007095    0.0000618 
   0.016354077     0.7479456   -0.4223174    -0.0004740   -0.0004724    -0.0000199   -0.0000463     0.0008054    0.0003144 
   0.016454102     0.7584923   -0.4204177    -0.0004691    0.0001179    -0.0000531    0.0002981     0.0008061    0.0004308 
   0.016554127     0.7472596   -0.4293576    -0.0007568   -0.0001978     0.0000540    0.0000163     0.0005121    0.0005277 
   0.016654152     0.7545867   -0.4213268    -0.0005222   -0.0007066     0.0003473    0.0000350     0.0006430   -0.0000919 
   0.016754177     0.7428647   -0.4320771     0.0004542    0.0004856    -0.0001598   -0.0000268     0.0007021    0.0007016 
   0.016854202     0.7448465   -0.4338340    -0.0002742   -0.0003271    -0.0003427   -0.0001335     0.0009440    0.0003950 
   0.016954227     0.7590824   -0.4383883    -0.0002597   -0.0001821     0.0001325   -0.0001835     0.0006563    0.0007138 
   0.017054252     0.7347003   -0.4402670    -0.0007695   -0.0000340     0.0000282   -0.0000732     0.0008040    0.0000398 
   0.017154277     0.7284750   -0.4367527     0.0002429    0.0000122    -0.0003701   -0.0002493     0.0005452    0.0001882 
   0.017254302     0.7297152   -0.4296729     0.0000892   -0.0003423    -0.0001182   -0.0000004     0.0002699    0.0003868 
   0.017354327     0.7382752   -0.4429040    -0.0001427   -0.0005695    -0.0001526   -0.0000541     0.0009153    0.0003042 
   0.017454352     0.7255678   -0.4466135     0.0002369    0.0007623    -0.0002640    0.0000064     0.0006820    0.0003071 
   0.017554377     0.7179073   -0.4500975     0.0002249    0.0003806    -0.0001505   -0.0000040     0.0007460    0.0004174 
   0.017654402     0.7295874   -0.4354088     0.0007361    0.0003288     0.0005004    0.0000499     0.0005684    0.0003049 
   0.017754427     0.7132053   -0.4450700    -0.0010705   -0.0001545     0.0000275   -0.0000198     0.0005977   -0.0003167 
   0.017854452     0.7270599   -0.4491835    -0.0005046    0.0003048    -0.0003216    0.0001669     0.0008081    0.0007588 
   0.017954477     0.7108011   -0.4360073     0.0006687    0.0001671     0.0000726   -0.0000707     0.0008573    0.0000108 
   0.018054502     0.7206162   -0.4499726     0.0005630   -0.0004755    -0.0001609   -0.0001505     0.0006008    0.0004167 
   0.018154527     0.7157637   -0.4497208    -0.0001649   -0.0000834    -0.0003379   -0.0002598     0.0008847    0.0005494 
   0.018254552     0.7134870   -0.4538093     0.0003096    0.0004949     0.0001263    0.0000497     0.0007593    0.0001649 
   0.018354577     0.7010022   -0.4504599     0.0005109    0.0002465    -0.0001475   -0.0000030     0.0005589    0.0005029 
   0.018454602     0.6927624   -0.4541130    -0.0000731   -0.0001355     0.0000125   -0.0001227     0.0009621    0.0005585 
   0.018554627     0.7006685   -0.4590622    -0.0006837    0.0000324     0.0001398   -0.0001154     0.0000368    0.0001912 
   0.018654652     0.7026680   -0.4600633     0.0001270   -0.0000289    -0.0000294   -0.0000167     0.0005497    0.0007521 
   0.018754677     0.6926447   -0.4540896    -0.0001077   -0.0004560    -0.0000318    0.0000047     0.0008816    0.0001095 
   0.018854702     0.6996871   -0.4491443     0.0004736   -0.0003968     0.0000565    0.0002254     0.0013423    0.0001909 
   0.018954727     0.6935779   -0.4595627     0.0007695   -0.0002915    -0.0000054   -0.0001363     0.0002126    0.0008178 
   0.019054752     0.6921919   -0.4536733    -0.0002872   -0.0008716     0.0000778    0.0000790     0.0005944    0.0000431 
   0.019154777     0.6826721   -0.4553893     0.0000934    0.0002922     0.0000137   -0.0000732     0.0007580    0.0002168 
   0.019254802     0.6848478   -0.4582016     0.0004059    0.0000147    -0.0001294   -0.0001608     0.0011752    0.0005136 
   0.019354827     0.6772576   -0.4668931    -0.0004539    0.0001188    -0.0001040   -0.0000781     0.0007047    0.0006292 
   0.019454852     0.6779421   -0.4617907    -0.0006572    0.0002478    -0.0000885    0.0000241     0.0004618    0.0001483 
   0.019554877     0.6696215   -0.4600286    -0.0001548    0.0000143     0.0000983   -0.0000044     0.0009343    0.0002017 
   0.019654902     0.6808050   -0.4623515    -0.0001141    0.0004780    -0.0001619    0.0000569     0.0009563    0.0003801 
   0.019754927     0.6757534   -0.4615282    -0.0000739   -0.0001093     0.0002682   -0.0001349     0.0005134    0.0005254 
   0.019854952     0.6662267   -0.4660228    -0.0003427    0.0001942     0.0000067    0.0002160     0.0005782    0.0007337 
   0.019954977     0.6623892   -0.4631436    -0.0001808    0.0004415    -0.0000705   -0.0000233     0.0007578    0.0004894 
   0.020055003     0.6774463   -0.4678999     0.0000548   -0.0001646    -0.0001028   -0.0001293     0.0002127    0.0002306 
   0.020155028     0.6697928   -0.4591200     0.0001219   -0.0002882     0.0000389   -0.0000783     0.0001370    0.0006227 
   0.020255053     0.6650723   -0.4683406    -0.0004915    0.0000453     0.0000836   -0.0000601     0.0005682    0.0004676 
   0.020355078     0.6576300   -0.4699139     0.0004571    0.0002640    -0.0000615    0.0000612     0.0002447    0.0004095 
   0.020455103     0.6637859   -0.4735492     0.0001488    0.0004095     0.0000772   -0.0000924     0.0009359    0.0006229 
   0.020555128     0.6546141   -0.4715295    -0.0010283   -0.0002942    -0.0001166   -0.0000726     0.0010633    0.0003971 
   0.020655153     0.6581048   -0.4679917    -0.0001153    0.0002201    -0.0000541   -0.0000673     0.0007324    0.0000574 
   0.020755178     0.6433769   -0.4717697    -0.0001242    0.0001626    -0.0000800   -0.0001322     0.0001741    0.0000897 
   0.020855203     0.6536160   -0.4632115     0.0006418   -0.0000374    -0.0000164   -0.0002336     0.0002373    0.0004508 
   0.020955228     0.6448613   -0.4638160     0.0006500   -0.0000148    -0.0000926    0.0000239     0.0002222    0.0002078 
   0.021055253     0.6394218   -0.4761168     0.0002083    0.0004522     0.0002629   -0.0001092     0.0003751    0.0008544 
   0.021155278     0.6437835   -0.4778333    -0.0002704   -0.0005304     0.0001274   -0.0001886     0.0009301    0.0003173 
   0.021255303     0.6405481   -0.4737966     0.0006064   -0.0002800    -0.0000151   -0.0000532     0.0008562    0.0003022 
   0.021355328     0.6449726   -0.4701982     0.0002932    0.0008866    -0.0001261    0.0001036     0.0004715    0.0007117 
   0.021455353     0.6290114   -0.4767943    -0.0000038   -0.0003005     0.0001672    0.0000390     0.0005358    0.0008077 
   0.021555378     0.6390972   -0.4816006    -0.0000881   -0.0001287    -0.0000273    0.0000443     0.0002727    0.0002895 
   0.021655403     0.6378144   -0.4831812    -0.0002718    0.0009573     0.0000028   -0.0000868     0.0009681    0.0004801 
   0.021755428     0.6296141   -0.4792539     0.0000765    0.0001388     0.0000185    0.0000259     0.0007751   -0.0002488 
   0.021855453     0.6365853   -0.4800099     0.0002284    0.0000688     0.0000312   -0.0000689     0.0011758    0.0004892 
   0.021955478     0.6207410   -0.4746732    -0.0004837    0.0000748     0.0002072    0.0000403     0.0008150    0.0007141 
   0.022055503     0.6251798   -0.4804305     0.0000257   -0.0002469    -0.0000760    0.0000850     0.0004460    0.0007256 
   0.022155528     0.6243429   -0.4827988    -0.0000483    0.0005074    -0.0001137   -0.0000169     0.0002620    0.0000602 
   0.022255553     0.6150548   -0.4819520    -0.0000677    0.0000272    -0.0000942   -0.0000949     0.0006010    0.0005618 
   0.022355578     0.6177652   -0.4784313    -0.0002816    0.0005212     0.0000200    0.0000598     0.0008104    0.0006856 
   0.022455603     0.6127493   -0.4882556    -0.0003488    0.0002314    -0.0000741   -0.0000536     0.0004694   -0.0001696 
   0.022555628     0.6141037   -0.4851712     0.0000444   -0.0005294    -0.0002516    0.0000232     0.0007269    0.0002544 
   0.022655653     0.6180571   -0.4791102    -0.0002842    0.0000244     0.0000562   -0.0000290     0.0006142    0.0002823 
   0.022755678     0.6026933   -0.4872454     0.0000165    0.0001893    -0.0000027   -0.0001310     0.0003656    0.0010119 
   0.022855703     0.6064526   -0.4829049    -0.0002745   -0.0006527    -0.0000365    0.0001541     0.0004378    0.0003285 
   0.022955728     0.6103619   -0.4789772    -0.0002414    0.0006058    -0.0001223    0.0000312     0.0008039    0.0003500 
   0.023055753     0.6023053   -0.4843112    -0.0002266   -0.0006158     0.0000177   -0.0000979     0.0003866    0.0004868 
   0.023155778     0.6052117   -0.4892382    -0.0000997   -0.0000769    -0.0000777    0.0000577     0.0006361   -0.0000757 
   0.023255803     0.5943543   -0.4844632    -0.0008027   -0.0002265    -0.0000144   -0.0001415     0.0008260    0.0005602 
   0.023355828     0.5942342   -0.4845234    -0.0000175    0.0000753    -0.0001029   -0.0000126     0.0004857    0.0001119 
   0.023455853     0.5940482   -0.4871848    -0.0003908   -0.0001502     0.0000213    0.0000428     0.0008553    0.0005725 
   0.023555878     0.5910300   -0.4874257    -0.0000341   -0.0004709     0.0000084   -0.0002379     0.0000982    0.0003556 
   0.023655903     0.5900879   -0.4814661    -0.0000767    0.0000010     0.0000122    0.0001914     0.0008252    0.0007266 
   0.023755928     0.5888166   -0.4867599    -0.0004894    0.0000525    -0.0001052    0.0000815     0.0004939    0.0003262 
   0.023855953     0.5863755   -0.4859264     0.0005601   -0.0001390     0.0000314   -0.0000459     0.0005553    0.0010043 
   0.023955978     0.5766020   -0.4854245     0.0000744   -0.0003736    -0.0001458    0.0000278     0.0008915    0.0002705 
   0.024056003     0.5925729   -0.4897252     0.0001482   -0.0001032    -0.0001112   -0.0000302     0.0006184    0.0003191 
   0.024156028     0.5785710   -0.4851079     0.0003943   -0.0006467    -0.0000359   -0.0001047     0.0006094    0.0005939 
   0.024256053     0.5791669   -0.4903727     0.0003657   -0.0003244    -0.0000472    0.0000317    -0.0000159   -0.0000236 
   0.024356078     0.5715472   -0.4899501    -0.0003594    0.0000849    -0.0000086   -0.0001657     0.0006973    0.0005054 
   0.024456103     0.5704089   -0.4833021    -0.0001238   -0.0000393     0.0000247   -0.0000853     0.0005928    0.0007873 
   0.024556128     0.5725585   -0.4897984    -0.0001839    0.0001211    -0.0001557    0.0000691     0.0006097    0.0001814 
   0.024656153     0.5711414   -0.4887307     0.0002093    0.0000282     0.0000884    0.0000586     0.0006179    0.0002965 
   0.024756178     0.5712293   -0.4933268    -0.0001439    0.0001564    -0.0000640    0.0000997     0.0005905    0.0002191 
   0.024856203     0.5727179   -0.4899502     0.0004995   -0.0007835     0.0000288   -0.0000621     0.0006920    0.0005037 
   0.024956228     0.5721452   -0.4856340    -0.0001730    0.0004904    -0.0000744    0.0000395     0.0008742    0.0009739 
   0.025056253     0.5609857   -0.4916120     0.0003659    0.0002515    -0.0001763   -0.0001166     0.0005929    0.0003497 
   0.025156278     0.5627397   -0.4954815     0.0000961   -0.0003762     0.0001267    0.0001023     0.0009995    0.0003131 
   0.025256303     0.5545902   -0.4858951     0.0004654   -0.0005206     0.0000498    0.0000662     0.0006677    0.0004039 
   0.025356328     0.5616876   -0.4945240     0.0002195    0.0000642     0.0000172   -0.0000176     0.0008049    0.0003819 
   0.025456353     0.5556887   -0.4903273     0.0002919    0.0001276    -0.0000111    0.0000219     0.0006364    0.0003750 
   0.025556378     0.5530238   -0.4960409     0.0001910   -0.0000079     0.0000300   -0.0001187     0.0006807    0.0003958 
   0.025656403     0.5564729   -0.4927355    -0.0001822    0.0005398     0.0000281    0.0000038     0.0004060    0.0007266 
   0.025756428     0.5543873   -0.4996457    -0.0003664    0.0001966     0.0001499    0.0000472     0.0001130    0.0006097 
   0.025856453     0.5493777   -0.4949179    -0.0000474   -0.0004870     0.0000418    0.0001142     0.0005106    0.0006248 
   0.025956478     0.5480637   -0.4896524     0.0002780   -0.0002289     0.0000047    0.0000176     0.0010510    0.0008725 
   0.026056503     0.5432884   -0.4939958    -0.0005233   -0.0003150     0.0000404    0.0001329     0.0007006    0.0007371 
   0.026156528     0.5407734   -0.4909212     0.0005316    0.0002478     0.0000174   -0.0000689     0.0006116    0.0004624 
   0.026256553     0.5425522   -0.4902977    -0.0005564    0.0000093    -0.0000243    0.0000504     0.0002701    0.0006748 
   0.026356578     0.5404122   -0.4989708     0.0000262   -0.0001834    -0.0000350    0.0000589     0.0002581    0.0005033 
   0.026456603     0.5374465   -0.4963440     0.0003583    0.0001395    -0.0000518    0.0001498     0.0004617    0.0000396 
   0.026556628     0.5354673   -0.4990299     0.0003811   -0.0000649     0.0000116    0.0000306     0.0006524    0.0005160 
   0.026656653     0.5313570   -0.4911400    -0.0001249   -0.0002750     0.0000972   -0.0000562     0.0002338    0.0004191 
   0.026756678     0.5304615   -0.4973586     0.0002703    0.0001001     0.0000267    0.0001350     0.0009463    0.0005144 
   0.026856703     0.5310158   -0.5002185     0.0003057   -0.0001360    -0.0000288    0.0000702     0.0005396    0.0003066 
   0.026956728     0.5282737   -0.4957506    -0.0000666    0.0005137    -0.0001285    0.0000727     0.0005637    0.0005666 
   0.027056753     0.5309203   -0.4956678     0.0001487   -0.0000380    -0.0001410    0.0000740     0.0005217    0.0009216 
   0.027156778     0.5236334   -0.4930539    -0.0001195    0.0003690    -0.0001104    0.0000995     0.0006961    0.0006396 
   0.027256803     0.5199990   -0.4913279     0.0000930   -0.0001740    -0.0000018    0.0000497     0.0002844    0.0001017 
   0.027356828     0.5266319   -0.4968983    -0.0003475   -0.0000901    -0.0001021   -0.0001135     0.0006868    0.0007149 
   0.027456853     0.5150352   -0.4967262     0.0001582    0.0000005     0.0000182   -0.0000061     0.0004483    0.0000225 
   0.027556878     0.5159421   -0.4946800    -0.0000899    0.0001289    -0.0000333    0.0000165     0.0005474    0.0008802 
   0.027656903     0.5180681   -0.4975921     0.0004261   -0.0000051    -0.0001450   -0.0000872     0.0007761    0.0008835 
   0.027756928     0.5106796   -0.4909979     0.0001153    0.0003381     0.0000372   -0.0000560     0.0007118    0.0006916 
   0.027856953     0.5154113   -0.4985851     0.0003075    0.0001302     0.0000106    0.0001173     0.0009609    0.0006599 
   0.027956978     0.5085363   -0.4939876    -0.0000709   -0.0001824     0.0000193    0.0001787     0.0003570   -0.0004411 
   0.028057004     0.5080653   -0.4930496     0.0003002    0.0003220     0.0000000   -0.0000963     0.0003830    0.0005957 
   0.028157029     0.5010886   -0.4973261     0.0002554    0.0000914     0.0000124   -0.0000654     0.0005806    0.0002077 
   0.028257054     0.5009953   -0.4974976    -0.0004135   -0.0000504     0.0001161   -0.0000374     0.0004630    0.0004270 
   0.028357079     0.4977894   -0.4961850     0.0000388   -0.0002643     0.0000325    0.0000332    -0.0000069    0.0003512 
   0.028457104     0.4981630   -0.4923876    -0.0000138   -0.0000243     0.0000959    0.0001098     0.0003575    0.0008527 
   0.028557129     0.4979756   -0.4985385    -0.0002880    0.0001825    -0.0000089    0.0000398     0.0007892    0.0002980 
   0.028657154     0.5001428   -0.4952479    -0.0006878   -0.0000971     0.0000889    0.0001107     0.0004450    0.0009363 
   0.028757179     0.4986035   -0.4943540    -0.0002307    0.0004751    -0.0000468    0.0000485     0.0010402    0.0006975 
   0.028857204     0.4930373   -0.4950743     0.0005820   -0.0000029    -0.0000395    0.0000582     0.0005417    0.0003598 
   0.028957229     0.4918868   -0.4956138    -0.0003232    0.0000317    -0.0000005   -0.0000738     0.0003927    0.0003053 
   0.029057254     0.4935465   -0.5004975    -0.0001524   -0.0003080    -0.0000079    0.0001150     0.0001871    0.0005591 
   0.029157279     0.4875354   -0.4946616    -0.0001589    0.0001655    -0.0000174    0.0000806     0.0004287    0.0006182 
   0.029257304     0.4841728   -0.4987770    -0.0001115   -0.0002111    -0.0000690    0.0000928     0.0003278    0.0008720 
   0.029357329     0.4819681   -0.4925608     0.0005205    0.0001676    -0.0000631   -0.0000815     0.0001676    0.0006842 
   0.029457354     0.4823408   -0.4970199     0.0004320   -0.0003112     0.0000144    0.0000945     0.0003158    0.0005156 
   0.029557379     0.4808095   -0.5016910     0.0000475   -0.0002153    -0.0000340   -0.0000828     0.0001461    0.0000614 
   0.029657404     0.4846615   -0.4965851    -0.0000595    0.0002090     0.0000444   -0.0000506     0.0007181    0.0001823 
   0.029757429     0.4758349   -0.4986352    -0.0001335   -0.0002315    -0.0000466    0.0000058     0.0004446    0.0006547 
   0.029857454     0.4711774   -0.4938908    -0.0000893    0.0000304    -0.0000692   -0.0000385     0.0006598    0.0005315 
   0.029957479     0.4725537   -0.4950128    -0.0001224   -0.0001241    -0.0000995   -0.0000599     0.0003751    0.0005687 
   0.030057504     0.4737305   -0.4965620     0.0000532    0.0001740    -0.0000333   -0.0000686     0.0005310    0.0001823 
   0.030157529     0.4716986   -0.4932693    -0.0000529   -0.0002300    -0.0000558   -0.0001402     0.0003963    0.0003821 
   0.030257554     0.4710874   -0.4914348    -0.0000958   -0.0001026     0.0000435    0.0000325     0.0005299    0.0005378 
   0.030357579     0.4670427   -0.4908074    -0.0002455   -0.0001162    -0.0000064   -0.0000917    -0.0000863    0.0007669 
   0.030457604     0.4669322   -0.4971560     0.0001213   -0.0002529    -0.0000482    0.0000526     0.0011285    0.0008881 
   0.030557629     0.4642504   -0.4923469     0.0002177   -0.0000893    -0.0000879   -0.0001054     0.0006836    0.0008029 
   0.030657654     0.4595254   -0.4965855     0.0001915   -0.0004245    -0.0000431   -0.0001299     0.0006141    0.0002629 
   0.030757679     0.4587250   -0.4949377     0.0000194   -0.0001666    -0.0000358    0.0000180     0.0000900    0.0001687 
   0.030857704     0.4574558   -0.4948032     0.0001447   -0.0002019     0.0001156   -0.0001129     0.0000897    0.0002471 
   0.030957729     0.4582269   -0.4969041     0.0001084   -0.0003965    -0.0000927   -0.0001226     0.0000184    0.0007723 
   0.031057754     0.4550920   -0.4927213    -0.0001718   -0.0002891    -0.0000553    0.0000239     0.0007034    0.0002264 
   0.031157779     0.4570293   -0.4999112    -0.0001895   -0.0000522    -0.0000065    0.0000415     0.0002852    0.0006508 
   0.031257804     0.4497668   -0.4939267    -0.0003304   -0.0000710     0.0000377    0.0000181     0.0000911    0.0002650 
   0.031357829     0.4510521   -0.4971021     0.0001339   -0.0002058    -0.0000019    0.0000350     0.0002798    0.0006680 
   0.031457854     0.4466834   -0.4903763     0.0000755    0.0000611     0.0000361    0.0000943     0.0003643    0.0002379 
   0.031557879     0.4493248   -0.4949707    -0.0005605    0.0003819     0.0000161    0.0000384     0.0002182    0.0003845 
   0.031657904     0.4452375   -0.4927264    -0.0003689   -0.0000526     0.0001665   -0.0000829     0.0000482    0.0004241 
   0.031757929     0.4438004   -0.4911875     0.0000980   -0.0000801    -0.0000106   -0.0000039     0.0001585    0.0006340 
   0.031857954     0.4422638   -0.4909546     0.0001685    0.0000313     0.0000630   -0.0000349     0.0007778    0.0004220 
   0.031957979     0.4440420   -0.4937685     0.0000060   -0.0003543     0.0000660    0.0000664     0.0005432    0.0007424 
   0.032058004     0.4426598   -0.4923165     0.0001727    0.0001226    -0.0000704   -0.0000392     0.0003074   -0.0000142 
   0.032158029     0.4411109   -0.4954191    -0.0001960   -0.0002644     0.0001074    0.0000313     0.0003558    0.0001704 
   0.032258054     0.4407159   -0.4949893     0.0001233   -0.0002084     0.0000201    0.0000651     0.0003150    0.0002555 
   0.032358079     0.4359213   -0.4926527     0.0002649    0.0000921     0.0000155   -0.0000783     0.0000976    0.0010581 
   0.032458104     0.4351222   -0.4957491    -0.0003363    0.0002186    -0.0000252    0.0000394     0.0004204    0.0002619 
   0.032558129     0.4333885   -0.4879604     0.0002336    0.0000085     0.0001143   -0.0000560     0.0003613   -0.0001313 
   0.032658154     0.4330429   -0.4898539    -0.0005796    0.0001323    -0.0000438   -0.0000523     0.0003272    0.0006697 
   0.032758179     0.4294112   -0.4923730     0.0002353   -0.0000955     0.0000394    0.0000947     0.0008823    0.0008191 
   0.032858204     0.4280440   -0.4907127    -0.0002196    0.0000511     0.0000045   -0.0000165     0.0003726   -0.0000905 
   0.032958229     0.4263665   -0.4893333    -0.0003041   -0.0002993    -0.0000634    0.0000368    -0.0000097    0.0006095 
   0.033058254     0.4232910   -0.4872823     0.0000225   -0.0000927     0.0000702    0.0000967     0.0001378    0.0002571 
   0.033158279     0.4229479   -0.4911253     0.0000022   -0.0001145    -0.0000137    0.0002071     0.0005342    0.0007262 
   0.033258304     0.4193763   -0.4922330    -0.0001645    0.0000658    -0.0000884   -0.0000856     0.0003597    0.0004569 
   0.033358329     0.4162437   -0.4894140    -0.0002661   -0.0002960     0.0001803   -0.0000028     0.0000852    0.0001567 
   0.033458354     0.4177107   -0.4855859    -0.0001025    0.0000060    -0.0000360   -0.0000543     0.0008098    0.0003488 
   0.033558379     0.4137847   -0.4906805    -0.0004590   -0.0002771    -0.0001210   -0.0001552     0.0004223    0.0004817 
   0.033658404     0.4110506   -0.4884315    -0.0002189    0.0002578     0.0000640   -0.0000657     0.0003778    0.0006168 
   0.033758429     0.4131113   -0.4878270     0.0000197    0.0000276     0.0000913   -0.0000718     0.0002677    0.0003677 
   0.033858454     0.4084309   -0.4885996     0.0000833    0.0000075    -0.0000932   -0.0000064     0.0000088    0.0004293 
   0.033958479     0.4122903   -0.4921535     0.0002411    0.0002721    -0.0001390   -0.0000135     0.0004269    0.0008281 
   0.034058504     0.4078970   -0.4862109    -0.0002781   -0.0005478     0.0000502   -0.0000022     0.0003421    0.0003181 
   0.034158529     0.4038374   -0.4881622     0.0002117    0.0001786     0.0000710   -0.0000189     0.0008330    0.0006079 
   0.034258554     0.4069186   -0.4878730     0.0002024   -0.0001406    -0.0000513   -0.0000641     0.0006110    0.0005257 
   0.034358579     0.4013832   -0.4873507     0.0003695    0.0002867     0.0000275   -0.0001095     0.0001826    0.0002682 
   0.034458604     0.4062091   -0.4893170     0.0001124    0.0000629     0.0000866   -0.0001267     0.0005611    0.0003073 
   0.034558629     0.4028316   -0.4864289    -0.0000180    0.0000085     0.0000138    0.0000587     0.0000589    0.0001195 
   0.034658654     0.3985035   -0.4873280    -0.0002947    0.0003322     0.0000914    0.0001123     0.0005345    0.0005353 
   0.034758679     0.3946623   -0.4883212     0.0000747    0.0000590    -0.0000698   -0.0000158     0.0001939    0.0003054 
   0.034858704     0.3979083   -0.4872950     0.0001871    0.0002615    -0.0000449   -0.0000662     0.0001431    0.0002911 
   0.034958729     0.3997695   -0.4819716    -0.0004489    0.0004988     0.0000326   -0.0000978     0.0005211    0.0004351 
   0.035058754     0.3936447   -0.4869932     0.0003342   -0.0001102    -0.0000652   -0.0000256     0.0004724   -0.0000846 
   0.035158779     0.3971950   -0.4864344    -0.0003685    0.0003298     0.0000265   -0.0000148     0.0000464    0.0005739 
   0.035258804     0.3890846   -0.4851981    -0.0001764    0.0001545    -0.0001112   -0.0001240     0.0002617    0.0004275 
   0.035358829     0.3893053   -0.4805824    -0.0002639   -0.0002788     0.0000637    0.0000162     0.0004543    0.0006798 
   0.035458854     0.3904825   -0.4841484    -0.0001902    0.0004438     0.0001112    0.0000682     0.0001489    0.0005710 
   0.035558879     0.3902262   -0.4802132    -0.0005856   -0.0001847     0.0000613   -0.0000367     0.0010783    0.0002910 
   0.035658904     0.3840000   -0.4851078     0.0004281    0.0000249     0.0000330    0.0000210     0.0003823    0.0004086 
   0.035758929     0.3874126   -0.4804609     0.0000075    0.0000049    -0.0000120   -0.0000314     0.0002921    0.0005557 
   0.035858954     0.3865043   -0.4799183    -0.0001695   -0.0003405     0.0000779   -0.0000377     0.0008616    0.0005079 
   0.035958979     0.3861693   -0.4809513     0.0001223   -0.0000368    -0.0000835    0.0001422     0.0001509    0.0005399 
   0.036059005     0.3844659   -0.4794766     0.0001687    0.0003676    -0.0000343   -0.0000952     0.0003510    0.0006487 
   0.036159030     0.3823542   -0.4828979     0.0000512   -0.0006719    -0.0001473   -0.0000165     0.0002572    0.0003344 
   0.036259055     0.3776733   -0.4773319    -0.0002296   -0.0001885     0.0000268    0.0000256    -0.0000338    0.0002781 
   0.036359080     0.3758972   -0.4782625     0.0005174   -0.0002290     0.0001361    0.0000090     0.0008108    0.0003553 
   0.036459105     0.3757484   -0.4828653     0.0001043   -0.0001047    -0.0000978    0.0000087     0.0003109    0.0002023 
   0.036559130     0.3721897   -0.4750862     0.0001916    0.0000311    -0.0001305   -0.0000034     0.0002752    0.0003433 
   0.036659155     0.3712329   -0.4782351     0.0001672    0.0003397    -0.0000892   -0.0000136     0.0000385    0.0006182 
   0.036759180     0.3726656   -0.4785044     0.0001065    0.0004223     0.0000413   -0.0000482     0.0005230    0.0001258 
   0.036859205     0.3729171   -0.4785864     0.0002603    0.0000279    -0.0000662   -0.0000427     0.0000483    0.0000481 
   0.036959230     0.3674647   -0.4777802    -0.0005292    0.0002044    -0.0000847    0.0001017    -0.0001608    0.0004407 
   0.037059255     0.3687395   -0.4800434    -0.0000866   -0.0001711     0.0000913   -0.0001724     0.0005292    0.0002519 
   0.037159280     0.3662810   -0.4791331     0.0000947   -0.0000998     0.0000996    0.0000993     0.0002236    0.0006342 
   0.037259305     0.3622410   -0.4810104     0.0000033   -0.0004075     0.0000490    0.0001219     0.0003920    0.0001735 
   0.037359330     0.3654812   -0.4763727    -0.0002472    0.0001204    -0.0000666   -0.0000513     0.0001484    0.0006038 
   0.037459355     0.3618585   -0.4780118    -0.0003149   -0.0003093    -0.0000454    0.0000721     0.0006224    0.0006202 
   0.037559380     0.3620071   -0.4782420    -0.0000759   -0.0000881    -0.0000458   -0.0000610     0.0004967    0.0003399 
   0.037659405     0.3609120   -0.4751223     0.0007146   -0.0001315    -0.0000848    0.0000770     0.0001016    0.0004841 
   0.037759430     0.3580515   -0.4758315    -0.0002501    0.0003361     0.0000208   -0.0000658     0.0007667    0.0007276 
   0.037859455     0.3531609   -0.4721076     0.0004419   -0.0000015    -0.0000478    0.0000187     0.0002532    0.0007703 
   0.037959480     0.3537955   -0.4728985    -0.0001284    0.0000256     0.0000722   -0.0001138     0.0000942    0.0003190 
   0.038059505     0.3589998   -0.4736429    -0.0003204    0.0003152    -0.0001002   -0.0000486     0.0001678   -0.0001346 
   0.038159530     0.3545511   -0.4747334    -0.0002046   -0.0001479    -0.0000196   -0.0001396    -0.0000626    0.0004232 
   0.038259555     0.3522750   -0.4746546    -0.0000501    0.0000816    -0.0000230    0.0001470     0.0003916    0.0005251 
   0.038359580     0.3511916   -0.4702205    -0.0002531   -0.0000902    -0.0000793   -0.0000382     0.0009099    0.0006172 
   0.038459605     0.3516011   -0.4736761     0.0000910   -0.0002175     0.0001599    0.0000311     0.0001858    0.0003134 
   0.038559630     0.3479826   -0.4754539     0.0004143   -0.0003791     0.0000437   -0.0000882    -0.0003802    0.0004897 
   0.038659655     0.3516937   -0.4772138     0.0001333   -0.0001799    -0.0000819    0.0000910     0.0001637    0.0004193 
   0.038759680     0.3475563   -0.4702762     0.0001578   -0.0003158     0.0000103    0.0002751     0.0003443    0.0003256 
   0.038859705     0.3447292   -0.4720190    -0.0003636   -0.0001288     0.0000189    0.0000843     0.0006164    0.0002502 
   0.038959730     0.3445643   -0.4717802    -0.0004735   -0.0005749     0.0001608   -0.0001613     0.0006726    0.0002861 
   0.039059755     0.3449930   -0.4717953     0.0001505    0.0000451    -0.0000770   -0.0000047     0.0003635    0.0006318 
   0.039159780     0.3404893   -0.4718230    -0.0000239   -0.0003169     0.0000467    0.0000810     0.0001591    0.0003373 
   0.039259805     0.3416468   -0.4715182     0.0000669    0.0003009    -0.0000277    0.0000678     0.0005290   -0.0000699 
   0.039359830     0.3389045   -0.4677582    -0.0000982   -0.0001409    -0.0000252   -0.0000846     0.0001588    0.0005278 
   0.039459855     0.3361492   -0.4702902    -0.0002960    0.0005272     0.0000567    0.0001029     0.0003931    0.0004192 
   0.039559880     0.3362184   -0.4672018     0.0001931    0.0001982     0.0000742   -0.0000156     0.0004429   -0.0001396 
   0.039659905     0.3360730   -0.4663824    -0.0000160    0.0000370     0.0001458   -0.0000447    -0.0002442    0.0003706 
   0.039759930     0.3337273   -0.4691034     0.0000941   -0.0001544    -0.0001027    0.0000684     0.0004241    0.0000577 
   0.039859955     0.3349037   -0.4658766     0.0003820    0.0000391    -0.0000384    0.0001496     0.0008288    0.0000569 
   0.039959980     0.3281653   -0.4689443     0.0004204   -0.0001708     0.0000241   -0.0000617     0.0003585    0.0001790 
   0.040060005     0.3336548   -0.4661622     0.0000749   -0.0003969     0.0000477   -0.0000637     0.0003622    0.0005781 
   0.040160030     0.3273368   -0.4686310    -0.0000676    0.0000562    -0.0002422   -0.0001025     0.0004674    0.0005591 
   0.040260055     0.3300671   -0.4639279    -0.0000334   -0.0001367    -0.0001507    0.0000929     0.0006887    0.0005840 
   0.040360080     0.3269958   -0.4624573     0.0002614   -0.0001796    -0.0001251   -0.0000699     0.0001727    0.0007309 
   0.040460105     0.3295562   -0.4648395    -0.0003783    0.0001851     0.0000838    0.0000377     0.0004134    0.0008471 
   0.040560130     0.3250426   -0.4653066     0.0002026   -0.0003587    -0.0000819    0.0001412     0.0006415    0.0002198 
   0.040660155     0.3279527   -0.4676231    -0.0003596    0.0002116     0.0000379    0.0001219     0.0000749    0.0003040 
   0.040760180     0.3245765   -0.4603995     0.0002553   -0.0000206     0.0000077    0.0000321     0.0000212    0.0001898 
   0.040860205     0.3207968   -0.4635611     0.0001557    0.0001733     0.0001402    0.0000188     0.0004203    0.0006567 
   0.040960230     0.3222859   -0.4662184    -0.0002364   -0.0004070    -0.0002020   -0.0000469     0.0007931    0.0007161 
   0.041060255     0.3214385   -0.4618727    -0.0002721   -0.0002544    -0.0000711   -0.0000234     0.0001727    0.0002942 
   0.041160280     0.3178946   -0.4623421    -0.0002593   -0.0002872    -0.0000665   -0.0001356     0.0002060    0.0009579 
   0.041260305     0.3159683   -0.4637718    -0.0004798    0.0000294     0.0000364    0.0000357     0.0003148    0.0000644 
   0.041360330     0.3161224   -0.4620169     0.0000054    0.0001754     0.0000128   -0.0001260     0.0004656    0.0000167 
   0.041460355     0.3156813   -0.4609366     0.0003561    0.0002651     0.0002110   -0.0001385     0.0003570    0.0000861 
   0.041560380     0.3154541   -0.4614844    -0.0001418   -0.0005369    -0.0000638   -0.0000945     0.0006490   -0.0000881 
   0.041660405     0.3135635   -0.4615441    -0.0001558    0.0001673     0.0001303    0.0000626     0.0003650    0.0004184 
   0.041760430     0.3119316   -0.4615923     0.0006090    0.0000158    -0.0000626    0.0001720     0.0009540    0.0005151 
   0.041860455     0.3095404   -0.4598194    -0.0001484    0.0000271     0.0000932   -0.0002102     0.0004980   -0.0001144 
   0.041960480     0.3071622   -0.4627450    -0.0000896    0.0002067     0.0000157    0.0000232     0.0001346    0.0003562 
   0.042060505     0.3107109   -0.4564150     0.0000524   -0.0005798    -0.0000164    0.0000915    -0.0002174    0.0005373 
   0.042160530     0.3074355   -0.4559813    -0.0004845   -0.0003260     0.0001254    0.0000175     0.0005464    0.0000469 
   0.042260555     0.3045428   -0.4566922     0.0003043   -0.0000174     0.0000051    0.0000544     0.0001331    0.0005853 
   0.042360580     0.3068691   -0.4552785    -0.0001419    0.0002803    -0.0001066    0.0001434     0.0004413    0.0000323 
   0.042460605     0.3027734   -0.4567050     0.0003710    0.0002927     0.0001621   -0.0001837     0.0003912    0.0005161 
   0.042560630     0.3021370   -0.4599400     0.0000010    0.0001721    -0.0000794    0.0000584     0.0001076    0.0005049 
   0.042660655     0.3027243   -0.4541281     0.0000758    0.0005427     0.0000636   -0.0000191    -0.0004797    0.0004286 
   0.042760680     0.3026230   -0.4522571     0.0006970    0.0000404    -0.0000707    0.0000218     0.0003514    0.0002232 
   0.042860705     0.3000642   -0.4561756    -0.0005038   -0.0003453    -0.0001069   -0.0002264     0.0003613    0.0003210 
   0.042960730     0.2952319   -0.4523954     0.0000917    0.0004473    -0.0000029   -0.0000100     0.0005568    0.0005810 
   0.043060755     0.2972415   -0.4531306     0.0002812    0.0002839    -0.0000704    0.0000613     0.0000102    0.0001382 
   0.043160780     0.2967442   -0.4565467     0.0003779    0.0002595    -0.0001586   -0.0000220     0.0004268    0.0002730 
   0.043260805     0.2959157   -0.4555164    -0.0004767    0.0002618     0.0000847    0.0000796     0.0001087    0.0004452 
   0.043360830     0.2985164   -0.4535963     0.0000034    0.0001451    -0.0000006   -0.0000652    -0.0001126    0.0005561 
   0.043460855     0.2930530   -0.4472374     0.0002575    0.0000080     0.0000442   -0.0003880     0.0006435    0.0001653 
   0.043560880     0.2976302   -0.4494340     0.0004465    0.0000768    -0.0000913    0.0000168    -0.0000720    0.0006443 
   0.043660905     0.2976181   -0.4531700    -0.0002644   -0.0002388     0.0001583    0.0001131     0.0001218    0.0002856 
   0.043760930     0.2917117   -0.4539530    -0.0007025    0.0000380     0.0001146    0.0000392    -0.0000925    0.0003574 
   0.043860955     0.2909954   -0.4488602     0.0003138    0.0000270     0.0000870    0.0000126     0.0002066   -0.0001909 
   0.043960980     0.2875076   -0.4487340     0.0001546    0.0003846     0.0000537    0.0000498    -0.0000416    0.0006230 
   0.044061006     0.2923517   -0.4464110     0.0004684   -0.0002869    -0.0000495   -0.0000415     0.0006191   -0.0000212 
   0.044161031     0.2904201   -0.4540572     0.0000984    0.0000156    -0.0002400    0.0000526     0.0003014    0.0000827 
   0.044261056     0.2874841   -0.4517546    -0.0005880    0.0001296     0.0000234   -0.0001005    -0.0003035    0.0000516 
   0.044361081     0.2853183   -0.4460054     0.0002692    0.0002520     0.0000257   -0.0001766     0.0000138    0.0000859 
   0.044461106     0.2866564   -0.4488452    -0.0002321    0.0000202     0.0000354   -0.0000406    -0.0001197    0.0003865 
   0.044561131     0.2853955   -0.4462958     0.0002147    0.0002329     0.0002423   -0.0002504     0.0004814    0.0007417 
   0.044661156     0.2833065   -0.4493715    -0.0000244    0.0001978    -0.0001595   -0.0000346     0.0004242    0.0002662 
   0.044761181     0.2863170   -0.4464895    -0.0000580   -0.0004514    -0.0000834    0.0000925     0.0003955    0.0003163 
   0.044861206     0.2815610   -0.4471070    -0.0003909   -0.0000405     0.0000270   -0.0001363     0.0004262    0.0002057 
   0.044961231     0.2770798   -0.4468914    -0.0003721   -0.0000349     0.0000805    0.0001118    -0.0000967    0.0004876 
   0.045061256     0.2761409   -0.4477698     0.0001169   -0.0000796    -0.0000518    0.0001447    -0.0000187    0.0003041 
   0.045161281     0.2790638   -0.4434248    -0.0003222   -0.0001295    -0.0001001   -0.0000189     0.0010891    0.0005130 
   0.045261306     0.2800759   -0.4425941     0.0000019   -0.0007454     0.0001517   -0.0001023    -0.0000090    0.0001663 
   0.045361331     0.2773368   -0.4460816     0.0007977    0.0003011     0.0002136    0.0000391     0.0005733    0.0003076 
   0.045461356     0.2750311   -0.4436060    -0.0001997   -0.0006799     0.0001782    0.0002387     0.0002279    0.0003587 
   0.045561381     0.2767428   -0.4453590    -0.0001437   -0.0000445     0.0000170   -0.0001640     0.0001752    0.0007301 
   0.045661406     0.2752718   -0.4399951    -0.0003954   -0.0001637    -0.0001866    0.0002572     0.0003256    0.0003223 
   0.045761431     0.2789881   -0.4425848    -0.0006406    0.0000926    -0.0000622   -0.0001982     0.0000116    0.0003363 
   0.045861456     0.2742044   -0.4410426     0.0004092   -0.0000850    -0.0000632   -0.0001412     0.0002618    0.0002392 
   0.045961481     0.2687575   -0.4366461    -0.0003374    0.0000584    -0.0000317    0.0000850     0.0002922    0.0007463 
   0.046061506     0.2709818   -0.4417107    -0.0000188   -0.0004685    -0.0000046   -0.0000836     0.0004503   -0.0001372 
   0.046161531     0.2701364   -0.4415647    -0.0002001   -0.0003661     0.0000043    0.0000613     0.0004206    0.0000691 
   0.046261556     0.2696545   -0.4395543     0.0003119    0.0003846    -0.0000629   -0.0002094    -0.0001583    0.0003133 
   0.046361581     0.2663677   -0.4357077    -0.0000746    0.0000059     0.0000878   -0.0002791     0.0000202    0.0004053 
   0.046461606     0.2671888   -0.4397623    -0.0002928    0.0001221     0.0000536    0.0000821     0.0001378    0.0001699 
   0.046561631     0.2632743   -0.4345734     0.0004864   -0.0000473    -0.0001083    0.0001729    -0.0000229    0.0007395 
   0.046661656     0.2631838   -0.4383837    -0.0002826   -0.0005754     0.0000583    0.0000797     0.0000431    0.0004217 
   0.046761681     0.2644701   -0.4341827    -0.0000346    0.0000661     0.0000647    0.0000407     0.0000353    0.0004211 
   0.046861706     0.2634987   -0.4341139    -0.0001288   -0.0006025    -0.0000881   -0.0000475     0.0002580    0.0002117 
   0.046961731     0.2644881   -0.4337813     0.0001279   -0.0004415     0.0000551   -0.0000079     0.0004454    0.0005546 
   0.047061756     0.2644604   -0.4325786    -0.0001859    0.0004829    -0.0003906   -0.0000932     0.0003627    0.0004650 
   0.047161781     0.2624109   -0.4366505     0.0001927    0.0003865     0.0000712    0.0000064     0.0002961    0.0002497 
   0.047261806     0.2590634   -0.4358880    -0.0004768   -0.0001579     0.0000677   -0.0000103     0.0003259    0.0002927 
   0.047361831     0.2621539   -0.4367657     0.0001441   -0.0003800     0.0000014    0.0001371     0.0003612   -0.0000353 
   0.047461856     0.2586958   -0.4319906    -0.0003254    0.0004730    -0.0002300   -0.0000597     0.0001539    0.0002884 
   0.047561881     0.2623694   -0.4331283    -0.0005826    0.0003890     0.0000232    0.0001338    -0.0000619    0.0001376 
   0.047661906     0.2577475   -0.4336693     0.0000220   -0.0006208     0.0000191    0.0000453     0.0005878    0.0001901 
   0.047761931     0.2562988   -0.4334959     0.0007281    0.0000723     0.0000484    0.0001948     0.0006650    0.0004409 
   0.047861956     0.2561181   -0.4344570    -0.0002323   -0.0000817    -0.0001717    0.0000885     0.0005429    0.0004347 
   0.047961981     0.2508242   -0.4287563    -0.0005261   -0.0004808     0.0001087   -0.0002329     0.0003926    0.0000835 
   0.048062006     0.2547962   -0.4328125     0.0005256   -0.0003414     0.0001135    0.0000532     0.0000656    0.0001865 
   0.048162031     0.2515799   -0.4300740     0.0004880   -0.0001464     0.0000750   -0.0000882     0.0001966    0.0004933 
   0.048262056     0.2491588   -0.4279306    -0.0006612    0.0006140    -0.0001378    0.0000649     0.0003125   -0.0001082 
   0.048362081     0.2484309   -0.4273828     0.0005404   -0.0003930    -0.0001829    0.0002909     0.0001339    0.0001154 
   0.048462106     0.2536003   -0.4280333    -0.0003804    0.0001448     0.0000845   -0.0001459     0.0003596   -0.0002222 
   0.048562131     0.2508490   -0.4337017     0.0010519   -0.0002110     0.0000003    0.0003912     0.0004074   -0.0000482 
   0.048662156     0.2459818   -0.4279344    -0.0002495   -0.0000450     0.0000410   -0.0000356     0.0007502    0.0003574 
   0.048762181     0.2469954   -0.4242039    -0.0000660   -0.0000859     0.0000301   -0.0002572     0.0002346    0.0003519 
   0.048862206     0.2476766   -0.4309375     0.0002257    0.0008626     0.0003090    0.0000212     0.0003329   -0.0001404 
   0.048962231     0.2460980   -0.4260717     0.0003815   -0.0003240     0.0000873    0.0000870     0.0000761    0.0000339 
   0.049062256     0.2454701   -0.4277194    -0.0003599   -0.0005285    -0.0000148    0.0002563     0.0001678    0.0004817 
   0.049162281     0.2481140   -0.4245887    -0.0007851   -0.0005003     0.0002826   -0.0000291     0.0001160    0.0001281 
   0.049262306     0.2435199   -0.4276495    -0.0002066   -0.0001174     0.0000657    0.0001048    -0.0000241    0.0000353 
   0.049362331     0.2462407   -0.4265872    -0.0008900   -0.0003044    -0.0001187    0.0000770     0.0000961    0.0001735 
   0.049462356     0.2431724   -0.4237657     0.0003027    0.0007963    -0.0002144   -0.0000289     0.0000636    0.0004089 
   0.049562381     0.2420338   -0.4239690    -0.0000258    0.0001982    -0.0000258    0.0001881     0.0008184    0.0001179 
   0.049662406     0.2405792   -0.4253870     0.0006161    0.0004720    -0.0001888    0.0000197     0.0006600    0.0004045 
   0.049762431     0.2383477   -0.4238719    -0.0000816    0.0008511    -0.0001692    0.0000084     0.0000809    0.0003231 
   0.049862456     0.2383529   -0.4229452     0.0000370    0.0000069     0.0000836    0.0000040    -0.0000806    0.0002120 
   0.049962481     0.2417451   -0.4265451    -0.0002687    0.0006220    -0.0001994    0.0001924     0.0005300    0.0003052 
   0.050062506     0.2391263   -0.4222379     0.0001626   -0.0007773     0.0000247   -0.0001275     0.0003015    0.0004844 
   0.050162531     0.2353287   -0.4190399    -0.0001326    0.0008793    -0.0000391   -0.0000503     0.0002341    0.0005731 
   0.050262556     0.2391567   -0.4205942    -0.0004778   -0.0009927     0.0002329   -0.0000984     0.0003733    0.0006417 
   0.050362581     0.2351516   -0.4206409    -0.0002501    0.0002154    -0.0001157    0.0000274     0.0002206    0.0003436 
   0.050462606     0.2314325   -0.4215390    -0.0004867    0.0005080    -0.0002460    0.0000672     0.0003456    0.0002718 
   0.050562631     0.2302710   -0.4174315     0.0003522    0.0000724    -0.0001550    0.0000950    -0.0001305    0.0000713 
   0.050662656     0.2331056   -0.4230374     0.0003575   -0.0000843     0.0000920   -0.0002994     0.0005888    0.0001675 
   0.050762681     0.2266379   -0.4163767     0.0003201    0.0002635     0.0001728    0.0000216     0.0000132    0.0000948 
   0.050862706     0.2328040   -0.4181033     0.0000119    0.0001714     0.0002379   -0.0000341     0.0001507    0.0001785 
   0.050962731     0.2258117   -0.4193180    -0.0007402    0.0001343     0.0003220    0.0001153     0.0003504    0.0002948 
   0.051062756     0.2337239   -0.4209728     0.0009003   -0.0001777    -0.0000360    0.0000469    -0.0001746    0.0004422 
   0.051162781     0.2316008   -0.4180841     0.0006688    0.0006649    -0.0000425    0.0000315     0.0002997   -0.0002141 
   0.051262806     0.2266440   -0.4195718    -0.0010374   -0.0002485    -0.0000370   -0.0001393     0.0000588    0.0003429 
   0.051362831     0.2271244   -0.4176744     0.0008714    0.0001427    -0.0002031    0.0001134     0.0001104   -0.0002241 
   0.051462856     0.2258966   -0.4167893     0.0002431    0.0000210    -0.0002454   -0.0002225     0.0004242    0.0004769 
   0.051562881     0.2245662   -0.4195233     0.0004880   -0.0003197    -0.0002348   -0.0001962     0.0000177   -0.0001332 
   0.051662906     0.2259628   -0.4154623     0.0000617    0.0001855     0.0000581    0.0000941     0.0002289    0.0001003 
   0.051762931     0.2222142   -0.4139816    -0.0002395    0.0005989    -0.0000801   -0.0000410     0.0001310   -0.0000961 
   0.051862956     0.2189480   -0.4120835    -0.0007421    0.0001808    -0.0000052   -0.0000984     0.0005413    0.0002512 
   0.051962981     0.2249779   -0.4143783    -0.0000448   -0.0002321    -0.0000899    0.0000353     0.0005195   -0.0001315 
   0.052063007     0.2254566   -0.4176889    -0.0003219   -0.0004641     0.0000815   -0.0001209     0.0002753    0.0002423 
   0.052163032     0.2233241   -0.4140750    -0.0003445    0.0005230     0.0002013   -0.0000027     0.0003687   -0.0002816 
   0.052263057     0.2236787   -0.4146358     0.0003714   -0.0006436    -0.0000547   -0.0000771     0.0003257    0.0002950 
   0.052363082     0.2213804   -0.4150844     0.0000179    0.0003610    -0.0002021   -0.0000144     0.0004352    0.0000841 
   0.052463107     0.2188055   -0.4123932     0.0003799    0.0004032     0.0001018   -0.0000203     0.0005521   -0.0000663 
   0.052563132     0.2202891   -0.4083375     0.0002839    0.0004787     0.0001628   -0.0000599     0.0003879   -0.0000075 
   0.052663157     0.2220326   -0.4089074    -0.0003932   -0.0004513     0.0001725   -0.0001486     0.0001263    0.0002239 
   0.052763182     0.2182893   -0.4067492    -0.0002717   -0.0010675     0.0002177   -0.0001431    -0.0000554    0.0002892 
   0.052863207     0.2184045   -0.4119011     0.0000232   -0.0006011    -0.0002676   -0.0000721     0.0005501    0.0007077 
   0.052963232     0.2175740   -0.4066956    -0.0001203   -0.0002651     0.0000679    0.0000806     0.0002849    0.0004737 
   0.053063257     0.2173876   -0.4100736     0.0004938   -0.0002390    -0.0001419   -0.0002477     0.0004820    0.0002348 
   0.053163282     0.2155033   -0.4033649     0.0004663   -0.0000312     0.0001744   -0.0000320     0.0001274   -0.0001320 
   0.053263307     0.2130027   -0.4094493    -0.0004888    0.0007086     0.0002125   -0.0001864     0.0001654    0.0002621 
   0.053363332     0.2138731   -0.4038875    -0.0000609   -0.0002077    -0.0002530    0.0001328    -0.0002351    0.0002103 
   0.053463357     0.2161093   -0.4045498    -0.0000378    0.0001919    -0.0000496    0.0000944     0.0000054    0.0001937 
   0.053563382     0.2144421   -0.4068176     0.0007600   -0.0001571    -0.0001702   -0.0000036     0.0001940   -0.0001479 
   0.053663407     0.2132750   -0.4026826    -0.0000536    0.0000994    -0.0002152    0.0002316     0.0001560    0.0002133 
   0.053763432     0.2169230   -0.4005032     0.0003907    0.0000739     0.0000381    0.0001381     0.0006193    0.0000694 
   0.053863457     0.2113266   -0.4035378    -0.0003485   -0.0004108     0.0001525   -0.0000198    -0.0003665   -0.0000864 
   0.053963482     0.2067397   -0.4017939    -0.0001067    0.0001247    -0.0000329   -0.0001094     0.0002163   -0.0000158 
   0.054063507     0.2063695   -0.4046739    -0.0001418    0.0001120     0.0001272   -0.0001099     0.0003074    0.0002028 
   0.054163532     0.2080381   -0.4037089     0.0014011   -0.0000856    -0.0000679    0.0001488     0.0004639    0.0006148 
   0.054263557     0.2124754   -0.4037093    -0.0007020   -0.0000532     0.0002163    0.0004074     0.0001502    0.0001058 
   0.054363582     0.2062198   -0.4011650     0.0001003   -0.0002011     0.0000942   -0.0000881     0.0003692   -0.0000623 
   0.054463607     0.2070429   -0.3978352    -0.0004141   -0.0004830    -0.0000491    0.0003586    -0.0001751   -0.0002015 
   0.054563632     0.2059593   -0.4034759     0.0009167    0.0005623    -0.0001307   -0.0001916     0.0003080    0.0002907 
   0.054663657     0.2082450   -0.3982533    -0.0003406   -0.0000315    -0.0003010    0.0000521     0.0005933    0.0001581 
   0.054763682     0.2038531   -0.3994385     0.0005463    0.0006198    -0.0003836   -0.0000096     0.0005712   -0.0000443 
   0.054863707     0.2104461   -0.4013774     0.0005018   -0.0000248    -0.0001312    0.0000410     0.0003755    0.0001431 
   0.054963732     0.2069703   -0.4038626     0.0002927    0.0000130     0.0002067    0.0001349     0.0002376    0.0001270 
   0.055063757     0.1999612   -0.4030452     0.0003429   -0.0000172    -0.0000806   -0.0002341     0.0002687   -0.0001233 
   0.055163782     0.2035919   -0.4000546    -0.0005693    0.0002431    -0.0001077   -0.0002048     0.0001462   -0.0001128 
   0.055263807     0.2033086   -0.3959481     0.0001017   -0.0005686     0.0001003    0.0000809     0.0002976    0.0004045 
   0.055363832     0.2042019   -0.3968152    -0.0003675    0.0005128    -0.0002665   -0.0002581     0.0000879    0.0003763 
   0.055463857     0.1964864   -0.3986167    -0.0001971    0.0001595    -0.0000363    0.0001575     0.0005698    0.0001353 
   0.055563882     0.1971619   -0.3984920     0.0001797    0.0001639     0.0000824   -0.0000492     0.0003054    0.0005722 
   0.055663907     0.2005448   -0.3931449    -0.0000368    0.0007646     0.0002901    0.0000965     0.0002124   -0.0001784 
   0.055763932     0.2010585   -0.3977174    -0.0000317   -0.0002172     0.0001434    0.0000657     0.0002673    0.0000638 
   0.055863957     0.1970930   -0.3984401    -0.0002946   -0.0002804     0.0000098    0.0001834     0.0004502    0.0000717 
   0.055963982     0.1987241   -0.3943319     0.0008537    0.0003556     0.0002055   -0.0000104     0.0001339    0.0004466 
   0.056064007     0.1998184   -0.3930288     0.0001596   -0.0006277     0.0000896    0.0000452     0.0004952    0.0003067 
   0.056164032     0.1969632   -0.3953826    -0.0001773   -0.0007220    -0.0001896   -0.0002030     0.0005115    0.0001198 
   0.056264057     0.1987820   -0.3948445     0.0002604    0.0000754    -0.0002973    0.0001048     0.0000406    0.0001184 
   0.056364082     0.1951198   -0.3921343     0.0001236    0.0002261    -0.0002062    0.0002578     0.0004104    0.0001694 
   0.056464107     0.1961862   -0.3962383     0.0004560   -0.0005735    -0.0000302    0.0000818     0.0001165    0.0001945 
   0.056564132     0.1916160   -0.3879220    -0.0005709    0.0000012    -0.0002746    0.0002478     0.0000348   -0.0001346 
   0.056664157     0.1925499   -0.3896546     0.0003658    0.0008058     0.0002676    0.0000512    -0.0000135    0.0003931 
   0.056764182     0.1940008   -0.3934009     0.0001222    0.0002548    -0.0000389    0.0002140     0.0000904    0.0001435 
   0.056864207     0.1899416   -0.3898772     0.0001091    0.0003590     0.0000570   -0.0001181     0.0001359    0.0002608 
   0.056964232     0.1899180   -0.3936707    -0.0000210    0.0003303     0.0001278    0.0000281    -0.0000540    0.0000359 
   0.057064257     0.1927006   -0.3871862     0.0007908    0.0004165     0.0000565   -0.0000491     0.0003011    0.0002254 
   0.057164282     0.1911017   -0.3892501     0.0005265    0.0000928     0.0000813    0.0004205    -0.0000682   -0.0000582 
   0.057264307     0.1859881   -0.3903119    -0.0006702    0.0003562     0.0000393    0.0001058     0.0007556    0.0000848 
   0.057364332     0.1914067   -0.3919412    -0.0007907   -0.0004861     0.0002120   -0.0000863     0.0002034   -0.0000236 
   0.057464357     0.1896696   -0.3920355     0.0001016   -0.0011511     0.0001517    0.0000487    -0.0000552    0.0000814 
   0.057564382     0.1884768   -0.3869517    -0.0003666   -0.0002688    -0.0001622    0.0001249     0.0004474    0.0004157 
   0.057664407     0.1857134   -0.3830254     0.0004342    0.0001256     0.0000649   -0.0000750     0.0005716    0.0002917 
   0.057764432     0.1828651   -0.3867150     0.0001962   -0.0001492     0.0001810    0.0002769     0.0003811   -0.0001839 
   0.057864457     0.1867174   -0.3880771    -0.0000452    0.0000789    -0.0003111    0.0000316    -0.0000654   -0.0001109 
   0.057964482     0.1838319   -0.3839219    -0.0006323    0.0003845     0.0000640   -0.0001270    -0.0001164    0.0001765 
   0.058064507     0.1850940   -0.3877623     0.0001553   -0.0001015     0.0000520    0.0002030     0.0001038    0.0005395 
   0.058164532     0.1839091   -0.3854033    -0.0004476    0.0000651    -0.0000734   -0.0000608    -0.0001054    0.0003135 
   0.058264557     0.1824956   -0.3874764     0.0002198    0.0006956    -0.0000267   -0.0001630    -0.0004017    0.0000937 
   0.058364582     0.1835871   -0.3788619     0.0006325    0.0000773    -0.0002352    0.0000980     0.0002132   -0.0000246 
   0.058464607     0.1843987   -0.3850016    -0.0003499   -0.0007818    -0.0000843   -0.0000861     0.0001947   -0.0000691 
   0.058564632     0.1818961   -0.3837676     0.0002357   -0.0003455    -0.0003592    0.0000029     0.0006476    0.0003869 
   0.058664657     0.1845743   -0.3863150    -0.0006080    0.0000124    -0.0001061    0.0002095     0.0001586    0.0001355 
   0.058764682     0.1796153   -0.3819606    -0.0001421   -0.0007535    -0.0000153    0.0000889     0.0000732    0.0006306 
   0.058864707     0.1807190   -0.3833050    -0.0000289    0.0007881     0.0000822   -0.0001701     0.0004007    0.0002864 
   0.058964732     0.1798941   -0.3797278     0.0002752    0.0007167     0.0000791   -0.0001898     0.0003416   -0.0000092 
   0.059064757     0.1815780   -0.3814436    -0.0001531   -0.0008321     0.0001516   -0.0001682     0.0006796    0.0000144 
   0.059164782     0.1816560   -0.3823480     0.0006631   -0.0002582    -0.0001933    0.0000315     0.0002448    0.0002082 
   0.059264807     0.1786492   -0.3817780     0.0004365   -0.0000588     0.0002373   -0.0000482     0.0001006   -0.0001529 
   0.059364832     0.1757379   -0.3786182    -0.0000629    0.0000274     0.0001513    0.0002030     0.0006434   -0.0003859 
   0.059464857     0.1831027   -0.3788151    -0.0001398   -0.0002732     0.0001249    0.0001502    -0.0000496    0.0000980 
   0.059564882     0.1807280   -0.3817422    -0.0000548   -0.0000809     0.0000836    0.0000391     0.0002355   -0.0001080 
   0.059664907     0.1754605   -0.3770962     0.0002091    0.0005174     0.0002543   -0.0000646    -0.0000807    0.0005255 
   0.059764932     0.1774460   -0.3810593     0.0001004   -0.0002209     0.0000456   -0.0002457     0.0001956   -0.0004392 
   0.059864957     0.1789319   -0.3757744     0.0000514    0.0006228     0.0001120    0.0000469     0.0000178   -0.0002032 
   0.059964982     0.1758521   -0.3790964     0.0001716    0.0005831    -0.0001662   -0.0001603     0.0003954    0.0000966 
   0.060065008     0.1744054   -0.3799246    -0.0004488   -0.0004729     0.0001483    0.0001345     0.0000424   -0.0004205 
   0.060165033     0.1779664   -0.3743901     0.0000922    0.0005536    -0.0000629   -0.0001068     0.0003150    0.0000575 
   0.060265058     0.1727786   -0.3767625     0.0002200    0.0001021    -0.0001029    0.0001454     0.0000115    0.0002651 
   0.060365083     0.1675311   -0.3732240    -0.0001519   -0.0004169     0.0000676   -0.0000514     0.0005466    0.0002607 
   0.060465108     0.1740203   -0.3794146    -0.0001349    0.0006495    -0.0000463   -0.0002600     0.0003309    0.0000524 
   0.060565133     0.1717001   -0.3736969     0.0001255   -0.0006410    -0.0001993   -0.0001589     0.0000211   -0.0002225 
   0.060665158     0.1684004   -0.3764685     0.0002640    0.0000734    -0.0000644    0.0000716     0.0001893   -0.0002336 
   0.060765183     0.1727392   -0.3748600     0.0000662   -0.0003514     0.0001052   -0.0001711     0.0002182    0.0001305 
   0.060865208     0.1726289   -0.3754586    -0.0003202   -0.0001907     0.0000831   -0.0002729     0.0010136    0.0002610 
   0.060965233     0.1653721   -0.3710079    -0.0002203    0.0000288    -0.0000556   -0.0002155     0.0002496   -0.0004607 
   0.061065258     0.1716967   -0.3732011     0.0000407    0.0008239    -0.0000870   -0.0001164     0.0004365    0.0002698 
   0.061165283     0.1653473   -0.3704940    -0.0001137   -0.0000123     0.0001387   -0.0000850     0.0004027   -0.0001040 
   0.061265308     0.1665109   -0.3697154    -0.0001364    0.0000296    -0.0002551    0.0000876     0.0002541    0.0001227 
   0.061365333     0.1705817   -0.3679072     0.0000762    0.0007484    -0.0001144    0.0001284     0.0003246    0.0002361 
   0.061465358     0.1645008   -0.3681971     0.0011290   -0.0006544    -0.0001475    0.0002310     0.0001469   -0.0000105 
   0.061565383     0.1649847   -0.3662720    -0.0000858    0.0010076    -0.0004685    0.0000843     0.0001335    0.0001003 
   0.061665408     0.1667544   -0.3694925     0.0006624   -0.0002984     0.0000876   -0.0001505     0.0002821    0.0003030 
   0.061765433     0.1659142   -0.3689777     0.0005711    0.0005047     0.0000339    0.0000337    -0.0000189    0.0000718 
   0.061865458     0.1660855   -0.3656067    -0.0005583    0.0003815    -0.0001675   -0.0003330     0.0003482   -0.0000603 
   0.061965483     0.1673057   -0.3672332    -0.0000853   -0.0000240     0.0000950    0.0000406     0.0002732    0.0003692 
   0.062065508     0.1659166   -0.3663622     0.0002007   -0.0003660    -0.0000877    0.0001103     0.0004888   -0.0000921 
   0.062165533     0.1599600   -0.3636407    -0.0000505   -0.0006031    -0.0003118   -0.0000444     0.0001409    0.0001262 
   0.062265558     0.1615408   -0.3699758     0.0002441    0.0002698    -0.0001060    0.0000258     0.0003647    0.0001630 
   0.062365583     0.1644632   -0.3643715     0.0006278    0.0001573     0.0000517   -0.0001050     0.0001608   -0.0002160 
   0.062465608     0.1630912   -0.3630298     0.0007139   -0.0004460     0.0000825   -0.0000939     0.0003136   -0.0001477 
   0.062565633     0.1618232   -0.3637311     0.0004350   -0.0001675     0.0001022   -0.0001919    -0.0001107   -0.0003130 
   0.062665658     0.1590259   -0.3624949     0.0004439   -0.0000677    -0.0001388    0.0000161     0.0000440   -0.0002323 
   0.062765683     0.1646375   -0.3651939     0.0002925   -0.0002133    -0.0000869    0.0003292     0.0000395    0.0003108 
   0.062865708     0.1631974   -0.3627295     0.0004697    0.0003081    -0.0000015   -0.0000196     0.0005433    0.0000772 
   0.062965733     0.1622159   -0.3670301    -0.0004285   -0.0004638    -0.0002168    0.0001219     0.0005469    0.0000121 
   0.063065758     0.1587693   -0.3653684     0.0001637    0.0001231     0.0002472   -0.0000926     0.0004747    0.0001079 
   0.063165783     0.1623717   -0.3609104     0.0003363   -0.0001908     0.0002361   -0.0001991     0.0003105    0.0002419 
   0.063265808     0.1584291   -0.3637343    -0.0002264    0.0003166     0.0001548    0.0000624     0.0001317    0.0002792 
   0.063365833     0.1598244   -0.3656541    -0.0006250    0.0002628     0.0000614    0.0000979     0.0004251    0.0002064 
   0.063465858     0.1602586   -0.3604164    -0.0000268   -0.0005915     0.0001194    0.0000509     0.0002300    0.0005483 
   0.063565883     0.1541773   -0.3607607    -0.0004925   -0.0003945     0.0001416    0.0001640     0.0004266    0.0000369 
   0.063665908     0.1573952   -0.3612344    -0.0006264   -0.0003762     0.0000860   -0.0001243    -0.0001215    0.0001169 
   0.063765933     0.1570405   -0.3598368     0.0003909    0.0007988     0.0000813    0.0000311     0.0002364    0.0002654 
   0.063865958     0.1541489   -0.3618005    -0.0000217   -0.0000678    -0.0002405    0.0000483     0.0002736    0.0005562 
   0.063965983     0.1557994   -0.3601151     0.0003420    0.0002101     0.0001922   -0.0001082     0.0004628    0.0003165 
   0.064066008     0.1554936   -0.3598138    -0.0001346    0.0001988    -0.0000599   -0.0001665     0.0001934   -0.0002644 
   0.064166033     0.1509687   -0.3614193     0.0001341    0.0002934    -0.0001781    0.0000582     0.0000752   -0.0000219 
   0.064266058     0.1523932   -0.3560655    -0.0002918    0.0005681     0.0001162   -0.0002168     0.0002205    0.0000193 
   0.064366083     0.1545765   -0.3555952     0.0000116   -0.0008793     0.0000373   -0.0002275     0.0005914    0.0000755 
   0.064466108     0.1546626   -0.3548098    -0.0004692   -0.0001382    -0.0000250    0.0000376     0.0001851    0.0000760 
   0.064566133     0.1549765   -0.3544551    -0.0000424    0.0003226    -0.0002430    0.0000349     0.0005564    0.0004534 
   0.064666158     0.1535028   -0.3594552    -0.0000036    0.0005552    -0.0001201   -0.0001238     0.0006527    0.0002907 
   0.064766183     0.1512034   -0.3520535     0.0007365   -0.0001362    -0.0001593   -0.0001742     0.0001496   -0.0000053 
   0.064866208     0.1510400   -0.3551722     0.0000627    0.0000973     0.0001628   -0.0001978     0.0003608   -0.0003591 
   0.064966233     0.1520853   -0.3585216     0.0005668    0.0007655    -0.0001191    0.0001245     0.0002847    0.0002585 
   0.065066258     0.1533523   -0.3553243    -0.0001441    0.0000672     0.0000540    0.0003531     0.0002803   -0.0005284 
   0.065166283     0.1482877   -0.3544419    -0.0001546   -0.0000197    -0.0001257    0.0000024     0.0001971   -0.0002423 
   0.065266308     0.1507328   -0.3566249    -0.0005425    0.0006938    -0.0000291    0.0002091     0.0006738   -0.0001126 
   0.065366333     0.1503250   -0.3520030    -0.0003031    0.0002180    -0.0000512   -0.0001645     0.0005761   -0.0001801 
   0.065466358     0.1516685   -0.3523889    -0.0002072    0.0002564    -0.0000148    0.0001545     0.0001204   -0.0002022 
   0.065566383     0.1446850   -0.3541602     0.0003663   -0.0001159    -0.0003668   -0.0000441     0.0000098   -0.0001958 
   0.065666408     0.1465050   -0.3510164    -0.0010834    0.0002831    -0.0000317   -0.0001103     0.0005363   -0.0002976 
   0.065766433     0.1488389   -0.3480332     0.0000941    0.0001639     0.0000350    0.0000537     0.0000998    0.0001540 
   0.065866458     0.1431217   -0.3485539    -0.0002887   -0.0005072     0.0000853   -0.0001683     0.0007119    0.0003148 
   0.065966483     0.1515204   -0.3487051    -0.0001371    0.0004399     0.0002350    0.0000319     0.0003982    0.0000337 
   0.066066508     0.1479377   -0.3501550    -0.0001330    0.0003846     0.0000698    0.0001191     0.0003812    0.0001855 
   0.066166533     0.1492996   -0.3492352     0.0003362    0.0005006     0.0000781    0.0001400     0.0001967   -0.0000069 
   0.066266558     0.1459410   -0.3504331    -0.0003058    0.0002240    -0.0000529   -0.0001098     0.0007906   -0.0003709 
   0.066366583     0.1455315   -0.3487496    -0.0002159    0.0002196     0.0001159    0.0000730     0.0004864   -0.0000692 
   0.066466608     0.1453160   -0.3480735     0.0003799    0.0004340     0.0000075   -0.0001604     0.0003537   -0.0003264 
   0.066566633     0.1442428   -0.3495494    -0.0003454   -0.0007517    -0.0000208    0.0004027    -0.0002324   -0.0002591 
   0.066666658     0.1425908   -0.3472444    -0.0005246   -0.0007467     0.0001038   -0.0000954     0.0009132   -0.0001905 
   0.066766683     0.1449680   -0.3502378     0.0003916   -0.0002819    -0.0000935   -0.0000788     0.0004009   -0.0001302 
   0.066866708     0.1463107   -0.3526264     0.0002809    0.0004770    -0.0002244   -0.0001417    -0.0001434    0.0000265 
   0.066966733     0.1429096   -0.3475358    -0.0002700   -0.0005778    -0.0001608    0.0000077     0.0005786   -0.0000939 
   0.067066758     0.1449201   -0.3484430     0.0001085   -0.0000030    -0.0002589   -0.0000592     0.0002672    0.0001949 
   0.067166783     0.1419361   -0.3453828    -0.0004255    0.0000052    -0.0001438    0.0001217    -0.0002495    0.0002307 
   0.067266808     0.1426274   -0.3453590     0.0000801   -0.0002860    -0.0000629   -0.0000103     0.0003934   -0.0000626 
   0.067366833     0.1416090   -0.3450765    -0.0003553   -0.0002820     0.0002144    0.0000874     0.0001222    0.0003130 
   0.067466858     0.1411284   -0.3449860    -0.0005954   -0.0003718     0.0001059   -0.0000070     0.0001415    0.0001014 
   0.067566883     0.1394842   -0.3445192     0.0000548    0.0006217     0.0001737    0.0002814     0.0005937    0.0001136 
   0.067666908     0.1411607   -0.3444761    -0.0001497   -0.0001570     0.0000925   -0.0001296     0.0004191   -0.0004406 
   0.067766933     0.1398465   -0.3417140     0.0003323    0.0000968    -0.0001240   -0.0001083     0.0009382    0.0000839 
   0.067866958     0.1390895   -0.3433572     0.0002031    0.0005211     0.0000838    0.0003230     0.0004830    0.0000797 
   0.067966983     0.1408731   -0.3419101     0.0002185    0.0001276     0.0000852    0.0001666     0.0002522    0.0001558 
   0.068067009     0.1384773   -0.3400612    -0.0003224   -0.0007416     0.0000086    0.0001334     0.0003194   -0.0001088 
   0.068167034     0.1383494   -0.3402064     0.0000321    0.0004379     0.0001386   -0.0000058     0.0006785   -0.0003794 
   0.068267059     0.1369451   -0.3436169     0.0001032    0.0008324     0.0000518    0.0000603     0.0008477   -0.0000801 
   0.068367084     0.1366051   -0.3409275    -0.0002871   -0.0004289    -0.0002528   -0.0001344     0.0004798   -0.0001351 
   0.068467109     0.1367853   -0.3400531     0.0000405   -0.0002745    -0.0001997    0.0001147     0.0001263    0.0001357 
   0.068567134     0.1397685   -0.3385868    -0.0003031    0.0000279     0.0001720   -0.0001738     0.0005063   -0.0000923 
   0.068667159     0.1376603   -0.3414042    -0.0003545   -0.0010127    -0.0000111    0.0002241     0.0005089   -0.0004342 
   0.068767184     0.1390385   -0.3393629     0.0002765   -0.0002318    -0.0000032    0.0002676     0.0011642   -0.0002919 
   0.068867209     0.1349576   -0.3363901     0.0003965    0.0002311    -0.0000187    0.0001100     0.0000807    0.0001031 
   0.068967234     0.1364589   -0.3409991    -0.0002828   -0.0000582     0.0002171   -0.0001352     0.0003909   -0.0000810 
   0.069067259     0.1341847   -0.3369476     0.0002442    0.0001464     0.0001061    0.0000101     0.0000397    0.0003100 
   0.069167284     0.1351782   -0.3395650     0.0004382    0.0005005    -0.0000210    0.0001314     0.0006873   -0.0000124 
   0.069267309     0.1359271   -0.3377493     0.0005044    0.0005140    -0.0001359    0.0000077     0.0004893   -0.0000171 
   0.069367334     0.1336684   -0.3361842    -0.0002465   -0.0000470    -0.0000002   -0.0000643     0.0004339    0.0004474 
   0.069467359     0.1322469   -0.3367324     0.0000386   -0.0001138    -0.0001688   -0.0000609     0.0003409   -0.0004424 
   0.069567384     0.1331832   -0.3378657     0.0005769   -0.0004722    -0.0000360    0.0000108     0.0003914   -0.0003218 
   0.069667409     0.1297231   -0.3365166     0.0003343   -0.0001187     0.0000780    0.0001534     0.0003804    0.0004507 
   0.069767434     0.1336024   -0.3309486     0.0000444   -0.0004326     0.0001312   -0.0001192     0.0002234    0.0002730 
   0.069867459     0.1315106   -0.3330701     0.0006048   -0.0001844     0.0000541   -0.0001879    -0.0000202   -0.0006225 
   0.069967484     0.1343050   -0.3330994     0.0000885    0.0002803     0.0002727    0.0001716     0.0007616   -0.0001242 
   0.070067509     0.1314339   -0.3347812    -0.0002477    0.0005797    -0.0001638   -0.0000502     0.0002774   -0.0001219 
   0.070167534     0.1371727   -0.3359865     0.0005755   -0.0000443    -0.0003441    0.0001034    -0.0001544    0.0005225 
   0.070267559     0.1267593   -0.3339729    -0.0001626    0.0005303    -0.0001548   -0.0003314     0.0003223   -0.0000568 
   0.070367584     0.1297708   -0.3291352    -0.0003126   -0.0001559    -0.0000954   -0.0000305     0.0002407   -0.0000680 
   0.070467609     0.1305158   -0.3310218     0.0000088    0.0002449     0.0000822    0.0005100     0.0002846    0.0004098 
   0.070567634     0.1314854   -0.3315059    -0.0000190   -0.0005729     0.0001479    0.0000403     0.0002404    0.0001022 
   0.070667659     0.1277352   -0.3294084    -0.0000268   -0.0001102    -0.0002009    0.0001420     0.0000400   -0.0003036 
   0.070767684     0.1311330   -0.3279938     0.0000050   -0.0001821     0.0001127   -0.0000123     0.0004344   -0.0000389 
   0.070867709     0.1305703   -0.3318796     0.0006189    0.0001349     0.0001112    0.0001019     0.0007329    0.0002501 
   0.070967734     0.1281541   -0.3339862     0.0006267   -0.0003358    -0.0001909   -0.0000590     0.0005965   -0.0003248 
   0.071067759     0.1316748   -0.3333337    -0.0003043    0.0001971     0.0003680    0.0001557     0.0005744    0.0003653 
   0.071167784     0.1257050   -0.3287289     0.0002885    0.0006957     0.0000250   -0.0001748     0.0007919    0.0001163 
   0.071267809     0.1277198   -0.3274630     0.0001847    0.0004742     0.0000621   -0.0001885     0.0003033    0.0004568 
   0.071367834     0.1238089   -0.3272320     0.0000304   -0.0005365     0.0001382    0.0001144     0.0006141   -0.0000216 
   0.071467859     0.1274449   -0.3282280     0.0004089    0.0004246     0.0001957    0.0000761     0.0002734    0.0000262 
   0.071567884     0.1280726   -0.3283503    -0.0005018   -0.0002162    -0.0000469    0.0001677     0.0007376    0.0003208 
   0.071667909     0.1276642   -0.3288131     0.0001518    0.0001804    -0.0000758    0.0000650     0.0000800    0.0000308 
   0.071767934     0.1272481   -0.3288225     0.0004333    0.0000269     0.0000064    0.0000496    -0.0000121   -0.0000029 
   0.071867959     0.1253481   -0.3305851    -0.0003169   -0.0001763    -0.0001700    0.0000184     0.0002634    0.0004716 
   0.071967984     0.1213841   -0.3258685     0.0003884    0.0004224     0.0001041    0.0001446     0.0001334    0.0003908 
   0.072068009     0.1250782   -0.3246774    -0.0002436   -0.0006099     0.0000425   -0.0000266     0.0004705   -0.0002672 
   0.072168034     0.1250862   -0.3233536     0.0006976   -0.0001635     0.0000911    0.0000375     0.0007301   -0.0000169 
   0.072268059     0.1207979   -0.3259140    -0.0001212    0.0003192    -0.0000840   -0.0000088     0.0004535    0.0000607 
   0.072368084     0.1226851   -0.3255177    -0.0002019    0.0004321    -0.0000496   -0.0000209     0.0006081   -0.0000535 
   0.072468109     0.1192906   -0.3264909    -0.0010996    0.0003571     0.0002042   -0.0001292     0.0006256   -0.0002840 
   0.072568134     0.1233383   -0.3233958     0.0002271   -0.0002048    -0.0000216   -0.0000364     0.0008985    0.0000148 
   0.072668159     0.1243670   -0.3235215    -0.0001383   -0.0000112    -0.0000512    0.0001864     0.0005309    0.0000652 
   0.072768184     0.1222572   -0.3244619    -0.0002169    0.0000272    -0.0003321   -0.0000178     0.0003434   -0.0003724 
   0.072868209     0.1198370   -0.3234682     0.0004892   -0.0000287    -0.0001932    0.0000799    -0.0000474   -0.0001351 
   0.072968234     0.1230352   -0.3223821     0.0002770    0.0001125    -0.0000467   -0.0001516     0.0004409   -0.0000526 
   0.073068259     0.1198412   -0.3214260     0.0001946    0.0001420    -0.0000296   -0.0000728     0.0005100   -0.0000487 
   0.073168284     0.1214803   -0.3227054    -0.0005008    0.0001568     0.0001598    0.0002013     0.0004507    0.0001636 
   0.073268309     0.1210215   -0.3256663     0.0000663   -0.0003595     0.0000298    0.0001797     0.0006257    0.0002832 
   0.073368334     0.1198942   -0.3184965     0.0000317    0.0002245    -0.0003266    0.0000294     0.0005180    0.0001333 
   0.073468359     0.1224648   -0.3194469    -0.0003924    0.0004102     0.0001584    0.0000328     0.0008145    0.0000816 
   0.073568384     0.1207119   -0.3204809     0.0003493    0.0000318     0.0001660    0.0000905    -0.0000044   -0.0001491 
   0.073668409     0.1208261   -0.3152011     0.0003555    0.0000070     0.0000307    0.0001196     0.0002482    0.0001641 
   0.073768434     0.1166324   -0.3193880     0.0006108    0.0001024    -0.0000496   -0.0000192     0.0006511    0.0005807 
   0.073868459     0.1177942   -0.3209525     0.0000198   -0.0005253     0.0001144   -0.0002050     0.0001826   -0.0000010 
   0.073968484     0.1135807   -0.3191906    -0.0002557   -0.0002552    -0.0000361    0.0003579     0.0004965   -0.0002594 
   0.074068509     0.1177065   -0.3198310    -0.0008705   -0.0008047    -0.0001121    0.0001883    -0.0000451   -0.0001641 
   0.074168534     0.1213259   -0.3174128    -0.0000569   -0.0002074    -0.0001623   -0.0000609     0.0004645    0.0001331 
   0.074268559     0.1194343   -0.3183917    -0.0000250   -0.0001578     0.0000018   -0.0004696     0.0000893    0.0000849 
   0.074368584     0.1189082   -0.3159508     0.0001235   -0.0003424     0.0001408    0.0001359     0.0004554   -0.0002873 
   0.074468609     0.1173792   -0.3151142     0.0001865   -0.0004911     0.0000573   -0.0000507     0.0005440    0.0003012 
   0.074568634     0.1178510   -0.3167087    -0.0002503    0.0006728     0.0000260   -0.0000191     0.0004162    0.0002788 
   0.074668659     0.1149385   -0.3135423    -0.0002131    0.0001806     0.0002712    0.0001850     0.0005307   -0.0000112 
   0.074768684     0.1178713   -0.3119557     0.0001896    0.0002512     0.0001443   -0.0000241     0.0002583   -0.0003927 
   0.074868709     0.1132144   -0.3147401    -0.0003691    0.0008154    -0.0000557    0.0001619     0.0002186    0.0001344 
   0.074968734     0.1181346   -0.3130864     0.0001277    0.0004773     0.0000633    0.0001148     0.0004621   -0.0000071 
   0.075068759     0.1164678   -0.3153597    -0.0001505    0.0001341    -0.0000301   -0.0000248     0.0003470    0.0003494 
   0.075168784     0.1171768   -0.3164571    -0.0001065    0.0002530    -0.0000156   -0.0002265     0.0009251    0.0002610 
   0.075268809     0.1155782   -0.3112314    -0.0004409    0.0001053    -0.0000547   -0.0000117     0.0007860    0.0003212 
   0.075368834     0.1162197   -0.3128503    -0.0000290    0.0002218     0.0000273   -0.0003099     0.0004233    0.0001182 
   0.075468859     0.1130360   -0.3092887    -0.0002034    0.0003680    -0.0002653    0.0000274     0.0004933    0.0004896 
   0.075568884     0.1121188   -0.3099677    -0.0000252   -0.0002348    -0.0002111    0.0001283     0.0003710    0.0002327 
   0.075668909     0.1128792   -0.3104866    -0.0002820    0.0004143     0.0000238   -0.0000803     0.0002715    0.0003738 
   0.075768934     0.1094048   -0.3110716    -0.0001463    0.0001277    -0.0000265    0.0000365     0.0003695   -0.0001723 
   0.075868959     0.1150509   -0.3144283     0.0001370    0.0000793    -0.0002227   -0.0000495     0.0006737    0.0000799 
   0.075968984     0.1111841   -0.3120757    -0.0001225    0.0003286    -0.0002302   -0.0000906     0.0008161   -0.0005154 
   0.076069010     0.1138153   -0.3126765    -0.0001681   -0.0001060    -0.0001333    0.0000138     0.0004845    0.0000993 
   0.076169035     0.1130223   -0.3118938    -0.0002468   -0.0000853    -0.0000560    0.0000501     0.0000731    0.0000364 
   0.076269060     0.1147104   -0.3090173    -0.0002197    0.0002215    -0.0003737    0.0000434     0.0007104    0.0000430 
   0.076369085     0.1099820   -0.3102828     0.0003886   -0.0002323     0.0000536   -0.0002456     0.0006965   -0.0003980 
   0.076469110     0.1075335   -0.3070875    -0.0000354   -0.0003442     0.0000721    0.0002267     0.0004344   -0.0000141 
   0.076569135     0.1117362   -0.3056556     0.0001085   -0.0005482    -0.0001168    0.0001553     0.0005823   -0.0001856 
   0.076669160     0.1092541   -0.3065436     0.0003194   -0.0005896     0.0001776    0.0002001     0.0004672    0.0000945 
   0.076769185     0.1117754   -0.3093749    -0.0003298   -0.0001893    -0.0001548   -0.0002044     0.0007247    0.0002036 
   0.076869210     0.1109925   -0.3093461    -0.0004643   -0.0005490     0.0000669   -0.0002212     0.0004792    0.0001466 
   0.076969235     0.1091214   -0.3046802     0.0001925   -0.0000875     0.0001389   -0.0001811     0.0009566    0.0001824 
   0.077069260     0.1110862   -0.3070795    -0.0000229    0.0000761     0.0000561    0.0001273     0.0004925   -0.0002323 
   0.077169285     0.1101575   -0.3043462     0.0002208   -0.0005676    -0.0000668    0.0002115     0.0006225   -0.0001418 
   0.077269310     0.1101867   -0.3041359     0.0002208   -0.0000197     0.0001116   -0.0000810     0.0006876   -0.0006163 
   0.077369335     0.1084144   -0.3086291    -0.0008230   -0.0000539     0.0001828    0.0000979     0.0008879   -0.0000300 
   0.077469360     0.1104786   -0.3060687     0.0000222    0.0000471     0.0000244   -0.0000269     0.0005375    0.0002124 
   0.077569385     0.1091665   -0.3069030    -0.0007560    0.0000435    -0.0000827    0.0001691     0.0004297    0.0002673 
   0.077669410     0.1036978   -0.3051308     0.0000484    0.0001263     0.0000649    0.0001127     0.0002350   -0.0001968 
   0.077769435     0.1074336   -0.3032186     0.0000674    0.0000598    -0.0000216   -0.0001584     0.0008783   -0.0000776 
   0.077869460     0.1067745   -0.3051930    -0.0002588   -0.0004809    -0.0000768   -0.0002414     0.0003009   -0.0003285 
   0.077969485     0.1079922   -0.3033330    -0.0003515    0.0000624     0.0000724   -0.0001019     0.0006975    0.0000792 
   0.078069510     0.1059500   -0.3034571     0.0001708    0.0002771     0.0001892    0.0001374     0.0007484    0.0005048 
   0.078169535     0.1063014   -0.3014903     0.0000549    0.0004459     0.0000505    0.0003549     0.0006351   -0.0000878 
   0.078269560     0.1049090   -0.3021473     0.0003507   -0.0002398    -0.0001197   -0.0000710     0.0008956   -0.0000242 
   0.078369585     0.1061355   -0.2991185    -0.0000516   -0.0002451    -0.0001624   -0.0000070     0.0004151   -0.0002210 
   0.078469610     0.1067098   -0.2998182     0.0002519    0.0000128     0.0000492    0.0000831     0.0005373   -0.0001008 
   0.078569635     0.1045166   -0.3000857    -0.0000695    0.0000029     0.0000335    0.0001009     0.0005014   -0.0001378 
   0.078669660     0.1044233   -0.2985698     0.0002175    0.0002877    -0.0000291    0.0000921     0.0004973   -0.0000545 
   0.078769685     0.1052006   -0.3011887    -0.0000210   -0.0001253    -0.0000151   -0.0001099     0.0007221    0.0001060 
   0.078869710     0.1052881   -0.3024989    -0.0003046   -0.0000306    -0.0000599   -0.0001290     0.0005751    0.0001804 
   0.078969735     0.1029690   -0.2989402     0.0001969    0.0001329    -0.0001665    0.0000143     0.0007621    0.0004535 
   0.079069760     0.1045195   -0.2990565     0.0001436    0.0000301     0.0001442   -0.0001097     0.0007711   -0.0002332 
   0.079169785     0.1036609   -0.2966622    -0.0002788    0.0004997    -0.0001647   -0.0001706     0.0007911    0.0003332 
   0.079269810     0.1068082   -0.2971767    -0.0002259    0.0001062    -0.0000100   -0.0001020     0.0004022   -0.0000673 
   0.079369835     0.1027029   -0.2994578    -0.0002868    0.0000788     0.0002025    0.0001690     0.0007369    0.0005340 
   0.079469860     0.1034006   -0.3005570    -0.0000053    0.0000485     0.0000182    0.0000882     0.0006923    0.0003015 
   0.079569885     0.1025979   -0.2962686    -0.0006605    0.0003156     0.0001701   -0.0000408     0.0006013    0.0005568 
   0.079669910     0.1029911   -0.2953989    -0.0000460   -0.0002835    -0.0000194   -0.0000928     0.0003473    0.0001767 
   0.079769935     0.0992460   -0.2970859    -0.0003715    0.0000647     0.0001009    0.0001175     0.0009614   -0.0001167 
   0.079869960     0.0992006   -0.2959095     0.0001581   -0.0005322    -0.0000757   -0.0000133     0.0003043   -0.0008626 
   0.079969985     0.1028077   -0.2973795    -0.0001901    0.0006588     0.0001922   -0.0000987     0.0010207    0.0000999 
   0.080070010     0.1009064   -0.2948420    -0.0001449   -0.0005952    -0.0001624   -0.0000189     0.0004663    0.0000164 
   0.080170035     0.1026679   -0.2947937    -0.0001762    0.0004365     0.0001068   -0.0000592     0.0005708    0.0002809 
   0.080270060     0.1034271   -0.2947539     0.0004571   -0.0001129     0.0000007    0.0002491     0.0006108    0.0003537 
   0.080370085     0.1014816   -0.2931576     0.0000690    0.0002373    -0.0000448    0.0002406     0.0002906    0.0000388 
   0.080470110     0.0996760   -0.2944029     0.0000150    0.0001697    -0.0000401    0.0001661     0.0002524    0.0000041 
   0.080570135     0.1003737   -0.2971076    -0.0000742    0.0000577    -0.0001052    0.0002858     0.0006689    0.0000430 
   0.080670160     0.0991323   -0.2930610     0.0006419   -0.0007288    -0.0000047   -0.0000432     0.0006336   -0.0002814 
   0.080770185     0.0991427   -0.2925339     0.0006441    0.0002153     0.0000377    0.0000926     0.0007545   -0.0000888 
   0.080870210     0.0982488   -0.2908181    -0.0005171    0.0000278     0.0001483    0.0000447     0.0007075   -0.0001160 
   0.080970235     0.1000865   -0.2926382     0.0004562   -0.0002741     0.0002456    0.0001978     0.0002203    0.0001003 
   0.081070260     0.0968941   -0.2906596    -0.0002505    0.0000640     0.0000748    0.0002812     0.0010794   -0.0001778 
   0.081170285     0.0986786   -0.2909888     0.0000877   -0.0001228    -0.0002931    0.0000350     0.0003538    0.0000694 
   0.081270310     0.0986839   -0.2912846     0.0004284   -0.0002670    -0.0001378   -0.0001498     0.0005377    0.0004040 
   0.081370335     0.0954677   -0.2910669     0.0004389    0.0001883    -0.0002286   -0.0000715     0.0007492    0.0002126 
   0.081470360     0.0975421   -0.2912297     0.0006236   -0.0000435     0.0000885   -0.0001024     0.0007722    0.0001231 
   0.081570385     0.0998098   -0.2913776    -0.0002325   -0.0001168    -0.0001390   -0.0000929     0.0002796   -0.0000248 
   0.081670410     0.0981640   -0.2893849     0.0000152    0.0003775     0.0001790    0.0000718     0.0005929   -0.0001081 
   0.081770435     0.0981214   -0.2893194    -0.0001660   -0.0001644     0.0002144    0.0000718     0.0008119    0.0005568 
   0.081870460     0.0962988   -0.2875651    -0.0003662    0.0000354     0.0002255    0.0000688     0.0007505    0.0002884 
   0.081970485     0.0998186   -0.2895865     0.0001605   -0.0000697    -0.0001125   -0.0000844     0.0002412    0.0002147 
   0.082070510     0.0953301   -0.2879305     0.0004439    0.0002734    -0.0000249    0.0002133     0.0006373   -0.0000575 
   0.082170535     0.0945479   -0.2894819     0.0003890   -0.0000673     0.0001960   -0.0001457     0.0004544    0.0000176 
   0.082270560     0.0961917   -0.2886456     0.0003395   -0.0001824    -0.0000222    0.0001348     0.0012896   -0.0000215 
   0.082370585     0.0954322   -0.2897526     0.0002341   -0.0002508     0.0002358   -0.0000516     0.0010631    0.0002375 
   0.082470610     0.0961719   -0.2905266     0.0003029   -0.0000484    -0.0003837   -0.0003206     0.0006766    0.0001423 
   0.082570635     0.0966289   -0.2862000    -0.0001318    0.0002866    -0.0000565   -0.0000632     0.0001016    0.0004982 
   0.082670660     0.0929470   -0.2861940     0.0002803    0.0001412    -0.0000374    0.0001270     0.0001836   -0.0005243 
   0.082770685     0.0918834   -0.2861826     0.0001856    0.0001550     0.0000322    0.0000287     0.0005961    0.0005875 
   0.082870710     0.0911485   -0.2856334    -0.0000864   -0.0000224     0.0001499    0.0000631     0.0010021   -0.0001193 
   0.082970735     0.0931222   -0.2866723     0.0004488   -0.0002064     0.0001288   -0.0001936     0.0010439   -0.0000894 
   0.083070760     0.0934506   -0.2832356    -0.0000383   -0.0001258    -0.0000312   -0.0001134     0.0007539    0.0004479 
   0.083170785     0.0932243   -0.2841391    -0.0001694   -0.0001688     0.0000557    0.0000075     0.0008259    0.0001200 
   0.083270810     0.0927874   -0.2841406     0.0001190    0.0001394    -0.0000146   -0.0000754     0.0005924    0.0004970 
   0.083370835     0.0912769   -0.2844358     0.0001506    0.0000084    -0.0001344    0.0000450     0.0006358   -0.0002347 
   0.083470860     0.0928368   -0.2841175     0.0000786   -0.0001037     0.0000054   -0.0000339     0.0005365    0.0002454 
   0.083570885     0.0945007   -0.2826409     0.0002649    0.0002371    -0.0000160   -0.0000714     0.0005446    0.0001617 
   0.083670910     0.0919450   -0.2826174     0.0000298   -0.0004792    -0.0001209    0.0001144     0.0003156   -0.0001146 
   0.083770935     0.0922012   -0.2810997     0.0003053   -0.0005076    -0.0001847   -0.0001184     0.0005428   -0.0000500 
   0.083870960     0.0922765   -0.2832349    -0.0005124   -0.0000382    -0.0002024    0.0000449     0.0003678    0.0001652 
   0.083970985     0.0941038   -0.2808046     0.0001983    0.0001984     0.0001579   -0.0000059     0.0004107    0.0003847 
   0.084071011     0.0931563   -0.2809867     0.0004845    0.0000620    -0.0001217   -0.0001241     0.0007617   -0.0005614 
   0.084171036     0.0925515   -0.2823822    -0.0000155    0.0000245    -0.0001667    0.0000910     0.0007709    0.0004780 
   0.084271061     0.0904633   -0.2817367     0.0002613   -0.0002086    -0.0001412    0.0000220     0.0004276    0.0003506 
   0.084371086     0.0898466   -0.2833160    -0.0000047   -0.0002813    -0.0000171    0.0001110     0.0008435    0.0003555 
   0.084471111     0.0935044   -0.2794422     0.0005269   -0.0001054     0.0001881    0.0001279     0.0007702    0.0002524 
   0.084571136     0.0919062   -0.2814783    -0.0001761   -0.0002687    -0.0001238    0.0002037     0.0006068    0.0006656 
   0.084671161     0.0896494   -0.2783880    -0.0000440   -0.0002225    -0.0000732   -0.0000692     0.0007826    0.0000752 
   0.084771186     0.0901352   -0.2797295     0.0002813    0.0002626     0.0000355    0.0001574     0.0007460    0.0004407 
   0.084871211     0.0900311   -0.2800767     0.0001230   -0.0004209     0.0000143    0.0000592     0.0004295    0.0003116 
   0.084971236     0.0891142   -0.2768508     0.0003720    0.0004719    -0.0001748    0.0000572     0.0007209    0.0001480 
   0.085071261     0.0899077   -0.2795599    -0.0000264   -0.0001241    -0.0000401    0.0000664     0.0008994    0.0003032 
   0.085171286     0.0899963   -0.2781470    -0.0002860   -0.0003503     0.0000304    0.0001483     0.0008458   -0.0003146 
   0.085271311     0.0882386   -0.2768500    -0.0001536   -0.0000517     0.0000863    0.0001012     0.0003551    0.0001392 
   0.085371336     0.0875118   -0.2788537     0.0007282    0.0001990     0.0002203   -0.0000145     0.0005954    0.0001323 
   0.085471361     0.0891251   -0.2762157     0.0001580   -0.0000296    -0.0000050   -0.0001215     0.0006022    0.0001863 
   0.085571386     0.0859242   -0.2796373     0.0002568   -0.0002038     0.0001634    0.0000056     0.0006234    0.0000088 
   0.085671411     0.0864594   -0.2775412     0.0001638    0.0002996     0.0001271   -0.0000114     0.0007700   -0.0000858 
   0.085771436     0.0893861   -0.2787563    -0.0002766    0.0003013    -0.0001472   -0.0001476     0.0004947   -0.0001371 
   0.085871461     0.0869894   -0.2757629    -0.0001669   -0.0004450    -0.0000777    0.0000274     0.0006201    0.0003155 
   0.085971486     0.0866250   -0.2757592     0.0002894    0.0004778     0.0003113    0.0000378     0.0010772    0.0001506 
   0.086071511     0.0872104   -0.2767886     0.0004711   -0.0000434    -0.0000506   -0.0001088     0.0008320    0.0000905 
   0.086171536     0.0882392   -0.2729815     0.0000191   -0.0001542     0.0000727    0.0002498     0.0006288    0.0002322 
   0.086271561     0.0882491   -0.2725491     0.0001469   -0.0000338    -0.0000949    0.0000872     0.0002527    0.0001232 
   0.086371586     0.0853280   -0.2744498    -0.0000004    0.0002045    -0.0001634   -0.0000034     0.0006953    0.0002869 
   0.086471611     0.0882422   -0.2732415    -0.0005405   -0.0001517    -0.0000091    0.0000407     0.0003565    0.0001292 
   0.086571636     0.0859598   -0.2736833     0.0002491   -0.0001557     0.0000092    0.0001040     0.0003880    0.0003319 
   0.086671661     0.0863073   -0.2742685    -0.0006138   -0.0003508     0.0001299    0.0000808     0.0008868    0.0003149 
   0.086771686     0.0844721   -0.2740485    -0.0001879    0.0004085    -0.0001801   -0.0001937     0.0006476    0.0000497 
   0.086871711     0.0860236   -0.2739787     0.0001346   -0.0004028    -0.0001137   -0.0002335     0.0006338   -0.0003030 
   0.086971736     0.0854717   -0.2720471     0.0001860    0.0001852     0.0000216   -0.0000808     0.0008630    0.0001191 
   0.087071761     0.0845254   -0.2748299     0.0000466    0.0001374     0.0000241   -0.0001049     0.0004646   -0.0002295 
   0.087171786     0.0871613   -0.2734168    -0.0002198   -0.0000771    -0.0001076   -0.0000042     0.0006688    0.0002229 
   0.087271811     0.0857683   -0.2726521     0.0001095   -0.0005381     0.0002058    0.0001111     0.0005051   -0.0005333 
   0.087371836     0.0858504   -0.2690087    -0.0000988   -0.0003255    -0.0001099    0.0000155     0.0005139    0.0000164 
   0.087471861     0.0864436   -0.2711503    -0.0001405    0.0000541    -0.0002081    0.0000366     0.0003164   -0.0000240 
   0.087571886     0.0832669   -0.2699008     0.0004403    0.0003723     0.0000030    0.0000893     0.0004536   -0.0001495 
   0.087671911     0.0870682   -0.2690755     0.0002797   -0.0001608    -0.0001272   -0.0000975     0.0005923   -0.0002541 
   0.087771936     0.0829248   -0.2666307    -0.0001441    0.0003396     0.0001847    0.0000542     0.0008635   -0.0000492 
   0.087871961     0.0849355   -0.2701940     0.0003142   -0.0001443    -0.0000364    0.0001555     0.0007217   -0.0003087 
   0.087971986     0.0847767   -0.2694675     0.0000840   -0.0001512     0.0000009    0.0003648     0.0003171   -0.0000617 
   0.088072011     0.0853813   -0.2704268     0.0000627   -0.0002693    -0.0001663   -0.0000335     0.0004816    0.0001064 
   0.088172036     0.0818161   -0.2682784    -0.0001269   -0.0001199     0.0001318   -0.0004364     0.0004063    0.0003610 
   0.088272061     0.0829260   -0.2677243    -0.0003338    0.0001196    -0.0000768    0.0001553     0.0009013   -0.0003946 
   0.088372086     0.0825623   -0.2664722     0.0000169    0.0004271    -0.0001014    0.0000963     0.0004854   -0.0001757 
   0.088472111     0.0821782   -0.2668690     0.0000990    0.0000046    -0.0001101   -0.0000586     0.0008064    0.0003827 
   0.088572136     0.0831341   -0.2684555     0.0000538    0.0002272    -0.0000654    0.0000953     0.0003657    0.0000176 
   0.088672161     0.0828474   -0.2681392    -0.0004544    0.0000041     0.0002527   -0.0000786     0.0011110    0.0001047 
   0.088772186     0.0817650   -0.2665047     0.0003446   -0.0000767    -0.0001151   -0.0001290     0.0008219    0.0002657 
   0.088872211     0.0808925   -0.2636593     0.0004317   -0.0002755    -0.0000291    0.0000959     0.0011473    0.0001639 
   0.088972236     0.0816977   -0.2666805    -0.0003982    0.0000305     0.0001442    0.0001065     0.0009537    0.0003127 
   0.089072261     0.0798744   -0.2640086     0.0000628   -0.0000665     0.0000198    0.0001402     0.0008417   -0.0002327 
   0.089172286     0.0828637   -0.2650725     0.0002791    0.0000458     0.0003012   -0.0001265     0.0007472   -0.0001725 
   0.089272311     0.0806703   -0.2648804     0.0007587   -0.0000136    -0.0000714    0.0000432     0.0003035    0.0001953 
   0.089372336     0.0822448   -0.2638801     0.0002022   -0.0001237    -0.0000116    0.0000599     0.0007499   -0.0003329 
   0.089472361     0.0799620   -0.2618577    -0.0003494   -0.0001445     0.0000754    0.0000313     0.0007959   -0.0004912 
   0.089572386     0.0825566   -0.2632694    -0.0004459   -0.0002651    -0.0000160   -0.0000071     0.0006049    0.0003822 
   0.089672411     0.0806094   -0.2641225    -0.0000046    0.0000992     0.0000697   -0.0001328     0.0009410    0.0008090 
   0.089772436     0.0786538   -0.2633488     0.0003880    0.0002769     0.0001073    0.0000881     0.0010480    0.0004121 
   0.089872461     0.0789348   -0.2638674     0.0004224   -0.0001472    -0.0000154    0.0002327     0.0007844    0.0003426 
   0.089972486     0.0791685   -0.2630230    -0.0001941    0.0001709    -0.0002183    0.0000069     0.0003862    0.0001963 
   0.090072511     0.0799907   -0.2624045     0.0001123   -0.0003110     0.0001367    0.0000429     0.0009126   -0.0003423 
   0.090172536     0.0769938   -0.2617021     0.0001071   -0.0002752    -0.0000199    0.0000808     0.0008907    0.0001505 
   0.090272561     0.0797121   -0.2643220    -0.0002492    0.0003547    -0.0000070   -0.0000963     0.0006894    0.0003045 
   0.090372586     0.0791862   -0.2613054    -0.0004473    0.0000089    -0.0000140    0.0000171     0.0003842    0.0001740 
   0.090472611     0.0802618   -0.2601341    -0.0000176   -0.0002799     0.0000059   -0.0001198     0.0010484    0.0002559 
   0.090572636     0.0795617   -0.2628052    -0.0001021   -0.0000269    -0.0000924   -0.0001602     0.0007258   -0.0001713 
   0.090672661     0.0762050   -0.2609020    -0.0001234    0.0001073     0.0000587    0.0000482     0.0012088   -0.0000609 
   0.090772686     0.0780356   -0.2615006    -0.0003101   -0.0001433     0.0000465   -0.0000676     0.0008270    0.0005405 
   0.090872711     0.0797747   -0.2604282    -0.0002207   -0.0001847     0.0001959   -0.0000090     0.0005212    0.0000329 
   0.090972736     0.0781878   -0.2610691     0.0005127   -0.0001495    -0.0001396   -0.0001994     0.0005410    0.0001561 
   0.091072761     0.0775611   -0.2598395    -0.0003365    0.0002804    -0.0000107   -0.0001414     0.0004598    0.0003837 
   0.091172786     0.0786865   -0.2584717     0.0001986   -0.0002971    -0.0001743    0.0003237     0.0007483    0.0000100 
   0.091272811     0.0789651   -0.2589612    -0.0000060   -0.0000888     0.0001711    0.0000703     0.0006481    0.0000195 
   0.091372836     0.0768225   -0.2562419     0.0000694    0.0001168    -0.0000087   -0.0000331     0.0004464    0.0001165 
   0.091472861     0.0755666   -0.2590196    -0.0002397   -0.0000207    -0.0001439   -0.0001538     0.0010647   -0.0001469 
   0.091572886     0.0795590   -0.2583044     0.0001597   -0.0000498     0.0000337    0.0000347     0.0009599    0.0003385 
   0.091672911     0.0757201   -0.2573761    -0.0002016   -0.0001346     0.0001468    0.0001394     0.0006652    0.0001082 
   0.091772936     0.0763475   -0.2581813     0.0002821    0.0001752     0.0000660    0.0000565     0.0007938    0.0000566 
   0.091872961     0.0761654   -0.2581753     0.0003708   -0.0000453    -0.0001619   -0.0000876     0.0009154    0.0000433 
   0.091972986     0.0780393   -0.2574245    -0.0000618   -0.0000838    -0.0001083   -0.0002333     0.0003430   -0.0001002 
   0.092073012     0.0762769   -0.2558695     0.0001721   -0.0000912     0.0002661    0.0000381     0.0002454    0.0000208 
   0.092173037     0.0758471   -0.2556984     0.0002864    0.0001562     0.0000688    0.0001448     0.0008188    0.0001298 
   0.092273062     0.0763639   -0.2573711    -0.0000427   -0.0001215     0.0001204   -0.0000227     0.0009695    0.0002303 
   0.092373087     0.0779757   -0.2573022    -0.0001283    0.0000929    -0.0001420    0.0001410     0.0005955    0.0002677 
   0.092473112     0.0757470   -0.2557846     0.0000108    0.0000705    -0.0000045   -0.0002883     0.0007638    0.0004816 
   0.092573137     0.0742403   -0.2533782    -0.0004717    0.0000584     0.0001247   -0.0000016     0.0004934   -0.0004864 
   0.092673162     0.0736051   -0.2557253     0.0002108    0.0000499    -0.0000138   -0.0000834     0.0000588   -0.0001345 
   0.092773187     0.0732540   -0.2541438     0.0001283   -0.0001456     0.0001361   -0.0000222     0.0009965    0.0002436 
   0.092873212     0.0752644   -0.2543374     0.0003469   -0.0001975    -0.0000359   -0.0001544     0.0011016    0.0005765 
   0.092973237     0.0747632   -0.2537059     0.0000734    0.0001946     0.0000404    0.0000469     0.0004373    0.0000940 
   0.093073262     0.0749393   -0.2524493     0.0000725    0.0003418     0.0000044    0.0001936     0.0007533    0.0002190 
   0.093173287     0.0753605   -0.2528067     0.0001088    0.0000911     0.0000884   -0.0000003     0.0001171    0.0006999 
   0.093273312     0.0744622   -0.2540117     0.0001099   -0.0000535    -0.0001034   -0.0001993     0.0006795    0.0003809 
   0.093373337     0.0723715   -0.2507484    -0.0002140   -0.0000325     0.0001565    0.0000846     0.0007634    0.0001540 
   0.093473362     0.0734571   -0.2536325    -0.0000471   -0.0001142    -0.0001096   -0.0001775     0.0008387    0.0001916 
   0.093573387     0.0750385   -0.2519934     0.0000975    0.0001436    -0.0001035    0.0000249     0.0006260   -0.0000989 
   0.093673412     0.0748640   -0.2508600    -0.0002140   -0.0000242    -0.0000182    0.0001012     0.0006816    0.0003767 
   0.093773437     0.0744174   -0.2517196     0.0001996    0.0000646    -0.0000594   -0.0000879     0.0005840    0.0002270 
   0.093873462     0.0736256   -0.2506361     0.0002016    0.0000131     0.0002708   -0.0000694     0.0006572    0.0001167 
   0.093973487     0.0722927   -0.2502498    -0.0003588   -0.0000586     0.0000526    0.0000637     0.0006386    0.0001250 
   0.094073512     0.0727639   -0.2525865     0.0000056   -0.0000727    -0.0000359    0.0001196     0.0008553    0.0004598 
   0.094173537     0.0717689   -0.2503968    -0.0000115   -0.0000778    -0.0002395    0.0000186     0.0007974    0.0003400 
   0.094273562     0.0734042   -0.2486901     0.0004466    0.0001454    -0.0000104   -0.0000556     0.0002435   -0.0000190 
   0.094373587     0.0732615   -0.2480666    -0.0000592   -0.0003350     0.0001886    0.0000390     0.0008118    0.0001107 
   0.094473612     0.0723895   -0.2515762    -0.0004093   -0.0001279    -0.0000049    0.0000211     0.0007324    0.0006457 
   0.094573637     0.0712879   -0.2498871    -0.0003064   -0.0001510     0.0001288   -0.0000254     0.0006444    0.0003114 
   0.094673662     0.0724215   -0.2501961    -0.0000494   -0.0001723     0.0000570    0.0001347     0.0004297    0.0000334 
   0.094773687     0.0741153   -0.2506551    -0.0001994    0.0004681     0.0001646   -0.0000327     0.0007489    0.0001420 
   0.094873712     0.0716891   -0.2487206    -0.0001438    0.0000233     0.0000482    0.0000467     0.0007050    0.0000611 
   0.094973737     0.0717671   -0.2479677     0.0000124   -0.0003877     0.0001400    0.0000777     0.0007108    0.0003828 
   0.095073762     0.0707950   -0.2487651     0.0003250   -0.0001829     0.0000773   -0.0001086     0.0009806    0.0002455 
   0.095173787     0.0712073   -0.2493430    -0.0003170   -0.0000027     0.0000466   -0.0000837     0.0009999    0.0004591 
   0.095273812     0.0698126   -0.2475807     0.0000464    0.0004193    -0.0000237    0.0000591     0.0007628   -0.0001703 
   0.095373837     0.0713794   -0.2470473     0.0000266    0.0002145     0.0000367    0.0001119     0.0006856   -0.0001389 
   0.095473862     0.0709035   -0.2490631    -0.0003480    0.0001790    -0.0000386   -0.0000251     0.0005828    0.0000030 
   0.095573887     0.0727325   -0.2471580    -0.0000062   -0.0003206     0.0001063    0.0002192     0.0007194    0.0002660 
   0.095673912     0.0722368   -0.2471618     0.0002185   -0.0000786     0.0000838   -0.0000362     0.0005202    0.0000858 
   0.095773937     0.0714484   -0.2456723    -0.0004242   -0.0003222    -0.0002226    0.0000115     0.0006924    0.0000395 
   0.095873962     0.0682531   -0.2461060    -0.0001886    0.0003527     0.0001867    0.0000150     0.0006896    0.0000771 
   0.095973987     0.0700058   -0.2457002    -0.0001647   -0.0001556    -0.0000011    0.0000978     0.0007404    0.0003832 
   0.096074012     0.0703790   -0.2463343    -0.0001137   -0.0000357    -0.0000806   -0.0000996     0.0010715    0.0000186 
   0.096174037     0.0700361   -0.2436503    -0.0001224   -0.0000191    -0.0001448    0.0001403     0.0007278    0.0002418 
   0.096274062     0.0712816   -0.2442353    -0.0003579   -0.0002606    -0.0000888    0.0000479     0.0009758    0.0001903 
   0.096374087     0.0697828   -0.2445171     0.0007514   -0.0001935    -0.0000498   -0.0000822     0.0007796    0.0001351 
   0.096474112     0.0703744   -0.2446288    -0.0000050   -0.0001527     0.0000108   -0.0001229     0.0008612    0.0004776 
   0.096574137     0.0699024   -0.2447964     0.0001616   -0.0000489    -0.0002714   -0.0001415     0.0005559    0.0003003 
   0.096674162     0.0690213   -0.2417935     0.0001204   -0.0002163    -0.0000342    0.0001526     0.0006593    0.0005772 
   0.096774187     0.0689758   -0.2432158     0.0000974   -0.0001706    -0.0001762    0.0001238     0.0008024    0.0004551 
   0.096874212     0.0699708   -0.2430119     0.0001942    0.0001398     0.0001311   -0.0002249     0.0006647    0.0006398 
   0.096974237     0.0689803   -0.2408338    -0.0001963   -0.0000220    -0.0000492    0.0001860     0.0007414    0.0003822 
   0.097074262     0.0679564   -0.2422167     0.0000129   -0.0002071    -0.0000070    0.0000928     0.0009692    0.0001376 
   0.097174287     0.0686504   -0.2430334     0.0004385    0.0004378     0.0000081    0.0001614     0.0007296    0.0003942 
   0.097274312     0.0695221   -0.2426277    -0.0000229   -0.0003666     0.0000591    0.0000794     0.0007643    0.0005104 
   0.097374337     0.0686754   -0.2415829     0.0003311   -0.0002184     0.0001056   -0.0001557     0.0005325    0.0002561 
   0.097474362     0.0678724   -0.2409676     0.0004885    0.0003034    -0.0001357   -0.0001885     0.0005499   -0.0001909 
   0.097574387     0.0678331   -0.2407149     0.0002999    0.0001165     0.0000265   -0.0001212     0.0005882    0.0002503 
   0.097674412     0.0689668   -0.2398809     0.0000317    0.0002011     0.0000653    0.0000092     0.0009350    0.0007449 
   0.097774437     0.0688823   -0.2404988    -0.0000626    0.0002617     0.0000429   -0.0001543     0.0005840    0.0002321 
   0.097874462     0.0690246   -0.2410002    -0.0000075    0.0003645    -0.0001181    0.0002392     0.0006971    0.0005344 
   0.097974487     0.0674823   -0.2399983    -0.0001830   -0.0004200    -0.0001620    0.0003275     0.0010681    0.0003181 
   0.098074512     0.0669126   -0.2378569     0.0002480   -0.0001974     0.0000280    0.0000914     0.0005128    0.0003424 
   0.098174537     0.0660939   -0.2392881    -0.0000893    0.0000278     0.0000059    0.0000324     0.0004760    0.0007691 
   0.098274562     0.0669530   -0.2390087    -0.0000981   -0.0000518    -0.0000428    0.0001687     0.0008926    0.0002857 
   0.098374587     0.0660325   -0.2366986    -0.0002146    0.0002589     0.0001417   -0.0002324     0.0007816   -0.0002516 
   0.098474612     0.0662558   -0.2383473     0.0000013   -0.0001401     0.0000553    0.0001404     0.0009167    0.0004028 
   0.098574637     0.0657141   -0.2381143     0.0000209   -0.0001102    -0.0001445    0.0001863     0.0009170    0.0008007 
   0.098674662     0.0663287   -0.2370826    -0.0000107   -0.0000028     0.0000718   -0.0000514     0.0005551   -0.0002388 
   0.098774687     0.0662217   -0.2372828     0.0000052   -0.0000989     0.0000092   -0.0001373     0.0006688    0.0001662 
   0.098874712     0.0666945   -0.2370692     0.0001124   -0.0000722    -0.0001591   -0.0001369     0.0008508    0.0002605 
   0.098974737     0.0660587   -0.2357739     0.0002970   -0.0002178    -0.0000274   -0.0000752     0.0011126    0.0007086 
   0.099074762     0.0661469   -0.2357018    -0.0002114    0.0001484    -0.0000317    0.0000860     0.0009616    0.0002964 
   0.099174787     0.0666880   -0.2353898     0.0000448   -0.0001273    -0.0000113   -0.0000523     0.0009808    0.0003235 
   0.099274812     0.0654715   -0.2366479    -0.0000895   -0.0002285    -0.0000570   -0.0000514     0.0011767    0.0001043 
   0.099374837     0.0654150   -0.2352750     0.0000274    0.0000050     0.0000499    0.0001376     0.0008656    0.0004707 
   0.099474862     0.0645377   -0.2351190     0.0001983   -0.0001797     0.0000543    0.0000311     0.0006265    0.0004563 
   0.099574887     0.0662563   -0.2357305     0.0000119    0.0001981     0.0001341    0.0000256     0.0011178    0.0003487 
   0.099674912     0.0650389   -0.2366277     0.0001701   -0.0001789    -0.0000119    0.0001563     0.0005557    0.0001650 
   0.099774937     0.0637256   -0.2351989     0.0000940   -0.0000669     0.0001219    0.0000001     0.0006181    0.0002107 
   0.099874962     0.0667406   -0.2354353    -0.0000330    0.0001242     0.0002498    0.0000096     0.0007951   -0.0000387 
   0.099974987     0.0652874   -0.2336584     0.0001956   -0.0000033    -0.0001213    0.0000190     0.0006038    0.0005059 
   0.100075013     0.0642664   -0.2346426     0.0002547   -0.0002685    -0.0001448   -0.0000368     0.0007062    0.0001686 
   0.100175038     0.0652307   -0.2326062    -0.0003852    0.0000156    -0.0001694   -0.0000865     0.0007098    0.0000663 
   0.100275063     0.0633901   -0.2328724    -0.0000350   -0.0002438    -0.0000159    0.0000961     0.0004409    0.0001095 
   0.100375088     0.0630189   -0.2330462    -0.0003597    0.0000345    -0.0001188    0.0000477     0.0005660    0.0000588 
   0.100475113     0.0622365   -0.2333308     0.0000259    0.0003861     0.0001777   -0.0000078     0.0005766    0.0006561 
   0.100575138     0.0645325   -0.2322866     0.0001006    0.0002823     0.0001594   -0.0000112     0.0007240    0.0007470 
   0.100675163     0.0632702   -0.2327151     0.0002746   -0.0003770     0.0001569   -0.0001007     0.0009857    0.0001735 
   0.100775188     0.0643405   -0.2325166     0.0002744   -0.0000430    -0.0000363   -0.0000078     0.0002528    0.0002856 
   0.100875213     0.0642816   -0.2315270     0.0000192    0.0001497    -0.0000365   -0.0000273     0.0006760    0.0004804 
   0.100975238     0.0622846   -0.2294160     0.0002616    0.0000243    -0.0000717   -0.0000329     0.0005238   -0.0001603 
   0.101075263     0.0624339   -0.2310384    -0.0000858    0.0001337     0.0001205    0.0001303     0.0005302   -0.0000429 
   0.101175288     0.0634567   -0.2305731    -0.0002987    0.0001136     0.0000587   -0.0000356     0.0007235    0.0004281 
   0.101275313     0.0628016   -0.2304669    -0.0001327   -0.0000652    -0.0000620   -0.0000590     0.0002900    0.0007984 
   0.101375338     0.0648629   -0.2302742    -0.0000963    0.0000263    -0.0001396    0.0000694     0.0006757   -0.0001463 
   0.101475363     0.0624006   -0.2312341     0.0002110   -0.0000345    -0.0001297    0.0000919     0.0007080    0.0007902 
   0.101575388     0.0617311   -0.2296111    -0.0000950    0.0000359     0.0000190   -0.0002320     0.0003023    0.0003207 
   0.101675413     0.0628701   -0.2304606    -0.0001603    0.0002252     0.0002110   -0.0002062     0.0011090    0.0002906 
   0.101775438     0.0625218   -0.2309877     0.0000330   -0.0000698    -0.0001023    0.0001478     0.0006213    0.0002840 
   0.101875463     0.0631037   -0.2277118    -0.0000776   -0.0001061     0.0001293   -0.0000194     0.0008112    0.0006172 
   0.101975488     0.0620433   -0.2280064     0.0003978   -0.0000243    -0.0001596    0.0000349     0.0006799    0.0001019 
   0.102075513     0.0613527   -0.2289726     0.0001605   -0.0002709     0.0000916    0.0001247     0.0006325    0.0005996 
   0.102175538     0.0617425   -0.2291976     0.0001542   -0.0001758     0.0000115    0.0000922     0.0008976   -0.0001545 
   0.102275563     0.0625276   -0.2273047     0.0000012   -0.0000259     0.0000052    0.0000988     0.0005862    0.0010359 
   0.102375588     0.0604595   -0.2283802    -0.0004794    0.0000398    -0.0000318    0.0000568     0.0011979    0.0003659 
   0.102475613     0.0624211   -0.2283830     0.0003417    0.0002476     0.0001790    0.0000423     0.0008349    0.0005142 
   0.102575638     0.0611448   -0.2259798    -0.0002254   -0.0000199    -0.0001435   -0.0000901     0.0006996    0.0002837 
   0.102675663     0.0612943   -0.2274698    -0.0000659   -0.0000886     0.0000824    0.0000826     0.0008851    0.0004081 
   0.102775688     0.0618369   -0.2274679     0.0001204   -0.0003123    -0.0001052   -0.0000147     0.0003860    0.0005897 
   0.102875713     0.0633192   -0.2268923     0.0001370   -0.0000213     0.0000958    0.0001502     0.0007839    0.0003445 
   0.102975738     0.0610346   -0.2270089     0.0000110   -0.0003219    -0.0001472   -0.0001321     0.0007696    0.0003186 
   0.103075763     0.0611810   -0.2257444     0.0003578   -0.0003905    -0.0000466   -0.0001348     0.0008133    0.0009714 
   0.103175788     0.0594210   -0.2256337    -0.0001710   -0.0000310    -0.0001129   -0.0000002     0.0007605    0.0003004 
   0.103275813     0.0609077   -0.2256235    -0.0000676    0.0000382    -0.0000459   -0.0000782     0.0009045    0.0004545 
   0.103375838     0.0618960   -0.2259085     0.0000378   -0.0000877     0.0000731    0.0000926     0.0006587    0.0002915 
   0.103475863     0.0605876   -0.2241241     0.0002777    0.0002520    -0.0001281    0.0000925     0.0005344    0.0002125 
   0.103575888     0.0600798   -0.2234978    -0.0000529    0.0001647     0.0000877   -0.0000571     0.0011474    0.0009245 
   0.103675913     0.0596348   -0.2242707     0.0002053   -0.0002113     0.0001144   -0.0001047     0.0013276    0.0003450 
   0.103775938     0.0604975   -0.2246210    -0.0001873    0.0001837    -0.0000776    0.0000522     0.0009472    0.0003578 
   0.103875963     0.0612390   -0.2241254    -0.0001489    0.0001424    -0.0000343   -0.0000498     0.0005582    0.0002403 
   0.103975988     0.0599676   -0.2241753     0.0001163    0.0002821     0.0000608    0.0001918     0.0004411    0.0004418 
   0.104076013     0.0592630   -0.2229618     0.0000963   -0.0000929     0.0000248    0.0000136     0.0004721    0.0003395 
   0.104176038     0.0599214   -0.2225809     0.0001679   -0.0001816    -0.0000245    0.0000915     0.0008535    0.0007302 
   0.104276063     0.0591300   -0.2235864     0.0000252    0.0004414    -0.0000623   -0.0000231     0.0011056    0.0005583 
   0.104376088     0.0597288   -0.2215354     0.0001911    0.0003435     0.0001192   -0.0001510     0.0007562    0.0004372 
   0.104476113     0.0591896   -0.2222074    -0.0000937   -0.0000820     0.0000131   -0.0001640     0.0006755    0.0003194 
   0.104576138     0.0591274   -0.2210395     0.0002287    0.0000215    -0.0001134    0.0000742     0.0004986    0.0008597 
   0.104676163     0.0588312   -0.2217795     0.0000951   -0.0000397    -0.0000143   -0.0000455     0.0007205    0.0006410 
   0.104776188     0.0592083   -0.2220645     0.0000987   -0.0005105    -0.0001972   -0.0000926     0.0004108    0.0005667 
   0.104876213     0.0585223   -0.2219064    -0.0001035   -0.0001988     0.0000429    0.0001548     0.0011438    0.0003327 
   0.104976238     0.0575669   -0.2200924    -0.0000166    0.0000176    -0.0001168   -0.0000092     0.0009051    0.0003884 
   0.105076263     0.0577228   -0.2208712     0.0001373   -0.0000100     0.0001227    0.0001405     0.0007375    0.0007917 
   0.105176288     0.0580540   -0.2207740    -0.0001418   -0.0003727     0.0000536   -0.0001517     0.0009423   -0.0000925 
   0.105276313     0.0576681   -0.2200490     0.0002734    0.0000825     0.0000002   -0.0000964     0.0006230    0.0002815 
   0.105376338     0.0584304   -0.2189675     0.0002353    0.0002792     0.0000425   -0.0002261     0.0006735    0.0009896 
   0.105476363     0.0579916   -0.2211649    -0.0001117   -0.0003268     0.0000380    0.0000333     0.0009815    0.0004660 
   0.105576388     0.0583350   -0.2191680    -0.0000978    0.0003455    -0.0001154   -0.0000742     0.0005837    0.0005950 
   0.105676413     0.0583782   -0.2193243    -0.0005937    0.0003069     0.0001129   -0.0001482     0.0008124    0.0004507 
   0.105776438     0.0578145   -0.2181124    -0.0002025    0.0001028    -0.0000543   -0.0001656     0.0005254    0.0007783 
   0.105876463     0.0560271   -0.2185620    -0.0000035   -0.0000090    -0.0000394    0.0000421     0.0006059    0.0007574 
   0.105976488     0.0565680   -0.2173408    -0.0000979   -0.0001130     0.0001425    0.0000256     0.0006368    0.0005892 
   0.106076513     0.0568390   -0.2186197     0.0001916   -0.0000942    -0.0000925    0.0001950     0.0006734    0.0003016 
   0.106176538     0.0565042   -0.2175250    -0.0000581    0.0000914     0.0001395    0.0002453     0.0003783    0.0008164 
   0.106276563     0.0574358   -0.2177214    -0.0001228    0.0001311    -0.0001136   -0.0000291     0.0005343    0.0001977 
   0.106376588     0.0569678   -0.2165219    -0.0001043    0.0001526     0.0001082   -0.0001206     0.0005071    0.0007875 
   0.106476613     0.0570352   -0.2180475    -0.0003516    0.0003828     0.0000432    0.0000780     0.0006587    0.0005817 
   0.106576638     0.0577224   -0.2172753    -0.0000393   -0.0000659    -0.0000931    0.0001184     0.0008183    0.0006376 
   0.106676663     0.0569540   -0.2173354    -0.0003914   -0.0003320    -0.0000186   -0.0000393     0.0012416    0.0008034 
   0.106776688     0.0561901   -0.2170341    -0.0001326    0.0001674    -0.0000370    0.0001702     0.0009413    0.0004853 
   0.106876713     0.0570728   -0.2170812     0.0000025    0.0002948     0.0000066   -0.0000438     0.0006823    0.0005289 
   0.106976738     0.0568306   -0.2173310    -0.0001674    0.0001104     0.0001041    0.0000677     0.0009840    0.0003987 
   0.107076763     0.0566022   -0.2165566    -0.0000519    0.0000066     0.0000259    0.0000420     0.0006596    0.0006145 
   0.107176788     0.0567819   -0.2153920     0.0001247   -0.0000554    -0.0000490   -0.0000534     0.0009227    0.0003894 
   0.107276813     0.0569141   -0.2144318    -0.0000198    0.0002074    -0.0000357   -0.0000915     0.0007180    0.0004444 
   0.107376838     0.0552965   -0.2151842     0.0003110    0.0001345    -0.0002506    0.0000323     0.0008191    0.0009670 
   0.107476863     0.0548846   -0.2150983    -0.0001227   -0.0000479     0.0001101    0.0000000     0.0007960    0.0001307 
   0.107576888     0.0563937   -0.2149492    -0.0001388   -0.0001122     0.0000010   -0.0000104     0.0008850    0.0004984 
   0.107676913     0.0553844   -0.2144086     0.0000321    0.0001067     0.0000760    0.0001051     0.0010502    0.0004417 
   0.107776938     0.0539958   -0.2139567     0.0000558   -0.0000693    -0.0000368   -0.0002023     0.0007647    0.0007804 
   0.107876963     0.0552913   -0.2136188     0.0000745   -0.0001194     0.0000834    0.0001180     0.0005969    0.0003002 
   0.107976988     0.0557295   -0.2118769    -0.0000520    0.0000086     0.0000467    0.0001316     0.0008590    0.0002780 
   0.108077014     0.0555282   -0.2134178    -0.0001684   -0.0000789    -0.0000476   -0.0000107     0.0004178    0.0005021 
   0.108177039     0.0559240   -0.2113273    -0.0000181    0.0001332    -0.0001083    0.0000752     0.0006736    0.0006444 
   0.108277064     0.0560063   -0.2114407     0.0000505    0.0001737     0.0000870   -0.0000841     0.0006216    0.0007393 
   0.108377089     0.0545010   -0.2122829     0.0000222    0.0004813     0.0000023    0.0001713     0.0008015    0.0002454 
   0.108477114     0.0542641   -0.2129931    -0.0000501   -0.0001729     0.0000346    0.0000450     0.0004381    0.0006983 
   0.108577139     0.0541426   -0.2130763    -0.0000217    0.0000332    -0.0000378   -0.0000721     0.0008093    0.0002377 
   0.108677164     0.0547589   -0.2110333    -0.0002619    0.0002135    -0.0000929   -0.0000839     0.0003265    0.0003205 
   0.108777189     0.0543065   -0.2113306    -0.0000279    0.0003024    -0.0000868   -0.0000953     0.0007932    0.0003289 
   0.108877214     0.0543240   -0.2111923    -0.0001132   -0.0003069    -0.0000724    0.0000553     0.0006219    0.0005948 
   0.108977239     0.0543199   -0.2101957    -0.0001140   -0.0001410    -0.0000567   -0.0000052     0.0009430    0.0006951 
   0.109077264     0.0555231   -0.2106210     0.0000126   -0.0001724     0.0000678   -0.0000559     0.0007012    0.0009566 
   0.109177289     0.0532203   -0.2106432    -0.0000303    0.0003737    -0.0000472   -0.0001253     0.0008255    0.0003391 
   0.109277314     0.0535881   -0.2111711    -0.0001900    0.0000290     0.0000018   -0.0000086     0.0007376    0.0005085 
   0.109377339     0.0533938   -0.2097044    -0.0001169    0.0000894    -0.0000343    0.0000953     0.0006099    0.0002647 
   0.109477364     0.0538216   -0.2095915    -0.0000166   -0.0001330    -0.0001100   -0.0000423     0.0007282    0.0006092 
   0.109577389     0.0538424   -0.2108660     0.0000314    0.0000615     0.0001430    0.0000801     0.0006026    0.0004014 
   0.109677414     0.0529128   -0.2098480     0.0001538    0.0000588     0.0001481   -0.0000420     0.0008286    0.0003040 
   0.109777439     0.0538325   -0.2095717     0.0002430   -0.0000457    -0.0002247    0.0000360     0.0004799    0.0010650 
   0.109877464     0.0535108   -0.2097105     0.0001636    0.0002433    -0.0000392   -0.0000535     0.0008558    0.0002135 
   0.109977489     0.0534446   -0.2090750     0.0002916   -0.0001784     0.0000768    0.0000189     0.0008855    0.0005487 
   0.110077514     0.0528091   -0.2082563    -0.0000930    0.0000879    -0.0001134    0.0000699     0.0004033    0.0003976 
   0.110177539     0.0525437   -0.2086062    -0.0002042   -0.0002027     0.0000584   -0.0000441     0.0008085    0.0006207 
   0.110277564     0.0528530   -0.2075966     0.0000742   -0.0001265    -0.0000315    0.0000413     0.0008123    0.0005601 
   0.110377589     0.0520384   -0.2081352    -0.0001362    0.0001444     0.0000549   -0.0000367     0.0003743    0.0009290 
   0.110477614     0.0543871   -0.2068877    -0.0001497   -0.0000291    -0.0000037   -0.0000579     0.0009817    0.0005944 
   0.110577639     0.0528436   -0.2074480    -0.0000743   -0.0000564    -0.0001796    0.0001230     0.0009859    0.0003072 
   0.110677664     0.0528960   -0.2071840     0.0003691    0.0001967    -0.0000840    0.0001046     0.0001218    0.0007475 
   0.110777689     0.0524862   -0.2080357     0.0001385   -0.0003567    -0.0001351   -0.0001120     0.0008418    0.0004867 
   0.110877714     0.0524602   -0.2046505    -0.0000229    0.0001093    -0.0000849   -0.0001689     0.0004541    0.0009899 
   0.110977739     0.0512304   -0.2057095     0.0002743    0.0001515    -0.0000137   -0.0000680     0.0006307    0.0005167 
   0.111077764     0.0513636   -0.2051289     0.0002435   -0.0000010    -0.0000178    0.0000057     0.0003607    0.0002150 
   0.111177789     0.0523609   -0.2052737     0.0000178   -0.0000139     0.0001360   -0.0001493     0.0003961    0.0005221 
   0.111277814     0.0532008   -0.2045846    -0.0000475   -0.0000752     0.0001293   -0.0000854     0.0006885    0.0004798 
   0.111377839     0.0534864   -0.2052905     0.0000615   -0.0001079     0.0001042   -0.0001567     0.0003711    0.0005376 
   0.111477864     0.0516129   -0.2050920    -0.0003096    0.0000811    -0.0000879    0.0000095     0.0012057    0.0004950 
   0.111577889     0.0521641   -0.2041223     0.0000490    0.0000000    -0.0002108    0.0000440     0.0008448    0.0009495 
   0.111677914     0.0521282   -0.2052785    -0.0000102    0.0002365     0.0000844    0.0000310     0.0008501    0.0006917 
   0.111777939     0.0500777   -0.2036544     0.0001471   -0.0000289    -0.0001156   -0.0000580     0.0008005    0.0005227 
   0.111877964     0.0512206   -0.2048328    -0.0000416   -0.0002285    -0.0001460   -0.0001017     0.0002460    0.0000479 
   0.111977989     0.0520762   -0.2027064    -0.0002455   -0.0000493     0.0000273   -0.0000246     0.0007222    0.0009218 
   0.112078014     0.0516919   -0.2030441     0.0000034   -0.0002265     0.0000831    0.0001075     0.0005718    0.0008654 
   0.112178039     0.0513580   -0.2022804    -0.0000238   -0.0003366     0.0001838    0.0001076     0.0005019    0.0007637 
   0.112278064     0.0517678   -0.2028339     0.0002151   -0.0001038    -0.0000719   -0.0001144     0.0006138    0.0007599 
   0.112378089     0.0516191   -0.2030933    -0.0000142   -0.0001951     0.0000539   -0.0000826     0.0001587    0.0005628 
   0.112478114     0.0509308   -0.2036936     0.0000932   -0.0000443     0.0000563   -0.0001134     0.0000481    0.0003085 
   0.112578139     0.0492703   -0.2009558     0.0001355   -0.0000062    -0.0000018    0.0000246     0.0006284    0.0009035 
   0.112678164     0.0510586   -0.2036399    -0.0000084    0.0000105     0.0001353   -0.0000835     0.0006408    0.0002713 
   0.112778189     0.0499033   -0.2021754    -0.0000287   -0.0001305     0.0000773   -0.0001684     0.0005215    0.0010544 
   0.112878214     0.0503255   -0.2014023    -0.0000211    0.0000253    -0.0000408   -0.0001344     0.0004730    0.0006720 
   0.112978239     0.0501884   -0.2007003     0.0000010    0.0000017     0.0001635    0.0001294     0.0008878    0.0005142 
   0.113078264     0.0502040   -0.2012229     0.0000516    0.0001869    -0.0001705    0.0000089     0.0008304    0.0008681 
   0.113178289     0.0494526   -0.2011354     0.0001829   -0.0000212     0.0000074   -0.0001412     0.0006868    0.0000032 
   0.113278314     0.0511275   -0.2001299    -0.0000289   -0.0001510    -0.0000842    0.0000539     0.0006285    0.0004720 
   0.113378339     0.0505632   -0.2002532    -0.0000222    0.0004417    -0.0000331   -0.0001382     0.0007939    0.0001823 
   0.113478364     0.0503030   -0.1996068    -0.0001303    0.0003094    -0.0000146   -0.0000539     0.0002394    0.0008053 
   0.113578389     0.0497052   -0.1993700    -0.0000473   -0.0000392    -0.0000870    0.0000043     0.0002365    0.0011560 
   0.113678414     0.0499455   -0.1984228     0.0001420    0.0000419     0.0000572    0.0001112     0.0006332    0.0008579 
   0.113778439     0.0494411   -0.2009925     0.0001848   -0.0000165     0.0001547   -0.0001078     0.0008627    0.0007500 
   0.113878464     0.0493859   -0.1990607    -0.0001907   -0.0002631     0.0000656   -0.0001160     0.0004041    0.0007075 
   0.113978489     0.0493111   -0.1995239     0.0004303   -0.0002827     0.0000455   -0.0001515     0.0009076    0.0007421 
   0.114078514     0.0497136   -0.1991590     0.0000709    0.0001821    -0.0001294   -0.0001754     0.0009961    0.0012149 
   0.114178539     0.0490121   -0.1988529    -0.0000009    0.0001854    -0.0000222    0.0001085     0.0007610    0.0006989 
   0.114278564     0.0500531   -0.1984682     0.0002582    0.0002524    -0.0002289    0.0000829     0.0004747    0.0005614 
   0.114378589     0.0504019   -0.1980548     0.0001264    0.0002315    -0.0000508    0.0000418     0.0003565    0.0005368 
   0.114478614     0.0480537   -0.1981436     0.0000899   -0.0003331    -0.0001728   -0.0000547     0.0006175    0.0006436 
   0.114578639     0.0499167   -0.1975425    -0.0000123   -0.0003925    -0.0000313    0.0000505     0.0003568    0.0007101 
   0.114678664     0.0496958   -0.1970698     0.0001972   -0.0001092     0.0000116    0.0000078     0.0005559    0.0005616 
   0.114778689     0.0490292   -0.1979649    -0.0002921   -0.0001542    -0.0001121    0.0000654     0.0002021    0.0007212 
   0.114878714     0.0484591   -0.1977570    -0.0001995    0.0001038     0.0000411   -0.0000377     0.0000756    0.0000844 
   0.114978739     0.0488482   -0.1967670     0.0002701    0.0000098     0.0001088    0.0000601     0.0003905    0.0010574 
   0.115078764     0.0492093   -0.1966300     0.0001332    0.0000414     0.0000857   -0.0000508     0.0008747    0.0009865 
   0.115178789     0.0473609   -0.1963498    -0.0002653   -0.0000993     0.0000149   -0.0001426     0.0008818    0.0003605 
   0.115278814     0.0489866   -0.1956679     0.0002565    0.0001287     0.0000259   -0.0000538     0.0008150    0.0007888 
   0.115378839     0.0484440   -0.1947117     0.0003287   -0.0000625     0.0001301    0.0000089     0.0005617    0.0009250 
   0.115478864     0.0487050   -0.1952923    -0.0000232    0.0001005     0.0000760   -0.0000633     0.0006962    0.0007111 
   0.115578889     0.0482332   -0.1950132     0.0001200    0.0000151    -0.0000111   -0.0001547     0.0001156    0.0006846 
   0.115678914     0.0474410   -0.1943104    -0.0001969    0.0000580     0.0000818    0.0002231     0.0004887    0.0007294 
   0.115778939     0.0488077   -0.1943993    -0.0001782    0.0001663     0.0000923   -0.0000461     0.0000237    0.0010940 
   0.115878964     0.0485418   -0.1939116     0.0003253    0.0000678    -0.0001130    0.0000515     0.0005037    0.0003219 
   0.115978989     0.0474349   -0.1940022    -0.0000636    0.0000350     0.0000075   -0.0000377     0.0006253    0.0006969 
   0.116079015     0.0491035   -0.1933101    -0.0000893    0.0000329     0.0000644    0.0001645     0.0007075    0.0008037 
   0.116179040     0.0477198   -0.1936297     0.0001105    0.0002447    -0.0001166    0.0001809     0.0003778    0.0005916 
   0.116279065     0.0485185   -0.1935634    -0.0000527    0.0002520    -0.0000073    0.0001183     0.0005121    0.0008476 
   0.116379090     0.0483497   -0.1930622    -0.0001599    0.0000689    -0.0000165    0.0000621     0.0008462    0.0005497 
   0.116479115     0.0477184   -0.1942146    -0.0003719   -0.0002283     0.0000326    0.0001170     0.0006882    0.0010761 
   0.116579140     0.0471235   -0.1925928     0.0000114   -0.0000366     0.0000835    0.0000445     0.0006969    0.0011184 
   0.116679165     0.0474633   -0.1919287     0.0002741   -0.0000318     0.0001376    0.0000843     0.0001149    0.0001671 
   0.116779190     0.0476249   -0.1916467    -0.0003286    0.0001525    -0.0001702    0.0000421     0.0002556    0.0004634 
   0.116879215     0.0473654   -0.1921186    -0.0002747    0.0001250    -0.0000644    0.0000761     0.0005045    0.0007514 
   0.116979240     0.0470858   -0.1914494    -0.0001129    0.0001169     0.0000139   -0.0000588     0.0004915    0.0010437 
   0.117079265     0.0464371   -0.1905505     0.0001951   -0.0003492    -0.0000545    0.0002032     0.0005091    0.0004495 
   0.117179290     0.0475955   -0.1920002    -0.0000951    0.0002271     0.0001069   -0.0000012     0.0003867    0.0003418 
   0.117279315     0.0476508   -0.1913411     0.0002216    0.0002301    -0.0000441    0.0000079     0.0008960    0.0010526 
   0.117379340     0.0469120   -0.1910001    -0.0004036    0.0002768    -0.0000182    0.0001128     0.0002700    0.0008524 
   0.117479365     0.0473990   -0.1905927     0.0001298   -0.0001394     0.0000290    0.0001400     0.0002312    0.0004689 
   0.117579390     0.0458458   -0.1903450    -0.0001203   -0.0000224    -0.0000161   -0.0000475     0.0005226    0.0008679 
   0.117679415     0.0460190   -0.1912948     0.0001599   -0.0000466    -0.0001952   -0.0000425     0.0006493    0.0006593 
   0.117779440     0.0463690   -0.1895611     0.0002829    0.0000245    -0.0001947   -0.0000619     0.0003353    0.0004630 
   0.117879465     0.0470521   -0.1902892    -0.0003915    0.0000221    -0.0000312   -0.0000519     0.0004924    0.0006412 
   0.117979490     0.0470856   -0.1892148    -0.0002120    0.0001264    -0.0001394    0.0002984     0.0007749    0.0005551 
   0.118079515     0.0472600   -0.1901083     0.0001495   -0.0002017    -0.0000742   -0.0001414     0.0005155    0.0009480 
   0.118179540     0.0458059   -0.1896342    -0.0000053   -0.0001865     0.0000336   -0.0000427     0.0006739    0.0007847 
   0.118279565     0.0459639   -0.1888091    -0.0001297    0.0000746    -0.0000306   -0.0000357     0.0003839    0.0006336 
   0.118379590     0.0460912   -0.1883190     0.0000597    0.0003502    -0.0002206    0.0000999     0.0000740    0.0007838 
   0.118479615     0.0452396   -0.1884829     0.0000268    0.0001142     0.0000769   -0.0000449     0.0004182    0.0011092 
   0.118579640     0.0467957   -0.1885703    -0.0001320    0.0001651    -0.0000321    0.0000193     0.0005603    0.0007071 
   0.118679665     0.0454944   -0.1883370     0.0000430   -0.0000033     0.0002347   -0.0001558     0.0004543    0.0004468 
   0.118779690     0.0459256   -0.1868814     0.0000667   -0.0000025     0.0000317    0.0000654     0.0006118    0.0006787 
   0.118879715     0.0452061   -0.1865958     0.0001318   -0.0001994     0.0001038    0.0001164     0.0002263    0.0008198 
   0.118979740     0.0453831   -0.1867521     0.0003670    0.0000101    -0.0000134   -0.0001688     0.0006290    0.0011205 
   0.119079765     0.0457904   -0.1878980     0.0000114   -0.0001414    -0.0001164    0.0000834     0.0000088    0.0008498 
   0.119179790     0.0460479   -0.1869934     0.0000786    0.0003568    -0.0000955    0.0000948     0.0006343    0.0007397 
   0.119279815     0.0456702   -0.1881912    -0.0001361   -0.0001171    -0.0000362   -0.0000024     0.0006783    0.0009245 
   0.119379840     0.0447566   -0.1862706    -0.0000364    0.0001743    -0.0000400    0.0000535     0.0006923    0.0002784 
   0.119479865     0.0447649   -0.1866615    -0.0000727   -0.0000229    -0.0001436   -0.0000448     0.0007286    0.0004943 
   0.119579890     0.0445364   -0.1854315    -0.0001657    0.0001340     0.0000120   -0.0000434     0.0005655    0.0007972 
   0.119679915     0.0444161   -0.1857792    -0.0001330   -0.0000013     0.0001049    0.0000972     0.0002988    0.0006814 
   0.119779940     0.0446392   -0.1855800     0.0002284   -0.0000398    -0.0000361    0.0000300     0.0004911    0.0004929 
   0.119879965     0.0452335   -0.1851133    -0.0001705    0.0000256    -0.0000551    0.0000810     0.0001407    0.0008507 
   0.119979990     0.0454016   -0.1854172    -0.0002952   -0.0000565    -0.0000239    0.0000534     0.0006260    0.0007137 
   0.120080015     0.0454690   -0.1843571     0.0002433    0.0000888    -0.0000397    0.0000457     0.0004563    0.0009460 
   0.120180040     0.0454012   -0.1843491     0.0000737    0.0000517     0.0000291   -0.0000170     0.0003282    0.0007345 
   0.120280065     0.0449234   -0.1844499     0.0000184    0.0001980    -0.0000186    0.0000381     0.0005732    0.0007374 
   0.120380090     0.0452559   -0.1839078    -0.0001212    0.0000134     0.0000599   -0.0000041     0.0006285    0.0003896 
   0.120480115     0.0453786   -0.1838043     0.0001621    0.0001989     0.0000249   -0.0000438     0.0006420    0.0006350 
   0.120580140     0.0451157   -0.1835378    -0.0000141    0.0003607     0.0000263    0.0000093     0.0002649    0.0004617 
   0.120680165     0.0451333   -0.1828923    -0.0001062   -0.0001101     0.0000471   -0.0001433     0.0005674    0.0007910 
   0.120780190     0.0442497   -0.1849126     0.0000915    0.0002251     0.0000778   -0.0001368     0.0005414    0.0007388 
   0.120880215     0.0442000   -0.1822758     0.0001900    0.0000211     0.0000471   -0.0001017     0.0003268    0.0002548 
   0.120980240     0.0438273   -0.1820608    -0.0000016    0.0001024     0.0001515   -0.0001276     0.0004123    0.0004384 
   0.121080265     0.0435209   -0.1829421    -0.0001162    0.0003196    -0.0000563   -0.0001177     0.0002893    0.0008770 
   0.121180290     0.0444852   -0.1818781    -0.0002320    0.0005539    -0.0000645    0.0001931     0.0000814    0.0009384 
   0.121280315     0.0441295   -0.1824654     0.0000098    0.0000379    -0.0000129   -0.0000316     0.0004017    0.0010189 
   0.121380340     0.0437553   -0.1822066    -0.0001728    0.0003254     0.0000807    0.0000956     0.0008784    0.0006426 
   0.121480365     0.0434408   -0.1815967     0.0000964   -0.0002728     0.0000797    0.0000486     0.0004074    0.0008195 
   0.121580390     0.0438830   -0.1820876     0.0001531    0.0001509    -0.0000349   -0.0000417     0.0005872    0.0008350 
   0.121680415     0.0436667   -0.1818769     0.0002628   -0.0002341    -0.0001042   -0.0000700     0.0002770    0.0006188 
   0.121780440     0.0443496   -0.1811733     0.0000781   -0.0002006     0.0001054    0.0002029     0.0004253    0.0005554 
   0.121880465     0.0430859   -0.1804685    -0.0000068    0.0000742    -0.0000609    0.0000994     0.0008096    0.0005365 
   0.121980490     0.0427146   -0.1796959     0.0002015   -0.0001313     0.0000577   -0.0002242     0.0005147    0.0001631 
   0.122080515     0.0430511   -0.1790536     0.0001397   -0.0001197    -0.0000053    0.0002060     0.0005594    0.0005992 
   0.122180540     0.0441741   -0.1815519    -0.0001863    0.0002616    -0.0000092    0.0000176     0.0006580    0.0007825 
   0.122280565     0.0437796   -0.1801164     0.0000756    0.0002244    -0.0000372    0.0000606     0.0005804    0.0003940 
   0.122380590     0.0432934   -0.1791932    -0.0000332    0.0000964    -0.0001382    0.0000842     0.0000017    0.0010226 
   0.122480615     0.0438935   -0.1804248    -0.0001368    0.0001213    -0.0001439    0.0001041     0.0007417    0.0007915 
   0.122580640     0.0435253   -0.1806283    -0.0001157    0.0000011     0.0000898    0.0000866     0.0002401    0.0004396 
   0.122680665     0.0426908   -0.1794930     0.0001245   -0.0001167    -0.0000507   -0.0000266    -0.0000167    0.0006447 
   0.122780690     0.0440635   -0.1797798     0.0000377    0.0001544     0.0000325   -0.0000298     0.0002972    0.0010230 
   0.122880715     0.0426309   -0.1805203     0.0000677    0.0001793    -0.0001229   -0.0000367     0.0001761    0.0007522 
   0.122980740     0.0427794   -0.1789369    -0.0000057   -0.0000371     0.0000670    0.0001883     0.0004902    0.0005792 
   0.123080765     0.0427954   -0.1773827     0.0001221   -0.0001390    -0.0001536   -0.0001073     0.0001692    0.0005505 
   0.123180790     0.0433122   -0.1778606    -0.0000778   -0.0000956    -0.0000824    0.0001560     0.0005940    0.0013074 
   0.123280815     0.0426198   -0.1780236     0.0004194    0.0001604     0.0002071    0.0001113     0.0003962    0.0008429 
   0.123380840     0.0436698   -0.1783735     0.0000138   -0.0000746     0.0000858    0.0000695     0.0006713    0.0010709 
   0.123480865     0.0427659   -0.1775110    -0.0003135   -0.0001303     0.0001480    0.0000560     0.0000117    0.0009391 
   0.123580890     0.0425165   -0.1783744    -0.0001583    0.0001602    -0.0000150   -0.0001853    -0.0001013    0.0004270 
   0.123680915     0.0435344   -0.1773601    -0.0001700    0.0000256    -0.0002637    0.0000649     0.0003865    0.0006211 
   0.123780940     0.0417944   -0.1776680    -0.0000492    0.0002336    -0.0000904    0.0001831     0.0006300    0.0007390 
   0.123880965     0.0423050   -0.1769985    -0.0001714    0.0001096     0.0001260   -0.0002045     0.0002259    0.0004645 
   0.123980990     0.0419607   -0.1763725     0.0001735    0.0000164    -0.0000138    0.0001583    -0.0000525    0.0007539 
   0.124081016     0.0424784   -0.1759329    -0.0001455   -0.0000113     0.0000483    0.0000199     0.0001210    0.0006156 
   0.124181041     0.0423687   -0.1759129     0.0001074   -0.0002101     0.0000706    0.0000295     0.0002683    0.0007340 
   0.124281066     0.0419875   -0.1769494     0.0001453   -0.0001689     0.0001589    0.0000980     0.0003158    0.0004654 
   0.124381091     0.0427512   -0.1754265    -0.0002820   -0.0002305    -0.0001872    0.0002140    -0.0000028    0.0009303 
   0.124481116     0.0413458   -0.1746920     0.0000490    0.0000008     0.0000325   -0.0001296     0.0004059    0.0006654 
   0.124581141     0.0423969   -0.1741289     0.0002593   -0.0001199     0.0000785   -0.0001572     0.0005923    0.0009827 
   0.124681166     0.0417629   -0.1747761     0.0000988   -0.0002959    -0.0000146   -0.0000955     0.0006241    0.0007662 
   0.124781191     0.0424952   -0.1753302     0.0001309    0.0000581     0.0001892   -0.0000210     0.0002393    0.0006942 
   0.124881216     0.0414330   -0.1741800    -0.0000133    0.0001750     0.0000910    0.0000906     0.0002723    0.0008755 
   0.124981241     0.0424476   -0.1741439    -0.0005131    0.0002238    -0.0001454   -0.0000407     0.0000558    0.0009460 
   0.125081266     0.0423868   -0.1740458     0.0000532    0.0001597     0.0000357   -0.0002109     0.0005387    0.0011206 
   0.125181291     0.0421007   -0.1741053     0.0001463   -0.0001998     0.0000172    0.0000285     0.0003880    0.0010089 
   0.125281316     0.0405596   -0.1742714    -0.0005761    0.0000236    -0.0001444    0.0000576     0.0003874    0.0008388 
   0.125381341     0.0419664   -0.1737844    -0.0002290    0.0001936     0.0000980    0.0001165     0.0004877    0.0006100 
   0.125481366     0.0423787   -0.1735566     0.0002124   -0.0000692     0.0001681    0.0002475     0.0004999    0.0002978 
   0.125581391     0.0414445   -0.1742949     0.0002650    0.0000564    -0.0001984   -0.0000487     0.0004755    0.0003779 
   0.125681416     0.0413982   -0.1736133     0.0000135    0.0002965    -0.0002200    0.0000950     0.0004222    0.0011365 
   0.125781441     0.0413910   -0.1727616    -0.0002486   -0.0000391    -0.0000070    0.0000493     0.0004162    0.0009271 
   0.125881466     0.0417705   -0.1730697     0.0001022   -0.0002711     0.0000267   -0.0000280     0.0004461    0.0010544 
   0.125981491     0.0407174   -0.1719660    -0.0002224   -0.0001182     0.0001122   -0.0000874     0.0000206    0.0008594 
   0.126081516     0.0413446   -0.1714924    -0.0001766   -0.0001115    -0.0000934    0.0000337    -0.0000002    0.0006637 
   0.126181541     0.0415244   -0.1711338    -0.0000171   -0.0001828    -0.0000890   -0.0000126     0.0004329    0.0002519 
   0.126281566     0.0404398   -0.1717350     0.0001424    0.0001215    -0.0000549    0.0001265     0.0005956    0.0005748 
   0.126381591     0.0418144   -0.1727941    -0.0000614    0.0000338    -0.0000254   -0.0001365     0.0001160    0.0008683 
   0.126481616     0.0410450   -0.1713093     0.0001075    0.0000690     0.0001380    0.0001844     0.0002533    0.0006708 
   0.126581641     0.0403572   -0.1706626    -0.0000765   -0.0000651    -0.0000610   -0.0000197     0.0002556    0.0001881 
   0.126681666     0.0409771   -0.1705288     0.0001340   -0.0002034     0.0001730   -0.0000224     0.0003901    0.0007872 
   0.126781691     0.0405397   -0.1712994     0.0001438   -0.0001041     0.0000167    0.0002353     0.0006641    0.0009230 
   0.126881716     0.0405351   -0.1704200    -0.0000326   -0.0006416     0.0000868   -0.0000036     0.0005618    0.0009393 
   0.126981741     0.0411222   -0.1697228     0.0001912   -0.0001280     0.0000519   -0.0000474     0.0000492    0.0009673 
   0.127081766     0.0414044   -0.1700021     0.0000855   -0.0002448    -0.0000829   -0.0001008     0.0001740    0.0007265 
   0.127181791     0.0399639   -0.1697070    -0.0000106   -0.0001086    -0.0000387   -0.0000954    -0.0000260    0.0008240 
   0.127281816     0.0406547   -0.1696957    -0.0001700    0.0001019    -0.0000898    0.0000813     0.0008556    0.0010675 
   0.127381841     0.0394185   -0.1682933    -0.0000401    0.0000056     0.0000408    0.0000098     0.0003478    0.0005582 
   0.127481866     0.0398934   -0.1689577     0.0001883   -0.0000927    -0.0000391    0.0001897     0.0003861    0.0007139 
   0.127581891     0.0403807   -0.1694786     0.0000498   -0.0002132    -0.0000181    0.0002118     0.0004562    0.0007405 
   0.127681916     0.0407465   -0.1697475    -0.0000960   -0.0002666     0.0001210   -0.0000657     0.0001915    0.0005021 
   0.127781941     0.0405490   -0.1678220    -0.0002082    0.0002118     0.0000855    0.0000663     0.0000805    0.0004199 
   0.127881966     0.0402830   -0.1680910     0.0000811    0.0001759     0.0000628    0.0001501    -0.0004385    0.0007251 
   0.127981991     0.0396538   -0.1688374     0.0002986    0.0000649    -0.0000417    0.0000906     0.0003175    0.0003171 
   0.128082016     0.0402231   -0.1691337     0.0002558    0.0000888     0.0000238   -0.0000001     0.0001145    0.0010640 
   0.128182041     0.0403855   -0.1674418    -0.0001388   -0.0001041     0.0001883   -0.0000594     0.0003412    0.0005379 
   0.128282066     0.0399993   -0.1675198     0.0000034   -0.0000172     0.0000555    0.0000693     0.0005986    0.0008162 
   0.128382091     0.0406560   -0.1673175    -0.0002891    0.0001070     0.0000048   -0.0000155    -0.0002482    0.0007885 
   0.128482116     0.0396383   -0.1673377    -0.0002089   -0.0000654    -0.0001559    0.0001215    -0.0002213    0.0004506 
   0.128582141     0.0393428   -0.1683565    -0.0001264    0.0000517    -0.0000978    0.0000429     0.0002680    0.0007426 
   0.128682166     0.0395078   -0.1670177    -0.0002194    0.0000925    -0.0000522    0.0000060     0.0000520    0.0003608 
   0.128782191     0.0399534   -0.1666285     0.0000786   -0.0002460     0.0001704   -0.0000388     0.0004335    0.0004901 
   0.128882216     0.0395854   -0.1659627    -0.0001012    0.0003193     0.0000892   -0.0000728    -0.0002084    0.0005542 
   0.128982241     0.0398277   -0.1659458    -0.0001198   -0.0000409    -0.0000175    0.0001287     0.0000340    0.0001675 
   0.129082266     0.0395821   -0.1658999    -0.0001665   -0.0001244    -0.0002430   -0.0000513     0.0004947    0.0005881 
   0.129182291     0.0393012   -0.1654596     0.0000131    0.0002994    -0.0001134   -0.0001948    -0.0000298    0.0004981 
   0.129282316     0.0392167   -0.1650964    -0.0001973   -0.0000349    -0.0000550    0.0001261     0.0000990    0.0005152 
   0.129382341     0.0389621   -0.1656741     0.0003145   -0.0001143     0.0000365    0.0000391    -0.0001505    0.0009016 
   0.129482366     0.0392420   -0.1649663     0.0002026    0.0000016    -0.0000650    0.0001267     0.0009987    0.0005701 
   0.129582391     0.0391579   -0.1653382    -0.0000534   -0.0000545     0.0000218   -0.0000493     0.0000027    0.0004988 
   0.129682416     0.0387560   -0.1654455    -0.0000111    0.0000906    -0.0000766    0.0000181     0.0000750    0.0010769 
   0.129782441     0.0387125   -0.1650228    -0.0000060   -0.0000565     0.0000155   -0.0001010     0.0006425    0.0005568 
   0.129882466     0.0392692   -0.1647023    -0.0000834    0.0000414    -0.0000363   -0.0001546     0.0001752    0.0007141 
   0.129982491     0.0393496   -0.1644554     0.0000234    0.0000705    -0.0001377   -0.0002092     0.0003439    0.0007959 
   0.130082516     0.0392473   -0.1640091     0.0003519   -0.0003040    -0.0000477   -0.0000516     0.0003769    0.0004930 
   0.130182541     0.0391990   -0.1638722    -0.0003108    0.0001012     0.0001746   -0.0001605     0.0001936    0.0006633 
   0.130282566     0.0382118   -0.1638542    -0.0005374    0.0000924    -0.0000992    0.0000072     0.0003538    0.0003858 
   0.130382591     0.0383469   -0.1638090     0.0001475    0.0000857     0.0000061    0.0001051     0.0003137    0.0007360 
   0.130482616     0.0378539   -0.1633810    -0.0001442    0.0000480    -0.0001358   -0.0000083    -0.0001567    0.0011505 
   0.130582641     0.0391250   -0.1621430    -0.0000847   -0.0000218    -0.0000246    0.0000971     0.0001440    0.0007552 
   0.130682666     0.0383284   -0.1631730    -0.0001487    0.0001743    -0.0001012   -0.0000410     0.0001971    0.0011978 
   0.130782691     0.0390568   -0.1637192     0.0001781    0.0000012     0.0001448   -0.0000725    -0.0000210    0.0008008 
   0.130882716     0.0392259   -0.1624368    -0.0000549   -0.0001189     0.0000550   -0.0000469     0.0002517    0.0010740 
   0.130982741     0.0387251   -0.1621473     0.0000545   -0.0001048     0.0000628    0.0001096     0.0000026    0.0003771 
   0.131082766     0.0393271   -0.1619697    -0.0000344    0.0000358    -0.0001270   -0.0001206     0.0003115    0.0007115 
   0.131182791     0.0384314   -0.1620325     0.0000863    0.0000271    -0.0001323   -0.0002027     0.0002735    0.0007443 
   0.131282816     0.0381772   -0.1617893     0.0001870    0.0000214    -0.0000307   -0.0000770     0.0006606    0.0008984 
   0.131382841     0.0384089   -0.1612666    -0.0000284   -0.0000855     0.0001099   -0.0000606     0.0003770    0.0003506 
   0.131482866     0.0380701   -0.1615192     0.0001060   -0.0000720    -0.0000284   -0.0000678     0.0002040    0.0008825 
   0.131582891     0.0382627   -0.1620437     0.0003440   -0.0001972    -0.0002670    0.0000667    -0.0000635    0.0008220 
   0.131682916     0.0379904   -0.1619343     0.0000415   -0.0000997    -0.0000913   -0.0001286     0.0000316    0.0007291 
   0.131782941     0.0388378   -0.1603811    -0.0002065    0.0002519     0.0000457    0.0000611    -0.0000270    0.0005993 
   0.131882966     0.0384658   -0.1609559     0.0002920   -0.0001641     0.0000522   -0.0000243     0.0004264    0.0005511 
   0.131982991     0.0381695   -0.1607825     0.0000296   -0.0000297     0.0000619    0.0002090     0.0000930    0.0008375 
   0.132083017     0.0382044   -0.1595654    -0.0000466    0.0001458    -0.0000273    0.0001763     0.0001256    0.0008110 
   0.132183042     0.0384875   -0.1599471     0.0000496    0.0000212    -0.0000017    0.0000397    -0.0009334    0.0010727 
   0.132283067     0.0379167   -0.1599940     0.0003745    0.0000601    -0.0000959   -0.0000892     0.0000536    0.0009337 
   0.132383092     0.0376874   -0.1599258    -0.0002517   -0.0000601     0.0000360   -0.0000805     0.0000793    0.0009355 
   0.132483117     0.0382413   -0.1591866    -0.0001958    0.0001133     0.0000198   -0.0000151    -0.0001408    0.0009023 
   0.132583142     0.0365483   -0.1593398     0.0000468    0.0002062    -0.0003218    0.0000100    -0.0001660    0.0009591 
   0.132683167     0.0377012   -0.1589162    -0.0001513    0.0000296     0.0002832    0.0000528    -0.0002330    0.0007237 
   0.132783192     0.0383816   -0.1581389    -0.0001162    0.0001672     0.0001343    0.0000472     0.0001344    0.0005641 
   0.132883217     0.0379037   -0.1593296    -0.0004655    0.0001871    -0.0000021    0.0001897     0.0003757    0.0010291 
   0.132983242     0.0383757   -0.1580633     0.0000926   -0.0001411     0.0001629    0.0000353     0.0005060    0.0004257 
   0.133083267     0.0370393   -0.1593799     0.0000843   -0.0000021     0.0001549    0.0001166    -0.0001103    0.0008320 
   0.133183292     0.0375468   -0.1580794    -0.0000379   -0.0000413    -0.0000395    0.0000243     0.0006980    0.0004233 
   0.133283317     0.0377309   -0.1578310     0.0001237    0.0001376    -0.0000230   -0.0000447    -0.0003355    0.0007762 
   0.133383342     0.0374490   -0.1568259    -0.0002807   -0.0001684     0.0000273   -0.0000497     0.0001264    0.0009492 
   0.133483367     0.0375288   -0.1576704    -0.0002478    0.0003890     0.0001636   -0.0000487    -0.0002107    0.0002677 
   0.133583392     0.0380766   -0.1572998     0.0000258    0.0000081     0.0001572   -0.0002644     0.0003605    0.0003429 
   0.133683417     0.0374307   -0.1578330     0.0003061   -0.0001774     0.0000143    0.0000355     0.0002637    0.0003516 
   0.133783442     0.0376793   -0.1565634    -0.0000585    0.0002004     0.0001045    0.0000025     0.0000688    0.0008050 
   0.133883467     0.0374253   -0.1568503     0.0002007   -0.0001873     0.0000312   -0.0002413    -0.0000529    0.0005340 
   0.133983492     0.0377945   -0.1560546     0.0001154    0.0000179     0.0001936    0.0000098     0.0000039    0.0009882 
   0.134083517     0.0378705   -0.1562034    -0.0001038    0.0000370    -0.0000683   -0.0003109     0.0000045    0.0010074 
   0.134183542     0.0370495   -0.1553587    -0.0000225    0.0001636    -0.0000758    0.0000163     0.0002262    0.0006579 
   0.134283567     0.0365923   -0.1556468    -0.0000649   -0.0000474    -0.0000626    0.0001678    -0.0000626    0.0007022 
   0.134383592     0.0375345   -0.1560515    -0.0001497    0.0000876    -0.0002233    0.0000342     0.0004101    0.0002777 
   0.134483617     0.0363603   -0.1551431    -0.0000311   -0.0001166     0.0000840   -0.0001009     0.0001942    0.0006154 
   0.134583642     0.0363043   -0.1555904    -0.0001475    0.0003417    -0.0000943   -0.0001782     0.0001248    0.0008788 
   0.134683667     0.0374383   -0.1546928    -0.0002465    0.0001920    -0.0002175    0.0000213    -0.0000651    0.0008990 
   0.134783692     0.0371765   -0.1549233    -0.0002291    0.0002055    -0.0001192    0.0000136    -0.0000606    0.0011623 
   0.134883717     0.0370216   -0.1554523    -0.0001468   -0.0000288     0.0000616   -0.0000762     0.0003771    0.0005732 
   0.134983742     0.0368732   -0.1540748    -0.0001338   -0.0001600     0.0001479   -0.0002384    -0.0002885    0.0014152 
   0.135083767     0.0371473   -0.1545768    -0.0002972   -0.0000066     0.0001522    0.0000720    -0.0000738    0.0005088 
   0.135183792     0.0366848   -0.1536104     0.0001765    0.0002843     0.0001145   -0.0001279    -0.0000348    0.0007604 
   0.135283817     0.0370877   -0.1547673     0.0001638   -0.0000238    -0.0000157   -0.0001293     0.0002280    0.0004007 
   0.135383842     0.0366200   -0.1538732    -0.0000653   -0.0001933     0.0000782   -0.0001531    -0.0002826    0.0005863 
   0.135483867     0.0363426   -0.1527525    -0.0000341    0.0001162     0.0001106    0.0002130     0.0002049   -0.0000162 
   0.135583892     0.0368366   -0.1537422     0.0002242   -0.0001510     0.0000704   -0.0000644     0.0003202    0.0005649 
   0.135683917     0.0362516   -0.1530842     0.0003635    0.0000115     0.0000470   -0.0000287     0.0002010    0.0005013 
   0.135783942     0.0372472   -0.1537467    -0.0001162    0.0001819    -0.0000492   -0.0000988    -0.0000785    0.0007226 
   0.135883967     0.0365485   -0.1529286     0.0000783   -0.0002493     0.0000829   -0.0001316     0.0002394    0.0010760 
   0.135983992     0.0367834   -0.1526300    -0.0002731   -0.0001827    -0.0000759    0.0000057     0.0000503    0.0002599 
   0.136084017     0.0361722   -0.1526758     0.0001884    0.0000712     0.0000210    0.0001308     0.0004632    0.0003829 
   0.136184042     0.0363803   -0.1531658     0.0001429   -0.0001515     0.0000899   -0.0000003     0.0003062    0.0007054 
   0.136284067     0.0365677   -0.1520815     0.0000568   -0.0001260    -0.0001608   -0.0000591    -0.0003716    0.0006600 
   0.136384092     0.0369729   -0.1516470    -0.0000613   -0.0000070     0.0001428    0.0001039    -0.0001840    0.0008919 
   0.136484117     0.0365091   -0.1521661     0.0000179   -0.0001555    -0.0000286    0.0002010     0.0003030    0.0002941 
   0.136584142     0.0356982   -0.1526437    -0.0002621   -0.0000384     0.0000269   -0.0000856     0.0004409    0.0007496 
   0.136684167     0.0363081   -0.1518311     0.0000817   -0.0001211    -0.0000108   -0.0000153     0.0001411    0.0007412 
   0.136784192     0.0358377   -0.1512901    -0.0000659    0.0000443     0.0002040    0.0001823     0.0000661    0.0003560 
   0.136884217     0.0366989   -0.1511928     0.0003155    0.0001601    -0.0000803    0.0001072    -0.0005183    0.0003243 
   0.136984242     0.0364916   -0.1517178     0.0002963   -0.0001200     0.0000786   -0.0001005    -0.0001989    0.0008473 
   0.137084267     0.0361028   -0.1509697    -0.0000665    0.0001544     0.0000195   -0.0002151    -0.0003212    0.0006301 
   0.137184292     0.0361313   -0.1505700    -0.0000135    0.0003560     0.0000312   -0.0001894    -0.0007951    0.0004331 
   0.137284317     0.0361191   -0.1501310    -0.0001232   -0.0002086     0.0001229    0.0000947    -0.0002268    0.0012376 
   0.137384342     0.0362624   -0.1493463    -0.0000369    0.0000776     0.0000120   -0.0000686     0.0000687    0.0005468 
   0.137484367     0.0356339   -0.1505965     0.0000769    0.0002370     0.0000070    0.0000927    -0.0002400    0.0003313 
   0.137584392     0.0357946   -0.1498635     0.0001156    0.0002030    -0.0001916   -0.0003270    -0.0001435    0.0005854 
   0.137684417     0.0359758   -0.1498714    -0.0000028   -0.0001597     0.0002050   -0.0001140     0.0002323    0.0006113 
   0.137784442     0.0359755   -0.1499930    -0.0005198    0.0001929    -0.0000492   -0.0001380     0.0000985    0.0007370 
   0.137884467     0.0365563   -0.1489049     0.0002531    0.0000414    -0.0000855   -0.0000440    -0.0004996   -0.0001660 
   0.137984492     0.0354809   -0.1493138    -0.0000629    0.0003324    -0.0000042    0.0001025    -0.0001210    0.0008638 
   0.138084517     0.0360499   -0.1482610     0.0001029    0.0000588    -0.0000043    0.0001034     0.0002831    0.0005513 
   0.138184542     0.0353296   -0.1484514     0.0001973    0.0002134     0.0001114   -0.0000803     0.0000638    0.0007321 
   0.138284567     0.0354873   -0.1485737    -0.0004688   -0.0003184    -0.0000469   -0.0001916     0.0001128    0.0007839 
   0.138384592     0.0357491   -0.1482997     0.0002782   -0.0002567    -0.0001590    0.0000512    -0.0000332    0.0010258 
   0.138484617     0.0358176   -0.1484316    -0.0001300   -0.0000117     0.0000425   -0.0003507     0.0003859    0.0003138 
   0.138584642     0.0355943   -0.1481510     0.0000351    0.0002151     0.0000745    0.0000907    -0.0001407    0.0002270 
   0.138684667     0.0352587   -0.1481962    -0.0001153    0.0002474    -0.0002339   -0.0001132     0.0001110    0.0005845 
   0.138784692     0.0359275   -0.1479504     0.0002605    0.0001083    -0.0002507   -0.0001684    -0.0002630    0.0006484 
   0.138884717     0.0357169   -0.1474289     0.0001633    0.0001791    -0.0000052    0.0002611     0.0000137    0.0007333 
   0.138984742     0.0354075   -0.1477521    -0.0002580    0.0001117     0.0000343    0.0002240    -0.0000289    0.0005475 
   0.139084767     0.0355375   -0.1474060    -0.0000380    0.0001871     0.0000493   -0.0001040     0.0000069    0.0010614 
   0.139184792     0.0352897   -0.1466153     0.0000005    0.0000966     0.0000157    0.0001132     0.0000467    0.0007634 
   0.139284817     0.0359100   -0.1470393    -0.0000781    0.0002369     0.0001000   -0.0002062     0.0005811    0.0002380 
   0.139384842     0.0347223   -0.1472322     0.0000312   -0.0001546     0.0002475   -0.0002335    -0.0001455    0.0005937 
   0.139484867     0.0352038   -0.1461418    -0.0000424    0.0000050    -0.0001337   -0.0000899    -0.0001318    0.0009584 
   0.139584892     0.0354123   -0.1471741     0.0000940    0.0003744    -0.0000259   -0.0001703     0.0001050    0.0003870 
   0.139684917     0.0352918   -0.1466171     0.0000091   -0.0001220    -0.0000382    0.0000032    -0.0003724    0.0004874 
   0.139784942     0.0354551   -0.1461877    -0.0002395   -0.0000077     0.0001341   -0.0001532    -0.0000617    0.0003358 
   0.139884967     0.0350149   -0.1461695    -0.0000666   -0.0003749    -0.0000184   -0.0000946    -0.0001457    0.0002237 
   0.139984992     0.0350624   -0.1451613    -0.0000370    0.0000332    -0.0000897   -0.0000470     0.0000131    0.0002627 
   0.140085018     0.0354388   -0.1456922    -0.0002059   -0.0000444     0.0001808    0.0002466     0.0001053    0.0006339 
   0.140185043     0.0353337   -0.1455042     0.0000899   -0.0003891     0.0001483   -0.0000443    -0.0001230    0.0012363 
   0.140285068     0.0352872   -0.1442848    -0.0001724   -0.0002559     0.0002298    0.0000707     0.0001978    0.0006416 
   0.140385093     0.0357537   -0.1450731     0.0001895    0.0000625    -0.0000254    0.0000698    -0.0005484    0.0005732 
   0.140485118     0.0348166   -0.1446120    -0.0000825   -0.0000594     0.0000911    0.0002098    -0.0002168    0.0011273 
   0.140585143     0.0350819   -0.1444083    -0.0000268   -0.0000203     0.0000396    0.0001336     0.0003931    0.0003281 
   0.140685168     0.0350029   -0.1448059     0.0002730   -0.0001151     0.0001547   -0.0001701    -0.0002115    0.0004571 
   0.140785193     0.0350561   -0.1441293    -0.0000194    0.0001223     0.0002309    0.0001090     0.0000472    0.0009648 
   0.140885218     0.0348481   -0.1441755     0.0001129    0.0001925    -0.0002050    0.0000233    -0.0000967    0.0001744 
   0.140985243     0.0348220   -0.1437070     0.0002125    0.0000782     0.0002135   -0.0000084     0.0000435    0.0003448 
   0.141085268     0.0357031   -0.1440316     0.0003140   -0.0000308     0.0000084    0.0000244     0.0000548    0.0002795 
   0.141185293     0.0342499   -0.1434874     0.0003519    0.0001638    -0.0003092   -0.0002080     0.0004835    0.0003508 
   0.141285318     0.0351740   -0.1435458    -0.0000074    0.0000080     0.0000319    0.0000762    -0.0003866    0.0005751 
   0.141385343     0.0346717   -0.1430677     0.0000715   -0.0000230    -0.0000001    0.0001425     0.0000560    0.0005030 
   0.141485368     0.0355304   -0.1429950     0.0000355   -0.0000125    -0.0000680   -0.0000137     0.0001116    0.0000775 
   0.141585393     0.0353247   -0.1424407     0.0001429    0.0000034     0.0000040   -0.0000176     0.0000123    0.0003296 
   0.141685418     0.0351192   -0.1433098    -0.0001272   -0.0001437     0.0001424   -0.0001084    -0.0002772    0.0007213 
   0.141785443     0.0342805   -0.1422561     0.0001343    0.0000894     0.0000783    0.0000046    -0.0002432    0.0007519 
   0.141885468     0.0352579   -0.1422038    -0.0000913    0.0003708     0.0001474    0.0001440    -0.0001146    0.0003929 
   0.141985493     0.0345654   -0.1416499    -0.0000647   -0.0004283    -0.0000262    0.0000690    -0.0003922    0.0000544 
   0.142085518     0.0345310   -0.1419108     0.0002289    0.0002059     0.0000764   -0.0000609    -0.0005009    0.0004200 
   0.142185543     0.0345305   -0.1415869     0.0003001    0.0003755     0.0002000    0.0000994    -0.0001416    0.0005156 
   0.142285568     0.0348495   -0.1422820     0.0000792    0.0002262     0.0000210    0.0000299    -0.0003936    0.0005206 
   0.142385593     0.0347608   -0.1413342    -0.0001231   -0.0000071    -0.0000700    0.0001354     0.0000925    0.0011239 
   0.142485618     0.0341732   -0.1413959    -0.0001093    0.0000863    -0.0000415   -0.0000895    -0.0005328    0.0006167 
   0.142585643     0.0346956   -0.1405270    -0.0001895   -0.0000139    -0.0000143   -0.0002259     0.0001448    0.0004673 
   0.142685668     0.0347205   -0.1408031     0.0000523    0.0001914    -0.0000080    0.0002124    -0.0002030    0.0003773 
   0.142785693     0.0342045   -0.1405678     0.0000733    0.0000347     0.0001129    0.0001923    -0.0002690    0.0009024 
   0.142885718     0.0346004   -0.1402848     0.0000020   -0.0001656    -0.0001691   -0.0002522    -0.0005152    0.0006881 
   0.142985743     0.0339744   -0.1403212    -0.0002384   -0.0001278    -0.0000315   -0.0001422    -0.0004811    0.0004045 
   0.143085768     0.0349013   -0.1407933     0.0000739    0.0001888     0.0003011   -0.0000328    -0.0000529    0.0003825 
   0.143185793     0.0346597   -0.1400492     0.0001873   -0.0000644    -0.0001451    0.0000463    -0.0004208    0.0006108 
   0.143285818     0.0345661   -0.1398114     0.0000323   -0.0001577     0.0001196   -0.0001328    -0.0005639    0.0009286 
   0.143385843     0.0346841   -0.1396230    -0.0002529    0.0000974     0.0000454   -0.0001009     0.0001281    0.0003761 
   0.143485868     0.0340779   -0.1402781     0.0003941    0.0000060    -0.0002915    0.0000252    -0.0003649    0.0009139 
   0.143585893     0.0342108   -0.1401638     0.0001439   -0.0001365     0.0001707    0.0001531    -0.0001965    0.0006134 
   0.143685918     0.0337973   -0.1387563    -0.0000055   -0.0001501    -0.0001025    0.0000118    -0.0004551    0.0006581 
   0.143785943     0.0341649   -0.1388256    -0.0000961    0.0000601     0.0000210   -0.0000636    -0.0005349    0.0004509 
   0.143885968     0.0341571   -0.1390612    -0.0000096   -0.0002617     0.0001024    0.0001022    -0.0001636    0.0000208 
   0.143985993     0.0340563   -0.1385069     0.0000446   -0.0000545     0.0000042    0.0000240    -0.0000545   -0.0000220 
   0.144086018     0.0340849   -0.1388094     0.0000212    0.0001690     0.0000009    0.0000807     0.0000021    0.0007211 
   0.144186043     0.0338493   -0.1386993     0.0001437   -0.0000005    -0.0000175   -0.0000233    -0.0002933    0.0007388 
   0.144286068     0.0343211   -0.1379819    -0.0001193   -0.0001634     0.0000594    0.0003108    -0.0002287    0.0007930 
   0.144386093     0.0342318   -0.1381039     0.0000414   -0.0000420     0.0000717   -0.0000160    -0.0000634    0.0005322 
   0.144486118     0.0345324   -0.1378839    -0.0001384   -0.0000173    -0.0000116    0.0001164    -0.0003785   -0.0001162 
   0.144586143     0.0335889   -0.1372917     0.0001049   -0.0002510    -0.0000290    0.0000357    -0.0002912    0.0004304 
   0.144686168     0.0348865   -0.1363793     0.0005234   -0.0000168     0.0001595    0.0001266    -0.0003000    0.0008399 
   0.144786193     0.0338730   -0.1371176    -0.0000862    0.0001504    -0.0001932   -0.0000327    -0.0002850    0.0003363 
   0.144886218     0.0340764   -0.1369303     0.0001441    0.0002976    -0.0002255   -0.0001548    -0.0001768    0.0004924 
   0.144986243     0.0341581   -0.1366957    -0.0000397   -0.0000501    -0.0000417    0.0001934    -0.0001381    0.0004896 
   0.145086268     0.0341326   -0.1367564    -0.0002896   -0.0001029    -0.0001086    0.0001208    -0.0002427    0.0006349 
   0.145186293     0.0338353   -0.1366548     0.0004295    0.0001194    -0.0003355    0.0000178    -0.0006116    0.0000322 
   0.145286318     0.0336720   -0.1360653    -0.0000355    0.0000840    -0.0000210    0.0000152    -0.0002374    0.0004311 
   0.145386343     0.0333794   -0.1364924     0.0000523    0.0000483     0.0000237    0.0000170    -0.0003265    0.0004735 
   0.145486368     0.0341133   -0.1359602     0.0001222    0.0000879     0.0001639    0.0003796    -0.0000588    0.0010191 
   0.145586393     0.0348896   -0.1355569    -0.0000851    0.0002539     0.0001972    0.0000485    -0.0004199    0.0002249 
   0.145686418     0.0341087   -0.1359229     0.0000653   -0.0000850    -0.0000210    0.0001094     0.0000214    0.0003771 
   0.145786443     0.0344250   -0.1353019    -0.0000299   -0.0001375    -0.0003564   -0.0000343    -0.0004053    0.0009067 
   0.145886468     0.0338886   -0.1346197    -0.0001255   -0.0001051     0.0000809   -0.0001188    -0.0002164    0.0001980 
   0.145986493     0.0338360   -0.1357811    -0.0002571   -0.0000384     0.0002026   -0.0000408     0.0000143    0.0007625 
   0.146086518     0.0339784   -0.1352529     0.0000446   -0.0000444     0.0001772    0.0001030    -0.0001562    0.0003099 
   0.146186543     0.0337081   -0.1351435    -0.0000603    0.0000328     0.0000713   -0.0000683    -0.0000833    0.0006426 
   0.146286568     0.0330916   -0.1344963    -0.0000512   -0.0000030     0.0000785    0.0001568    -0.0002039    0.0002184 
   0.146386593     0.0338943   -0.1349843    -0.0001586    0.0003668    -0.0000648    0.0000326    -0.0002074    0.0003889 
   0.146486618     0.0331658   -0.1345949     0.0000333   -0.0001877    -0.0000100    0.0000219    -0.0000474    0.0001645 
   0.146586643     0.0338542   -0.1338315    -0.0003551    0.0002186    -0.0000536   -0.0001594    -0.0005292    0.0002976 
   0.146686668     0.0344509   -0.1343047     0.0004245   -0.0003132     0.0001274   -0.0000554    -0.0005072    0.0001708 
   0.146786693     0.0335755   -0.1339159    -0.0002786   -0.0000128     0.0001596   -0.0001527    -0.0001870    0.0006195 
   0.146886718     0.0336876   -0.1335745    -0.0000732    0.0000495    -0.0002922   -0.0000822     0.0000516    0.0008154 
   0.146986743     0.0338497   -0.1336172    -0.0000217    0.0000200    -0.0000880    0.0000905    -0.0004209    0.0005365 
   0.147086768     0.0333057   -0.1334927     0.0001628    0.0000113    -0.0000692   -0.0000027    -0.0002407    0.0003717 
   0.147186793     0.0339030   -0.1335620     0.0005389    0.0004123    -0.0000529    0.0000136    -0.0002639    0.0003353 
   0.147286818     0.0341434   -0.1327981    -0.0005925   -0.0000699    -0.0000089    0.0000593    -0.0001034    0.0007609 
   0.147386843     0.0334781   -0.1329027     0.0002272   -0.0000545    -0.0002404   -0.0001347    -0.0005067    0.0002665 
   0.147486868     0.0341849   -0.1327925     0.0001427    0.0001710    -0.0000900   -0.0000215    -0.0001769    0.0001913 
   0.147586893     0.0333504   -0.1328275     0.0000222    0.0000219     0.0000363   -0.0000350    -0.0005974    0.0005911 
   0.147686918     0.0332273   -0.1319377     0.0000995   -0.0001735     0.0003030    0.0001122    -0.0000591    0.0004370 
   0.147786943     0.0337981   -0.1322761    -0.0002565    0.0002742     0.0001529    0.0000693    -0.0001101    0.0007629 
   0.147886968     0.0339698   -0.1320795     0.0002959    0.0000294     0.0000415    0.0000343    -0.0006454    0.0003449 
   0.147986993     0.0337371   -0.1320434     0.0000713   -0.0002043     0.0000866   -0.0000892    -0.0003043    0.0005413 
   0.148087019     0.0339718   -0.1325830    -0.0003623   -0.0001274     0.0002074    0.0000090    -0.0003316    0.0005540 
   0.148187044     0.0333626   -0.1317902    -0.0002005   -0.0000801     0.0000557    0.0002659    -0.0004935    0.0004976 
   0.148287069     0.0341854   -0.1325435    -0.0001293    0.0001617    -0.0000500    0.0000891    -0.0006307    0.0004206 
   0.148387094     0.0339464   -0.1310865    -0.0001295   -0.0002077    -0.0000735   -0.0001202    -0.0005232    0.0004716 
   0.148487119     0.0338051   -0.1317865     0.0001430   -0.0001945     0.0000256    0.0000126    -0.0004282    0.0002537 
   0.148587144     0.0348055   -0.1314672     0.0001758   -0.0001225     0.0000228   -0.0000970     0.0001675    0.0007644 
   0.148687169     0.0333272   -0.1305847     0.0001880    0.0000758    -0.0000497   -0.0000055    -0.0005419    0.0003601 
   0.148787194     0.0333162   -0.1301368     0.0000560   -0.0000201    -0.0001388   -0.0002029    -0.0001159    0.0005710 
   0.148887219     0.0335107   -0.1304874     0.0000716   -0.0001247     0.0001711   -0.0001608    -0.0003957    0.0006444 
   0.148987244     0.0339207   -0.1305425    -0.0001633    0.0000343    -0.0000839   -0.0001021    -0.0003338    0.0001361 
   0.149087269     0.0334408   -0.1298934    -0.0004625    0.0003275     0.0000285    0.0001069    -0.0003705    0.0006252 
   0.149187294     0.0327444   -0.1299102     0.0000092    0.0001019    -0.0000274   -0.0002304    -0.0001465    0.0003164 
   0.149287319     0.0329738   -0.1298426     0.0000467   -0.0001433     0.0000045    0.0000557    -0.0006488    0.0001445 
   0.149387344     0.0335058   -0.1291739    -0.0000900    0.0000760     0.0001442   -0.0001091    -0.0007410    0.0001640 
   0.149487369     0.0332235   -0.1297961     0.0001820    0.0000297     0.0000103    0.0000428    -0.0000189   -0.0000813 
   0.149587394     0.0323983   -0.1290899     0.0001933   -0.0002195    -0.0000597   -0.0000465    -0.0003527   -0.0000144 
   0.149687419     0.0331036   -0.1294723     0.0003197    0.0001020     0.0000416   -0.0002816    -0.0000036    0.0002197 
   0.149787444     0.0326569   -0.1288692    -0.0001711   -0.0001823    -0.0001202   -0.0000516    -0.0003023    0.0004909 
   0.149887469     0.0334701   -0.1287609    -0.0001795    0.0002916     0.0000211    0.0000585    -0.0001739    0.0002890 
   0.149987494     0.0333934   -0.1293307    -0.0001601   -0.0001553     0.0001247   -0.0001505     0.0002254    0.0002818 
   0.150087519     0.0332485   -0.1283202     0.0001589    0.0000168    -0.0000002   -0.0001976    -0.0002832    0.0003172 
   0.150187544     0.0331212   -0.1286421    -0.0002438   -0.0001102    -0.0000659    0.0000589    -0.0004518    0.0002200 
   0.150287569     0.0335718   -0.1282415    -0.0001586    0.0002037    -0.0000355   -0.0001042    -0.0005524    0.0004746 
   0.150387594     0.0327506   -0.1279389    -0.0000140   -0.0000170     0.0000627    0.0000493    -0.0004381    0.0002354 
   0.150487619     0.0330609   -0.1274560     0.0001340   -0.0001361     0.0002553   -0.0000727     0.0000066    0.0004836 
   0.150587644     0.0332283   -0.1277416    -0.0000940    0.0000188    -0.0000525   -0.0001389    -0.0000033    0.0006113 
   0.150687669     0.0328029   -0.1273264     0.0003740    0.0000772    -0.0000160    0.0000775    -0.0002825   -0.0000043 
   0.150787694     0.0334154   -0.1268521    -0.0001258    0.0003110    -0.0000507    0.0000218    -0.0004948    0.0000163 
   0.150887719     0.0329122   -0.1277986    -0.0000116    0.0002679    -0.0000128   -0.0000942    -0.0001788    0.0010239 
   0.150987744     0.0339838   -0.1264150     0.0000455    0.0003012     0.0000392   -0.0002144    -0.0003404    0.0003790 
   0.151087769     0.0329978   -0.1270871     0.0000769   -0.0001025    -0.0001073    0.0000532    -0.0004345    0.0001165 
   0.151187794     0.0333741   -0.1264458    -0.0001017   -0.0001587     0.0000261   -0.0000390    -0.0001011    0.0001078 
   0.151287819     0.0332852   -0.1265114     0.0001549   -0.0001042    -0.0000659   -0.0001087    -0.0000857    0.0002583 
   0.151387844     0.0333030   -0.1268230    -0.0000357    0.0002660    -0.0000114   -0.0001314     0.0002922   -0.0003563 
   0.151487869     0.0329323   -0.1262341    -0.0001828   -0.0004966    -0.0000031   -0.0001321     0.0000485    0.0000705 
   0.151587894     0.0330884   -0.1261682    -0.0000617   -0.0001020    -0.0003015    0.0001854    -0.0002294    0.0000203 
   0.151687919     0.0328310   -0.1260066    -0.0002609   -0.0001122    -0.0003408   -0.0001222    -0.0000851    0.0004686 
   0.151787944     0.0332812   -0.1259894     0.0002597    0.0003492     0.0001951    0.0000266    -0.0002802    0.0003815 
   0.151887969     0.0337660   -0.1251361    -0.0000763    0.0000696    -0.0001448    0.0000069    -0.0001632   -0.0000965 
   0.151987994     0.0325108   -0.1260213     0.0000585   -0.0000025    -0.0000491   -0.0000256    -0.0004588    0.0003191 
   0.152088019     0.0321025   -0.1249364    -0.0001917   -0.0003519    -0.0000580   -0.0002911    -0.0005659    0.0005772 
   0.152188044     0.0329783   -0.1247072     0.0000078   -0.0000247    -0.0001146   -0.0000007    -0.0003863    0.0003561 
   0.152288069     0.0331744   -0.1256108    -0.0000820   -0.0000943    -0.0000511   -0.0002253     0.0000124    0.0005496 
   0.152388094     0.0337053   -0.1251072    -0.0002602    0.0001995     0.0000094    0.0001076    -0.0005302    0.0002548 
   0.152488119     0.0333416   -0.1247625     0.0000001   -0.0001526    -0.0001915   -0.0000941    -0.0007711    0.0000754 
   0.152588144     0.0337007   -0.1244374     0.0001914    0.0003526    -0.0000063   -0.0001951    -0.0000267    0.0004617 
   0.152688169     0.0331543   -0.1242058     0.0003947   -0.0003208    -0.0000485    0.0001129    -0.0007291   -0.0002494 
   0.152788194     0.0326255   -0.1240095    -0.0003476   -0.0000064     0.0001424   -0.0000183    -0.0003412    0.0001867 
   0.152888219     0.0336007   -0.1246144     0.0001196    0.0003060     0.0001764    0.0000438    -0.0004815    0.0004478 
   0.152988244     0.0332614   -0.1230260    -0.0002237    0.0002668     0.0000366    0.0000201    -0.0007062   -0.0001306 
   0.153088269     0.0327423   -0.1235888     0.0001725   -0.0001456     0.0000252    0.0000855    -0.0000416    0.0004646 
   0.153188294     0.0333616   -0.1236912    -0.0001645    0.0001394     0.0001338   -0.0000472    -0.0003556    0.0003161 
   0.153288319     0.0332448   -0.1235305    -0.0000287   -0.0000006    -0.0001327    0.0001683    -0.0002706    0.0003320 
   0.153388344     0.0331101   -0.1232373    -0.0000217    0.0002342     0.0000740    0.0002005    -0.0003191    0.0003025 
   0.153488369     0.0331353   -0.1230756     0.0000921    0.0001136     0.0000698    0.0000811     0.0003456    0.0006631 
   0.153588394     0.0326619   -0.1229869     0.0001358   -0.0001418     0.0000178    0.0000542    -0.0004308    0.0001888 
   0.153688419     0.0330308   -0.1228749    -0.0001791    0.0001547    -0.0002070   -0.0000674    -0.0006796    0.0005070 
   0.153788444     0.0324243   -0.1218643     0.0001132    0.0002498    -0.0000447   -0.0001707    -0.0001574    0.0002559 
   0.153888469     0.0329401   -0.1229799    -0.0001714   -0.0001137     0.0000735    0.0000178    -0.0001735    0.0002215 
   0.153988494     0.0330417   -0.1218424    -0.0000423    0.0000472     0.0001795    0.0002241    -0.0002014    0.0009351 
   0.154088519     0.0325429   -0.1223097     0.0001732    0.0001672    -0.0000502    0.0000645    -0.0004702    0.0006685 
   0.154188544     0.0329114   -0.1218380     0.0001489   -0.0000005    -0.0001676   -0.0000632    -0.0004018    0.0003028 
   0.154288569     0.0327888   -0.1220177     0.0002155   -0.0001675    -0.0000887    0.0001351    -0.0008932    0.0005708 
   0.154388594     0.0328117   -0.1214255     0.0002139    0.0002232     0.0000197   -0.0000682    -0.0001925    0.0002184 
   0.154488619     0.0330693   -0.1217932    -0.0000532   -0.0003146    -0.0000324    0.0000735    -0.0004725    0.0002879 
   0.154588644     0.0327133   -0.1211757     0.0003506    0.0000172    -0.0001247   -0.0001421    -0.0007430   -0.0000976 
   0.154688669     0.0330362   -0.1213236     0.0001144   -0.0002251     0.0000077    0.0000263    -0.0000873    0.0002454 
   0.154788694     0.0326587   -0.1209667    -0.0002256    0.0001592    -0.0002051   -0.0002267    -0.0002640    0.0003326 
   0.154888719     0.0325553   -0.1205012     0.0000774    0.0000054     0.0000083    0.0000177     0.0001695    0.0003492 
   0.154988744     0.0330614   -0.1202347     0.0003049    0.0001434    -0.0002169   -0.0000051    -0.0004518    0.0001839 
   0.155088769     0.0329333   -0.1204181     0.0000611   -0.0002645     0.0001727   -0.0001850    -0.0004564    0.0003422 
   0.155188794     0.0331866   -0.1200486    -0.0000440   -0.0001618    -0.0000663    0.0001051    -0.0000523    0.0001892 
   0.155288819     0.0326173   -0.1198329    -0.0001915   -0.0000871    -0.0001465   -0.0001623     0.0001003    0.0005183 
   0.155388844     0.0339314   -0.1198879    -0.0000677   -0.0000128     0.0001052   -0.0002970    -0.0005393    0.0000785 
   0.155488869     0.0327640   -0.1188261    -0.0001179   -0.0000873    -0.0000972   -0.0001957    -0.0000371    0.0001046 
   0.155588894     0.0327262   -0.1195898     0.0001161   -0.0001028    -0.0000690    0.0002280    -0.0000821   -0.0000836 
   0.155688919     0.0321771   -0.1194312    -0.0002559   -0.0000139    -0.0000258   -0.0000606    -0.0003395    0.0003421 
   0.155788944     0.0331142   -0.1196280    -0.0000705    0.0000294    -0.0000084    0.0003413     0.0000722    0.0003232 
   0.155888969     0.0325257   -0.1198902     0.0001105   -0.0000583    -0.0000466    0.0001209    -0.0004422    0.0004701 
   0.155988994     0.0328001   -0.1194801    -0.0000176    0.0002132    -0.0001003   -0.0001675     0.0000126    0.0001177 
   0.156089020     0.0327341   -0.1191661    -0.0003868    0.0000693    -0.0000536   -0.0000439    -0.0004657    0.0003457 
   0.156189045     0.0325549   -0.1187838     0.0000524    0.0001983     0.0001219    0.0000142    -0.0000881    0.0000163 
   0.156289070     0.0323503   -0.1184332     0.0001808   -0.0000843     0.0000224    0.0001472    -0.0005533    0.0004436 
   0.156389095     0.0328825   -0.1178362     0.0000886   -0.0001925     0.0002628   -0.0000681    -0.0000810   -0.0005088 
   0.156489120     0.0321246   -0.1187478     0.0000331    0.0001703    -0.0001625   -0.0000392     0.0001063    0.0002143 
   0.156589145     0.0325303   -0.1185768     0.0000202   -0.0000393    -0.0000019    0.0001712    -0.0003340    0.0000851 
   0.156689170     0.0330750   -0.1184804    -0.0000818    0.0003639     0.0000468   -0.0000400    -0.0003838    0.0002278 
   0.156789195     0.0330621   -0.1181438    -0.0001369    0.0001057     0.0001181   -0.0000879    -0.0001367    0.0002112 
   0.156889220     0.0331687   -0.1175167     0.0000336   -0.0002768     0.0000762   -0.0002391     0.0001427    0.0004147 
   0.156989245     0.0326264   -0.1172744     0.0000647    0.0002501    -0.0000496   -0.0001431    -0.0006902    0.0005561 
   0.157089270     0.0320026   -0.1171133     0.0000538    0.0002219    -0.0000234    0.0000669    -0.0002644   -0.0000801 
   0.157189295     0.0327576   -0.1175537    -0.0000087   -0.0001188    -0.0000272   -0.0000160    -0.0005854   -0.0000767 
   0.157289320     0.0324690   -0.1171271    -0.0000314   -0.0003002     0.0000084    0.0001195    -0.0001238    0.0004929 
   0.157389345     0.0322332   -0.1167553     0.0000805    0.0002158     0.0001297   -0.0000896    -0.0004478    0.0006995 
   0.157489370     0.0325459   -0.1162843    -0.0000229    0.0001456    -0.0002933   -0.0000100    -0.0000546    0.0002422 
   0.157589395     0.0324449   -0.1164453     0.0002616   -0.0000980     0.0001911    0.0001378    -0.0001715   -0.0004350 
   0.157689420     0.0328896   -0.1171310     0.0000127   -0.0000990     0.0000432   -0.0001165    -0.0003089    0.0000066 
   0.157789445     0.0334351   -0.1170632     0.0002804    0.0000929     0.0000203    0.0000472    -0.0001828   -0.0000312 
   0.157889470     0.0326880   -0.1162992     0.0003361   -0.0000106     0.0000247   -0.0000511    -0.0002921    0.0000816 
   0.157989495     0.0318845   -0.1158504    -0.0002269    0.0000737     0.0000004    0.0000572    -0.0004046    0.0005294 
   0.158089520     0.0327193   -0.1158434     0.0000194   -0.0001587    -0.0000131   -0.0000374     0.0000206   -0.0000137 
   0.158189545     0.0328238   -0.1152435     0.0000511    0.0001553     0.0000146   -0.0000963    -0.0004915    0.0000929 
   0.158289570     0.0328634   -0.1158570     0.0002407   -0.0001217     0.0001498   -0.0000081     0.0001548   -0.0000894 
   0.158389595     0.0323071   -0.1153677    -0.0000441   -0.0000118    -0.0000977   -0.0001019    -0.0004756    0.0000829 
   0.158489620     0.0324199   -0.1145489     0.0000359   -0.0000317    -0.0000960   -0.0000275    -0.0004385    0.0002743 
   0.158589645     0.0328196   -0.1154330    -0.0000922    0.0000759     0.0001043   -0.0001206    -0.0003784    0.0000475 
   0.158689670     0.0325851   -0.1154882    -0.0003416    0.0004774    -0.0001938   -0.0002014     0.0003301    0.0003488 
   0.158789695     0.0327138   -0.1146792    -0.0002867    0.0001197     0.0000696    0.0000083    -0.0000864    0.0000679 
   0.158889720     0.0328042   -0.1143875    -0.0001985   -0.0001482    -0.0000891    0.0000663     0.0000699    0.0001624 
   0.158989745     0.0326852   -0.1143880     0.0000602   -0.0002830    -0.0001281   -0.0003137    -0.0005965    0.0000629 
   0.159089770     0.0334152   -0.1140410     0.0001186   -0.0000879     0.0000789   -0.0002139    -0.0003107   -0.0001607 
   0.159189795     0.0323608   -0.1139538    -0.0000438    0.0001111     0.0000186   -0.0000336     0.0001982    0.0003562 
   0.159289820     0.0325660   -0.1140161     0.0000368   -0.0002727     0.0001689   -0.0000810    -0.0002822   -0.0000148 
   0.159389845     0.0323334   -0.1145103     0.0000269   -0.0000013    -0.0001650   -0.0001422    -0.0002209   -0.0000825 
   0.159489870     0.0324473   -0.1136495     0.0000504   -0.0000618     0.0000158    0.0000292    -0.0001221   -0.0004575 
   0.159589895     0.0324746   -0.1125151     0.0000398   -0.0000951     0.0001880    0.0000388     0.0000509    0.0004170 
   0.159689920     0.0325942   -0.1135934     0.0003016    0.0000196    -0.0001520    0.0000288    -0.0001117    0.0001927 
   0.159789945     0.0333436   -0.1136677     0.0001668    0.0001100     0.0000712   -0.0001549    -0.0002256   -0.0001521 
   0.159889970     0.0328695   -0.1131957     0.0002148   -0.0001744     0.0000312    0.0001808    -0.0005245    0.0001563 
   0.159989995     0.0323374   -0.1132691     0.0003000    0.0000173     0.0000251   -0.0000060    -0.0005545    0.0000149 
   0.160090020     0.0324577   -0.1126564    -0.0001229   -0.0000720     0.0000291    0.0000309    -0.0007263    0.0001425 
   0.160190045     0.0328459   -0.1120720     0.0000788    0.0002001     0.0000751    0.0001286    -0.0002991   -0.0001825 
   0.160290070     0.0329203   -0.1128388     0.0001429   -0.0001031    -0.0000898   -0.0001684    -0.0002834    0.0000744 
   0.160390095     0.0327462   -0.1121472    -0.0001797    0.0001939     0.0001283   -0.0000892     0.0001854    0.0000668 
   0.160490120     0.0325432   -0.1123275     0.0000453    0.0002432     0.0000190   -0.0000735    -0.0005533   -0.0004627 
   0.160590145     0.0328835   -0.1117767    -0.0002315   -0.0002245    -0.0001109    0.0000823    -0.0000253    0.0001578 
   0.160690170     0.0324660   -0.1116387    -0.0005073    0.0001456     0.0000845   -0.0000317    -0.0006760   -0.0002463 
   0.160790195     0.0324075   -0.1112973     0.0000430   -0.0003340    -0.0002566    0.0000609    -0.0003074    0.0000710 
   0.160890220     0.0334241   -0.1111610     0.0000034    0.0000262     0.0001951   -0.0000664    -0.0002147    0.0002074 
   0.160990245     0.0326901   -0.1118740     0.0000345   -0.0000697    -0.0000595    0.0001283    -0.0003582    0.0000443 
   0.161090270     0.0320465   -0.1121824    -0.0002328   -0.0000480     0.0000818   -0.0001287    -0.0004884    0.0003364 
   0.161190295     0.0322797   -0.1110335    -0.0001513    0.0000135    -0.0000567    0.0001430    -0.0006964    0.0005828 
   0.161290320     0.0331598   -0.1107697     0.0000135    0.0000833    -0.0001422   -0.0001319    -0.0005464   -0.0003016 
   0.161390345     0.0327429   -0.1107232    -0.0000467    0.0000609     0.0001799    0.0000645    -0.0003683    0.0001259 
   0.161490370     0.0322923   -0.1101992    -0.0002611    0.0001366     0.0001482   -0.0001657    -0.0004773    0.0000615 
   0.161590395     0.0325952   -0.1098853     0.0000543   -0.0000159    -0.0000003   -0.0000708     0.0003480   -0.0002712 
   0.161690420     0.0328890   -0.1105381     0.0000221    0.0000972    -0.0002389   -0.0001974    -0.0000913    0.0000211 
   0.161790445     0.0328321   -0.1097222     0.0001330   -0.0000564     0.0001127    0.0000898     0.0000175   -0.0000629 
   0.161890470     0.0321711   -0.1094955    -0.0002299   -0.0003142    -0.0001108   -0.0001411    -0.0000752   -0.0001804 
   0.161990495     0.0326120   -0.1097352    -0.0002337    0.0000799    -0.0001269    0.0000228     0.0002773   -0.0000172 
   0.162090520     0.0330973   -0.1100530    -0.0000985    0.0000446     0.0001132    0.0002223     0.0001527    0.0000434 
   0.162190545     0.0328983   -0.1096319    -0.0001806    0.0002394    -0.0001590    0.0001374    -0.0004465   -0.0001795 
   0.162290570     0.0327731   -0.1098095    -0.0001307    0.0000793    -0.0000769   -0.0002889    -0.0002029   -0.0003436 
   0.162390595     0.0331725   -0.1096427     0.0001248    0.0000028    -0.0000081    0.0000293    -0.0000599   -0.0002594 
   0.162490620     0.0327117   -0.1090060    -0.0001793    0.0000396     0.0000801    0.0000514    -0.0006188   -0.0003216 
   0.162590645     0.0329200   -0.1086418    -0.0002107    0.0000796    -0.0001246   -0.0001025    -0.0005476   -0.0001309 
   0.162690670     0.0331521   -0.1093688     0.0001278   -0.0000334     0.0001224    0.0000229    -0.0002488   -0.0001001 
   0.162790695     0.0332210   -0.1081368     0.0001263   -0.0001255     0.0000722    0.0000516    -0.0002382   -0.0000142 
   0.162890720     0.0334610   -0.1089157    -0.0000596    0.0000418    -0.0001447   -0.0000339    -0.0003557    0.0001754 
   0.162990745     0.0327948   -0.1089301     0.0000191    0.0000394    -0.0000145    0.0001210    -0.0000724   -0.0003901 
   0.163090770     0.0327953   -0.1086672    -0.0001142   -0.0001761    -0.0001724    0.0000911    -0.0001341   -0.0000237 
   0.163190795     0.0332013   -0.1082760     0.0000303    0.0001036     0.0000753   -0.0000263     0.0001041   -0.0001577 
   0.163290820     0.0325453   -0.1083842    -0.0000156    0.0001551    -0.0002731    0.0000983    -0.0006192   -0.0000274 
   0.163390845     0.0324138   -0.1081766     0.0000536   -0.0000146    -0.0000687   -0.0000329    -0.0004758   -0.0002108 
   0.163490870     0.0324347   -0.1077056    -0.0001601    0.0001114     0.0002848    0.0000377     0.0000748   -0.0000421 
   0.163590895     0.0327341   -0.1068557     0.0001163   -0.0002536     0.0000551    0.0001766    -0.0002496    0.0002230 
   0.163690920     0.0334489   -0.1073554     0.0004001    0.0000997     0.0001383    0.0001251    -0.0000363   -0.0000233 
   0.163790945     0.0325168   -0.1073651    -0.0001310   -0.0000671     0.0001039   -0.0000172    -0.0004312   -0.0000033 
   0.163890970     0.0329904   -0.1066149     0.0000518   -0.0003075    -0.0000630    0.0001681     0.0001067   -0.0000439 
   0.163990995     0.0333884   -0.1069414     0.0000468    0.0001051    -0.0000283    0.0000699     0.0000727   -0.0002205 
   0.164091021     0.0331291   -0.1067237     0.0001544    0.0000912     0.0001858   -0.0001501     0.0000090   -0.0005672 
   0.164191046     0.0328476   -0.1064606    -0.0001118   -0.0002579    -0.0002412   -0.0002366    -0.0003273    0.0001657 
   0.164291071     0.0330569   -0.1051433     0.0000578    0.0000782    -0.0000373   -0.0001468    -0.0001524    0.0000210 
   0.164391096     0.0325890   -0.1058505    -0.0000144   -0.0001304     0.0003095   -0.0001289    -0.0003212   -0.0005674 
   0.164491121     0.0333862   -0.1064706     0.0001328    0.0000438    -0.0000032    0.0000240     0.0000661   -0.0003975 
   0.164591146     0.0326081   -0.1054576    -0.0002627   -0.0002829    -0.0000074   -0.0001949    -0.0004836   -0.0004305 
   0.164691171     0.0327726   -0.1060033    -0.0001473   -0.0001868     0.0000368    0.0001274    -0.0004011   -0.0003926 
   0.164791196     0.0331075   -0.1059841     0.0002800   -0.0002727     0.0001509    0.0000479     0.0001620   -0.0002874 
   0.164891221     0.0328900   -0.1061925    -0.0001787    0.0001284     0.0000015   -0.0000748    -0.0003900   -0.0003207 
   0.164991246     0.0325164   -0.1062611     0.0001478    0.0000158    -0.0000354    0.0000055    -0.0001717   -0.0000648 
   0.165091271     0.0321473   -0.1059096    -0.0002583   -0.0000171    -0.0001004   -0.0000221     0.0000164   -0.0000626 
   0.165191296     0.0320391   -0.1050708     0.0001447    0.0001310    -0.0000176    0.0000185    -0.0005049   -0.0000811 
   0.165291321     0.0322982   -0.1052684    -0.0001653    0.0001658     0.0000278   -0.0001512     0.0000513   -0.0002123 
   0.165391346     0.0332821   -0.1050231    -0.0001821   -0.0001321     0.0001184   -0.0000440    -0.0000388   -0.0002437 
   0.165491371     0.0321653   -0.1048131     0.0002949    0.0000595     0.0000387   -0.0000891    -0.0004658   -0.0004270 
   0.165591396     0.0336362   -0.1048632    -0.0001850   -0.0001297     0.0000760    0.0000619    -0.0000236    0.0001497 
   0.165691421     0.0327379   -0.1048430     0.0002525   -0.0003074    -0.0001052    0.0001502    -0.0004221   -0.0001256 
   0.165791446     0.0330420   -0.1039319     0.0000741    0.0001720    -0.0000101    0.0001569    -0.0006617    0.0000199 
   0.165891471     0.0337808   -0.1042150    -0.0001821   -0.0001920     0.0000975   -0.0001488     0.0002084   -0.0004533 
   0.165991496     0.0325976   -0.1040407     0.0000895    0.0000783     0.0000660   -0.0000439    -0.0001549    0.0000423 
   0.166091521     0.0331402   -0.1040057     0.0000032    0.0000435     0.0002412    0.0000933    -0.0008506   -0.0001371 
   0.166191546     0.0334809   -0.1036512    -0.0000498   -0.0002922     0.0000723    0.0001693    -0.0005702   -0.0005712 
   0.166291571     0.0324930   -0.1025982     0.0001797   -0.0001913    -0.0001030   -0.0000597    -0.0005356   -0.0003050 
   0.166391596     0.0331034   -0.1043888     0.0002360    0.0002609     0.0000048    0.0000701    -0.0000307    0.0000177 
   0.166491621     0.0321264   -0.1034752    -0.0001168    0.0001341    -0.0001826   -0.0001505    -0.0006495   -0.0003326 
   0.166591646     0.0336373   -0.1033557    -0.0001609    0.0000187    -0.0000603   -0.0001031    -0.0004951   -0.0000225 
   0.166691671     0.0329933   -0.1031559     0.0000185    0.0001785    -0.0000713    0.0000330    -0.0002687    0.0000934 
   0.166791696     0.0331723   -0.1027358     0.0001183   -0.0000790     0.0001486   -0.0000850    -0.0002618   -0.0000963 
   0.166891721     0.0323704   -0.1026473    -0.0001415   -0.0001493     0.0000962    0.0000333    -0.0005454   -0.0000523 
   0.166991746     0.0332605   -0.1021579     0.0004230   -0.0001493    -0.0000675    0.0002020    -0.0003120   -0.0004004 
   0.167091771     0.0328460   -0.1024216     0.0000972    0.0001464     0.0001225   -0.0001112    -0.0006794    0.0000145 
   0.167191796     0.0329693   -0.1025752    -0.0000252    0.0001321    -0.0001194    0.0000023    -0.0003339   -0.0000874 
   0.167291821     0.0328010   -0.1025061     0.0000542    0.0000295    -0.0000023   -0.0000132    -0.0000116   -0.0000847 
   0.167391846     0.0331706   -0.1017792    -0.0001573   -0.0001697     0.0001268    0.0001221    -0.0002370   -0.0002667 
   0.167491871     0.0330102   -0.1024407     0.0002678    0.0000884     0.0001578   -0.0000892    -0.0003061   -0.0003354 
   0.167591896     0.0333888   -0.1009171    -0.0001504   -0.0000066    -0.0000302   -0.0000654    -0.0005087    0.0001374 
   0.167691921     0.0334645   -0.1018893     0.0001123    0.0001449     0.0000568   -0.0001719    -0.0005902   -0.0001021 
   0.167791946     0.0335514   -0.1009069    -0.0000846    0.0000415    -0.0000044   -0.0000130     0.0002277   -0.0001792 
   0.167891971     0.0330319   -0.1016174     0.0001240    0.0000023     0.0001220   -0.0000966    -0.0002930   -0.0003001 
   0.167991996     0.0330747   -0.1018603     0.0001762    0.0001151     0.0000827    0.0001800     0.0000264    0.0000273 
   0.168092021     0.0341091   -0.1012060    -0.0001865   -0.0004702    -0.0002159   -0.0001412    -0.0000337    0.0001097 
   0.168192046     0.0325812   -0.1019213     0.0000595   -0.0000245    -0.0000742   -0.0001002     0.0000394   -0.0002083 
   0.168292071     0.0329648   -0.1012795    -0.0000734    0.0000084    -0.0001990    0.0001099    -0.0001888   -0.0000102 
   0.168392096     0.0329366   -0.1007924    -0.0002147    0.0002099    -0.0000998   -0.0000702    -0.0004042   -0.0007068 
   0.168492121     0.0336208   -0.1004154     0.0003795   -0.0001559    -0.0000276    0.0000858     0.0002135   -0.0009269 
   0.168592146     0.0333460   -0.1006098     0.0000179   -0.0001215     0.0002812    0.0000700     0.0000456   -0.0003332 
   0.168692171     0.0332976   -0.0995177    -0.0002436    0.0000658     0.0000240   -0.0001870    -0.0004496   -0.0000248 
   0.168792196     0.0334386   -0.0997835     0.0001233   -0.0000328    -0.0000208   -0.0000991    -0.0000417   -0.0003258 
   0.168892221     0.0324474   -0.0992009     0.0003393    0.0003719     0.0001728   -0.0000494    -0.0000523   -0.0003378 
   0.168992246     0.0323042   -0.0994319     0.0000792   -0.0000472     0.0000397   -0.0000756    -0.0001162   -0.0002271 
   0.169092271     0.0329415   -0.0996942     0.0000581   -0.0000779    -0.0000912    0.0000990     0.0001637    0.0000562 
   0.169192296     0.0328723   -0.0996839    -0.0003014    0.0000229     0.0000877   -0.0003121    -0.0008675   -0.0000263 
   0.169292321     0.0335547   -0.0999727    -0.0000599    0.0000291    -0.0000748   -0.0001567     0.0000365   -0.0001712 
   0.169392346     0.0335641   -0.0995077    -0.0001376   -0.0001903    -0.0000375   -0.0000117     0.0003005   -0.0003465 
   0.169492371     0.0330208   -0.0989170     0.0002405   -0.0000758     0.0001848   -0.0001648     0.0001460   -0.0003093 
   0.169592396     0.0337115   -0.0989973     0.0001158    0.0000596    -0.0000561   -0.0000314     0.0000572   -0.0004154 
   0.169692421     0.0338298   -0.0991535    -0.0001657   -0.0002155     0.0001390   -0.0001369    -0.0003997   -0.0002891 
   0.169792446     0.0332052   -0.0997706     0.0000123   -0.0000821    -0.0001122    0.0000875    -0.0001247   -0.0001380 
   0.169892471     0.0325958   -0.0983449    -0.0002522   -0.0002458    -0.0002491    0.0002433    -0.0002374    0.0003709 
   0.169992496     0.0330269   -0.0986372     0.0001638   -0.0002848    -0.0000656    0.0001270     0.0001350   -0.0002111 
   0.170092521     0.0340137   -0.0982987    -0.0001879   -0.0000072     0.0001330    0.0000446    -0.0004958   -0.0003384 
   0.170192546     0.0336280   -0.0986388     0.0003475   -0.0000540    -0.0000202    0.0001932    -0.0002256   -0.0000001 
   0.170292571     0.0328280   -0.0976343     0.0001856    0.0000936    -0.0000003    0.0000796    -0.0001214   -0.0001432 
   0.170392596     0.0339964   -0.0989844     0.0001655   -0.0000817    -0.0000354   -0.0001018     0.0000857   -0.0002168 
   0.170492621     0.0335098   -0.0978907     0.0002892   -0.0001032     0.0000254    0.0000645    -0.0005159    0.0001877 
   0.170592646     0.0332160   -0.0985104     0.0001689    0.0002117    -0.0000710   -0.0000254    -0.0005498   -0.0003186 
   0.170692671     0.0340288   -0.0967306    -0.0000972   -0.0000542     0.0000706   -0.0001673    -0.0001840   -0.0001565 
   0.170792696     0.0330934   -0.0973707    -0.0001267   -0.0001925    -0.0000418    0.0000211    -0.0000510   -0.0001729 
   0.170892721     0.0335713   -0.0974681     0.0002126   -0.0001854     0.0000264   -0.0001495    -0.0002756   -0.0005242 
   0.170992746     0.0338327   -0.0966921    -0.0001307    0.0001216     0.0002133    0.0001138    -0.0006689   -0.0002065 
   0.171092771     0.0342566   -0.0965031     0.0001086   -0.0001571     0.0001175   -0.0000424    -0.0003536   -0.0003465 
   0.171192796     0.0339644   -0.0970168     0.0002216    0.0000941    -0.0000732   -0.0001890    -0.0002969   -0.0000164 
   0.171292821     0.0336374   -0.0968111     0.0001786    0.0000493    -0.0001044    0.0000935     0.0001212   -0.0002242 
   0.171392846     0.0340701   -0.0961173     0.0001707   -0.0000729     0.0001724    0.0000698     0.0001860   -0.0001168 
   0.171492871     0.0338490   -0.0969605     0.0005003   -0.0002891    -0.0001494   -0.0001188     0.0000274   -0.0000176 
   0.171592896     0.0341256   -0.0968080    -0.0000591    0.0001743     0.0001619    0.0001615    -0.0001010   -0.0003302 
   0.171692921     0.0338490   -0.0957648    -0.0002962    0.0000304     0.0001458   -0.0000064     0.0001470   -0.0001651 
   0.171792946     0.0343613   -0.0963155    -0.0001154   -0.0002977     0.0002593    0.0001518    -0.0003837   -0.0003830 
   0.171892971     0.0332494   -0.0961879     0.0002860    0.0003148     0.0000476    0.0000568    -0.0004481   -0.0003590 
   0.171992996     0.0338939   -0.0965627    -0.0002023    0.0002737     0.0000521    0.0000938    -0.0004655   -0.0004222 
   0.172093022     0.0335073   -0.0951596    -0.0000628   -0.0002732    -0.0000861    0.0001056    -0.0003490   -0.0004084 
   0.172193047     0.0342170   -0.0955709     0.0003523   -0.0000534     0.0000497   -0.0000032    -0.0002293   -0.0005699 
   0.172293072     0.0332992   -0.0954320    -0.0001072   -0.0000549    -0.0000347    0.0001092    -0.0000324    0.0001177 
   0.172393097     0.0338333   -0.0955114    -0.0001225    0.0000911     0.0001957   -0.0000393     0.0001104   -0.0007948 
   0.172493122     0.0339545   -0.0955129    -0.0000405   -0.0003314    -0.0001430    0.0001047    -0.0002720   -0.0002799 
   0.172593147     0.0345021   -0.0946322     0.0001015   -0.0000234    -0.0000318    0.0000965    -0.0003464   -0.0005043 
   0.172693172     0.0333360   -0.0955673    -0.0000702    0.0002668    -0.0001239   -0.0000601    -0.0003417   -0.0000034 
   0.172793197     0.0336180   -0.0953311    -0.0000995    0.0001212    -0.0000774    0.0001059     0.0001709   -0.0002914 
   0.172893222     0.0333637   -0.0946154    -0.0000426    0.0001219     0.0000123    0.0000178     0.0001301   -0.0001676 
   0.172993247     0.0338922   -0.0941947     0.0001633   -0.0001539     0.0000296   -0.0000941    -0.0002409   -0.0004991 
   0.173093272     0.0343230   -0.0952644    -0.0003140    0.0001475    -0.0000414   -0.0001679    -0.0001421   -0.0001263 
   0.173193297     0.0336960   -0.0937513     0.0001162   -0.0000478    -0.0001330   -0.0002423     0.0001347   -0.0003001 
   0.173293322     0.0345842   -0.0941519    -0.0001581   -0.0002925    -0.0000624    0.0001052     0.0005142   -0.0004442 
   0.173393347     0.0343038   -0.0934545     0.0001389    0.0001066     0.0001345   -0.0000282     0.0002741   -0.0003816 
   0.173493372     0.0343071   -0.0939107     0.0001085    0.0002839     0.0000281   -0.0000892     0.0003445   -0.0005086 
   0.173593397     0.0346133   -0.0942088    -0.0001008   -0.0001309     0.0000306    0.0000813    -0.0002836   -0.0002915 
   0.173693422     0.0340961   -0.0938850    -0.0001428   -0.0003999    -0.0000606    0.0000472    -0.0000830   -0.0001628 
   0.173793447     0.0341712   -0.0930831    -0.0000133    0.0002578     0.0000405    0.0000738     0.0001188   -0.0004214 
   0.173893472     0.0340292   -0.0935153     0.0003319    0.0000636     0.0000736   -0.0000673    -0.0002336   -0.0009272 
   0.173993497     0.0350683   -0.0931478    -0.0002965   -0.0001595     0.0000809    0.0000491    -0.0001018   -0.0000907 
   0.174093522     0.0333250   -0.0929116     0.0003065   -0.0000331    -0.0000678    0.0000036    -0.0002006   -0.0005190 
   0.174193547     0.0338649   -0.0929362     0.0001996   -0.0000147     0.0000652   -0.0001422     0.0000626   -0.0004334 
   0.174293572     0.0336632   -0.0928288    -0.0000144   -0.0000556     0.0002562   -0.0001368    -0.0000076    0.0002251 
   0.174393597     0.0347335   -0.0928565    -0.0000223   -0.0002031    -0.0000235   -0.0000129     0.0001459   -0.0001426 
   0.174493622     0.0341930   -0.0912961    -0.0001302   -0.0002111     0.0001248   -0.0000415    -0.0002343   -0.0003872 
   0.174593647     0.0340928   -0.0922081    -0.0000404    0.0002073    -0.0001555    0.0000980     0.0001459   -0.0004447 
   0.174693672     0.0342709   -0.0920828    -0.0001557    0.0003635    -0.0002468   -0.0000577    -0.0007271   -0.0003617 
   0.174793697     0.0343275   -0.0930275     0.0000967    0.0002835     0.0000753   -0.0000087     0.0001679   -0.0007829 
   0.174893722     0.0353242   -0.0917257    -0.0002293   -0.0000451     0.0000433   -0.0000647    -0.0001981   -0.0010561 
   0.174993747     0.0341206   -0.0917858    -0.0000260   -0.0001581     0.0000795   -0.0001507     0.0001135   -0.0006498 
   0.175093772     0.0345635   -0.0913039     0.0000602    0.0000515     0.0000611    0.0000974     0.0002775   -0.0009631 
   0.175193797     0.0334169   -0.0915411    -0.0000012   -0.0001583    -0.0000120   -0.0000051     0.0000990   -0.0003271 
   0.175293822     0.0338790   -0.0917684    -0.0000918    0.0000573     0.0000796   -0.0001040    -0.0007851   -0.0008459 
   0.175393847     0.0347177   -0.0910810     0.0003140   -0.0001063    -0.0000754    0.0000506     0.0001778   -0.0007455 
   0.175493872     0.0344053   -0.0909343    -0.0000152    0.0000050    -0.0000643   -0.0000454    -0.0006363   -0.0002261 
   0.175593897     0.0347860   -0.0913331     0.0000168   -0.0002542    -0.0003372    0.0001344    -0.0001026   -0.0003079 
   0.175693922     0.0344487   -0.0910045    -0.0001653    0.0001211    -0.0001291   -0.0000634     0.0003062   -0.0005394 
   0.175793947     0.0346379   -0.0904115     0.0000313   -0.0001595     0.0000898    0.0001073     0.0000554   -0.0008212 
   0.175893972     0.0350676   -0.0902773    -0.0001084   -0.0002310    -0.0000896   -0.0000937    -0.0002351   -0.0004446 
   0.175993997     0.0347593   -0.0908049    -0.0001570   -0.0000464     0.0000723    0.0001029    -0.0003512   -0.0009074 
   0.176094022     0.0350418   -0.0904498    -0.0002271   -0.0001372    -0.0002072    0.0000059     0.0000974   -0.0001533 
   0.176194047     0.0345814   -0.0901265     0.0002064   -0.0000249    -0.0001220    0.0000413     0.0003584   -0.0002652 
   0.176294072     0.0345622   -0.0907655     0.0002862   -0.0000822    -0.0000825    0.0001509    -0.0002706   -0.0006168 
   0.176394097     0.0347186   -0.0901807     0.0000465    0.0000673    -0.0000422    0.0001340     0.0000997   -0.0004183 
   0.176494122     0.0348472   -0.0896803    -0.0001588    0.0000336    -0.0000877   -0.0000374    -0.0002198   -0.0004244 
   0.176594147     0.0346951   -0.0900872     0.0002626    0.0000323     0.0000417    0.0000010     0.0002125   -0.0005421 
   0.176694172     0.0354241   -0.0891623     0.0000059    0.0002487     0.0000826    0.0001485     0.0000478   -0.0003935 
   0.176794197     0.0345893   -0.0893552     0.0002538    0.0002433    -0.0000132   -0.0001720    -0.0001103   -0.0005883 
   0.176894222     0.0346905   -0.0896335     0.0000567   -0.0002134     0.0001821   -0.0003489     0.0001014   -0.0004860 
   0.176994247     0.0342972   -0.0889353    -0.0000674    0.0000639     0.0000098    0.0000000     0.0002528   -0.0006666 
   0.177094272     0.0344697   -0.0891356    -0.0001281    0.0001902     0.0000128   -0.0001930     0.0002988   -0.0005101 
   0.177194297     0.0346511   -0.0901215    -0.0000414   -0.0001283    -0.0002108   -0.0002107     0.0000428   -0.0005656 
   0.177294322     0.0345318   -0.0897124    -0.0000048    0.0001202    -0.0001820   -0.0000932     0.0000360   -0.0003900 
   0.177394347     0.0345317   -0.0881261     0.0002558    0.0004064     0.0000467    0.0000058    -0.0000504    0.0001244 
   0.177494372     0.0350722   -0.0890777    -0.0001205   -0.0000160    -0.0000538   -0.0001055    -0.0001402   -0.0001098 
   0.177594397     0.0353098   -0.0882307    -0.0000890   -0.0002956    -0.0001106   -0.0000579    -0.0001723   -0.0004474 
   0.177694422     0.0347829   -0.0884247     0.0001556    0.0002831    -0.0000052   -0.0000329     0.0002982   -0.0005225 
   0.177794447     0.0345275   -0.0879243    -0.0000830    0.0000994     0.0000924    0.0000674    -0.0001132   -0.0005510 
   0.177894472     0.0351518   -0.0880299     0.0001297   -0.0001963    -0.0001545   -0.0000562    -0.0000897   -0.0005742 
   0.177994497     0.0344149   -0.0883231     0.0001930    0.0001353     0.0001434   -0.0001602    -0.0001192   -0.0005715 
   0.178094522     0.0349314   -0.0875809    -0.0000283   -0.0000281     0.0001391   -0.0001694     0.0002070   -0.0002644 
   0.178194547     0.0350594   -0.0881127    -0.0000883   -0.0000448    -0.0000316    0.0001057     0.0002066   -0.0004293 
   0.178294572     0.0352158   -0.0866207    -0.0003129    0.0000645    -0.0000581    0.0000195     0.0000776   -0.0004618 
   0.178394597     0.0354152   -0.0874418     0.0001057   -0.0002576     0.0000452    0.0000723    -0.0001096   -0.0006371 
   0.178494622     0.0351914   -0.0868399     0.0002123   -0.0000442     0.0000232   -0.0000099     0.0001566   -0.0004720 
   0.178594647     0.0348666   -0.0874703     0.0001434   -0.0000153    -0.0000514   -0.0001379     0.0005868   -0.0003733 
   0.178694672     0.0353606   -0.0872835    -0.0000305   -0.0000337    -0.0001005    0.0002235     0.0000686   -0.0006287 
   0.178794697     0.0349277   -0.0868361     0.0000991   -0.0001778    -0.0001483   -0.0001089     0.0001539   -0.0004606 
   0.178894722     0.0354167   -0.0869196     0.0001397   -0.0000262    -0.0001121    0.0001219    -0.0000322   -0.0004602 
   0.178994747     0.0348101   -0.0869405    -0.0001325   -0.0000936     0.0001469    0.0000439    -0.0001523   -0.0007525 
   0.179094772     0.0353479   -0.0858242    -0.0000524   -0.0001162    -0.0002750   -0.0000196     0.0000455   -0.0004640 
   0.179194797     0.0357883   -0.0865153    -0.0001390   -0.0000394    -0.0001233   -0.0003741    -0.0000409   -0.0007067 
   0.179294822     0.0354159   -0.0862956    -0.0000746   -0.0001939     0.0000921   -0.0000819     0.0004396   -0.0000375 
   0.179394847     0.0351167   -0.0859304    -0.0000585    0.0000372    -0.0000657   -0.0001483     0.0003398   -0.0002116 
   0.179494872     0.0360741   -0.0872306     0.0001618   -0.0002030    -0.0001382   -0.0000259    -0.0003249   -0.0005066 
   0.179594897     0.0355328   -0.0860387     0.0000255   -0.0002471     0.0002446    0.0000653     0.0004705   -0.0007178 
   0.179694922     0.0356965   -0.0849207    -0.0001354   -0.0001035    -0.0000408   -0.0001966     0.0002777   -0.0000811 
   0.179794947     0.0357692   -0.0856681     0.0000398   -0.0000368     0.0000374   -0.0001215     0.0002664   -0.0006597 
   0.179894972     0.0357242   -0.0854648     0.0001697   -0.0001282     0.0001705   -0.0000044     0.0002978   -0.0006816 
   0.179994997     0.0355324   -0.0858847    -0.0003525   -0.0002450     0.0002021    0.0001350     0.0004713   -0.0006394 
   0.180095023     0.0357946   -0.0857805     0.0000987    0.0001455     0.0001456    0.0001632    -0.0000715   -0.0003610 
   0.180195048     0.0353336   -0.0847154    -0.0001165   -0.0000987    -0.0000159    0.0000502    -0.0001004   -0.0011266 
   0.180295073     0.0356422   -0.0857758     0.0003565    0.0003119    -0.0002554   -0.0000833     0.0006059    0.0000298 
   0.180395098     0.0362678   -0.0847401    -0.0000451   -0.0001268    -0.0000132   -0.0000317     0.0004516   -0.0006590 
   0.180495123     0.0360338   -0.0844540    -0.0000882   -0.0000342    -0.0000182   -0.0004018    -0.0000757   -0.0008207 
   0.180595148     0.0357927   -0.0849348    -0.0000366    0.0000296     0.0000603    0.0000109    -0.0001867   -0.0010093 
   0.180695173     0.0361970   -0.0846708     0.0000375    0.0001059     0.0000663   -0.0000039    -0.0003958   -0.0004465 
   0.180795198     0.0358526   -0.0838711    -0.0001889   -0.0002139     0.0000885    0.0000374    -0.0000388   -0.0010185 
   0.180895223     0.0358527   -0.0845053    -0.0000017   -0.0001505     0.0000318    0.0001221    -0.0000142   -0.0003919 
   0.180995248     0.0360369   -0.0845375    -0.0001116    0.0001392     0.0000791   -0.0000727     0.0000827   -0.0003358 
   0.181095273     0.0367573   -0.0846563    -0.0000984   -0.0000823     0.0000907    0.0000662     0.0002503   -0.0006059 
   0.181195298     0.0358863   -0.0835898     0.0003548    0.0002429    -0.0001914    0.0000118     0.0000928   -0.0002553 
   0.181295323     0.0354811   -0.0844719     0.0000132   -0.0000277     0.0000814   -0.0002891     0.0002434   -0.0004292 
   0.181395348     0.0356598   -0.0841887    -0.0000394   -0.0001129     0.0000077   -0.0000467     0.0002716   -0.0005250 
   0.181495373     0.0358647   -0.0832496     0.0000341   -0.0001016     0.0000350    0.0001493     0.0006028   -0.0003559 
   0.181595398     0.0361727   -0.0842840     0.0000857   -0.0002484    -0.0000239    0.0001524    -0.0000833   -0.0007841 
   0.181695423     0.0359501   -0.0830864     0.0000703   -0.0000655    -0.0000686    0.0000245     0.0003137   -0.0003940 
   0.181795448     0.0362400   -0.0826968    -0.0001632   -0.0002516     0.0000623    0.0001105    -0.0002339   -0.0003418 
   0.181895473     0.0358225   -0.0833332    -0.0001749   -0.0001763     0.0000197    0.0000728    -0.0001104   -0.0006350 
   0.181995498     0.0359705   -0.0832440     0.0001425   -0.0000463     0.0000282    0.0000805     0.0000923   -0.0002345 
   0.182095523     0.0355789   -0.0831531    -0.0000049    0.0000739    -0.0000713    0.0000267     0.0003478   -0.0004735 
   0.182195548     0.0360050   -0.0824200    -0.0001617   -0.0003211     0.0000642    0.0000710     0.0004096   -0.0006423 
   0.182295573     0.0365318   -0.0827131    -0.0000331   -0.0003153     0.0000946    0.0000380     0.0002189   -0.0005437 
   0.182395598     0.0363469   -0.0825334     0.0000745   -0.0000685    -0.0002545   -0.0001207     0.0003183   -0.0008613 
   0.182495623     0.0367756   -0.0824607     0.0000983    0.0003158    -0.0000832    0.0003074    -0.0000142   -0.0004661 
   0.182595648     0.0367056   -0.0825418    -0.0000603    0.0000219    -0.0000755    0.0000805     0.0003819   -0.0011677 
   0.182695673     0.0362409   -0.0820396     0.0002398    0.0001058    -0.0000594   -0.0000412    -0.0001646    0.0000879 
   0.182795698     0.0359246   -0.0823729     0.0000901   -0.0001467     0.0001435   -0.0000216     0.0003166   -0.0004671 
   0.182895723     0.0357234   -0.0814328     0.0002715    0.0001871    -0.0000230    0.0000832     0.0003779   -0.0005016 
   0.182995748     0.0359023   -0.0815377    -0.0001467   -0.0001088    -0.0000121    0.0000216     0.0004056   -0.0004851 
   0.183095773     0.0361234   -0.0821716    -0.0001562   -0.0000659     0.0001019   -0.0000917     0.0002706   -0.0007667 
   0.183195798     0.0363766   -0.0811422    -0.0001830   -0.0002284     0.0000408    0.0001175     0.0004575   -0.0004675 
   0.183295823     0.0370345   -0.0805516    -0.0000287   -0.0000647     0.0000426    0.0000694    -0.0001110   -0.0008036 
   0.183395848     0.0364831   -0.0816189    -0.0002065   -0.0000427     0.0000667    0.0000931     0.0000844   -0.0008287 
   0.183495873     0.0364108   -0.0812519     0.0000672   -0.0002599    -0.0000171    0.0000728     0.0001779   -0.0007485 
   0.183595898     0.0372019   -0.0809508     0.0000198    0.0000446     0.0000112    0.0000025     0.0006285   -0.0005566 
   0.183695923     0.0372948   -0.0809164     0.0001305   -0.0002658     0.0000564    0.0000117     0.0000533   -0.0004735 
   0.183795948     0.0372043   -0.0799753     0.0000866   -0.0001522     0.0001376   -0.0000430    -0.0001667   -0.0006083 
   0.183895973     0.0365390   -0.0802269     0.0001665   -0.0000853    -0.0000171   -0.0002918     0.0000550   -0.0004804 
   0.183995998     0.0366490   -0.0806580     0.0002813   -0.0001791    -0.0001285   -0.0000086     0.0000483   -0.0006155 
   0.184096023     0.0365121   -0.0801479     0.0001066   -0.0000518     0.0000990    0.0001243     0.0001054   -0.0004820 
   0.184196048     0.0369521   -0.0802116     0.0002140   -0.0000247    -0.0000259    0.0000601     0.0004734   -0.0003001 
   0.184296073     0.0373043   -0.0799485    -0.0002337   -0.0000073    -0.0000466   -0.0000546     0.0005496   -0.0003404 
   0.184396098     0.0371537   -0.0804842    -0.0001306   -0.0001765     0.0000552    0.0001487     0.0002879   -0.0008104 
   0.184496123     0.0372946   -0.0796055     0.0001547   -0.0001865    -0.0000353    0.0001091     0.0005944   -0.0008712 
   0.184596148     0.0362843   -0.0795899    -0.0001808   -0.0000071     0.0000391    0.0000356    -0.0001138   -0.0007882 
   0.184696173     0.0371464   -0.0799016     0.0000508   -0.0001984    -0.0000318   -0.0000908    -0.0000231   -0.0003307 
   0.184796198     0.0367131   -0.0791829    -0.0001486    0.0001590     0.0000844   -0.0002564     0.0007436   -0.0004331 
   0.184896223     0.0373835   -0.0799156    -0.0001914    0.0000729     0.0000184   -0.0000359     0.0003263   -0.0004960 
   0.184996248     0.0365135   -0.0793438    -0.0001415   -0.0001894     0.0001635   -0.0000819     0.0001536   -0.0006448 
   0.185096273     0.0368230   -0.0793549    -0.0000331   -0.0000822     0.0000074   -0.0002694     0.0005343    0.0002693 
   0.185196298     0.0369431   -0.0797269    -0.0001814   -0.0001411    -0.0000444   -0.0000421     0.0007130   -0.0006824 
   0.185296323     0.0364582   -0.0789437     0.0001120    0.0000048     0.0000969   -0.0000951     0.0004602   -0.0001901 
   0.185396348     0.0374360   -0.0781970     0.0003651   -0.0001644     0.0001154   -0.0001768     0.0001114   -0.0007001 
   0.185496373     0.0370913   -0.0780535    -0.0001903   -0.0000126    -0.0001944   -0.0000024     0.0002586   -0.0001655 
   0.185596398     0.0364923   -0.0784347     0.0001338   -0.0000869    -0.0000225    0.0001076    -0.0001777   -0.0005456 
   0.185696423     0.0372300   -0.0787714     0.0000592   -0.0001218    -0.0000842    0.0000273     0.0006142   -0.0002034 
   0.185796448     0.0368748   -0.0787441     0.0000048   -0.0000851    -0.0001588   -0.0000596     0.0002760   -0.0004760 
   0.185896473     0.0377638   -0.0788439     0.0001569    0.0001176    -0.0001707    0.0001145    -0.0000824   -0.0006605 
   0.185996498     0.0364433   -0.0777883     0.0000335   -0.0001106    -0.0001433   -0.0001599     0.0003584   -0.0005613 
   0.186096523     0.0368327   -0.0779781     0.0000196    0.0000305    -0.0000565   -0.0000476     0.0007131   -0.0006766 
   0.186196548     0.0369475   -0.0771994     0.0001483   -0.0003497     0.0001352    0.0000724     0.0003804   -0.0004492 
   0.186296573     0.0384634   -0.0773955    -0.0000207    0.0002954     0.0000502    0.0000629     0.0007607   -0.0007242 
   0.186396598     0.0380011   -0.0773295    -0.0001077   -0.0000584     0.0000442    0.0001748     0.0008465   -0.0005883 
   0.186496623     0.0381634   -0.0766555     0.0000887   -0.0001671    -0.0000077    0.0001464     0.0004845   -0.0006584 
   0.186596648     0.0374925   -0.0783071     0.0001617    0.0000878     0.0000588   -0.0000332    -0.0002037   -0.0005663 
   0.186696673     0.0373362   -0.0779722    -0.0001385    0.0000804     0.0001382    0.0000820     0.0005377   -0.0001930 
   0.186796698     0.0384071   -0.0774494    -0.0003297   -0.0002575    -0.0000729   -0.0000462     0.0005532   -0.0003319 
   0.186896723     0.0380497   -0.0772565    -0.0001711    0.0000576     0.0001420   -0.0000428     0.0007205   -0.0003598 
   0.186996748     0.0374201   -0.0765436     0.0001542   -0.0000048     0.0000822   -0.0000311     0.0005480   -0.0004403 
   0.187096773     0.0375331   -0.0770558     0.0000075   -0.0000652     0.0000210    0.0000411     0.0004870   -0.0002658 
   0.187196798     0.0371034   -0.0771804     0.0000563    0.0000504     0.0001531    0.0000007     0.0002922   -0.0005465 
   0.187296823     0.0378311   -0.0763618     0.0001767    0.0002246     0.0000614    0.0000367    -0.0002201   -0.0008702 
   0.187396848     0.0385184   -0.0759242    -0.0000654    0.0002717     0.0000446   -0.0000080     0.0004616   -0.0009086 
   0.187496873     0.0380508   -0.0763570     0.0002300   -0.0000977    -0.0000749   -0.0001644     0.0009075   -0.0003995 
   0.187596898     0.0373347   -0.0766031    -0.0001826   -0.0001246    -0.0001387    0.0001192     0.0007820   -0.0003182 
   0.187696923     0.0374900   -0.0762720     0.0001867    0.0000155    -0.0000543    0.0001316     0.0004925   -0.0006258 
   0.187796948     0.0376738   -0.0764624     0.0000045    0.0003286    -0.0001754    0.0001859     0.0004224   -0.0009558 
   0.187896973     0.0380303   -0.0756800    -0.0001025    0.0001087     0.0000446    0.0000194     0.0005441   -0.0006326 
   0.187996998     0.0386847   -0.0764030    -0.0000483    0.0000582    -0.0000407   -0.0000819     0.0010147   -0.0002270 
   0.188097024     0.0377420   -0.0750321    -0.0000717   -0.0000319     0.0000713    0.0001048     0.0003933   -0.0006973 
   0.188197049     0.0379828   -0.0755609    -0.0001008   -0.0001069     0.0001478    0.0000100     0.0003344   -0.0002025 
   0.188297074     0.0384618   -0.0754489    -0.0002362   -0.0000823     0.0000462    0.0000902     0.0004035   -0.0000451 
   0.188397099     0.0380563   -0.0750083    -0.0000040   -0.0001824    -0.0000984    0.0000473     0.0007831   -0.0002444 
   0.188497124     0.0384337   -0.0753507    -0.0001096   -0.0002131     0.0000589   -0.0000056     0.0004595   -0.0008427 
   0.188597149     0.0385224   -0.0749711    -0.0002745   -0.0000942     0.0000295    0.0001929     0.0007858   -0.0004312 
   0.188697174     0.0380470   -0.0745847    -0.0000334    0.0000041    -0.0001253   -0.0000423     0.0004860   -0.0006721 
   0.188797199     0.0381538   -0.0745627     0.0001012   -0.0001477    -0.0001816   -0.0002469     0.0001845   -0.0006734 
   0.188897224     0.0384195   -0.0741074     0.0001272   -0.0001005    -0.0000050    0.0000264     0.0004602   -0.0005399 
   0.188997249     0.0380191   -0.0741490    -0.0001850   -0.0000849    -0.0000409   -0.0001230     0.0003489   -0.0004566 
   0.189097274     0.0384006   -0.0742860    -0.0000642   -0.0000122     0.0000196    0.0000334     0.0004658   -0.0003655 
   0.189197299     0.0384948   -0.0741304    -0.0001748    0.0001365     0.0001673    0.0000729     0.0000798   -0.0001476 
   0.189297324     0.0386632   -0.0734070    -0.0000885   -0.0000370    -0.0000454    0.0000695     0.0004664   -0.0004197 
   0.189397349     0.0383111   -0.0736649     0.0002730   -0.0000980    -0.0003506    0.0000751     0.0002369   -0.0001446 
   0.189497374     0.0383771   -0.0748675    -0.0000064   -0.0000300    -0.0002391   -0.0000377     0.0005953   -0.0007239 
   0.189597399     0.0385001   -0.0735629    -0.0001800    0.0001262     0.0001416    0.0000713     0.0002900   -0.0002250 
   0.189697424     0.0383428   -0.0738058    -0.0001308   -0.0001019    -0.0000637    0.0002640     0.0005058   -0.0001747 
   0.189797449     0.0384389   -0.0734979    -0.0001370    0.0000472    -0.0000067    0.0001072     0.0007168   -0.0009259 
   0.189897474     0.0387378   -0.0738687     0.0001416    0.0000108     0.0000307    0.0000218     0.0006750   -0.0004692 
   0.189997499     0.0387678   -0.0726698    -0.0000643    0.0002411     0.0001923    0.0001675     0.0007333   -0.0004897 
   0.190097524     0.0388669   -0.0733366    -0.0002607   -0.0002082    -0.0000406   -0.0000197     0.0005386   -0.0006226 
   0.190197549     0.0387943   -0.0731264     0.0002330   -0.0001934     0.0000740    0.0002015     0.0003886    0.0000769 
   0.190297574     0.0382431   -0.0733709     0.0000434    0.0002624     0.0001511   -0.0001871     0.0007723   -0.0001956 
   0.190397599     0.0390840   -0.0727767    -0.0001446   -0.0001754    -0.0000277    0.0000142     0.0006492   -0.0007074 
   0.190497624     0.0390935   -0.0731081     0.0001473   -0.0001155     0.0002015    0.0000085     0.0005286   -0.0003032 
   0.190597649     0.0392784   -0.0726320     0.0000941   -0.0000302     0.0001142    0.0000519     0.0004917   -0.0002614 
   0.190697674     0.0385543   -0.0722712    -0.0000521   -0.0002907     0.0001896    0.0001584     0.0004465   -0.0006444 
   0.190797699     0.0390450   -0.0724381    -0.0000197    0.0001270    -0.0000785   -0.0000134     0.0004941   -0.0006860 
   0.190897724     0.0394179   -0.0726524     0.0000178   -0.0000036     0.0000647    0.0000550     0.0003303    0.0000243 
   0.190997749     0.0386398   -0.0725237    -0.0000243    0.0000659    -0.0001170    0.0000862     0.0005116   -0.0000168 
   0.191097774     0.0389740   -0.0723848    -0.0000620   -0.0001482     0.0001433    0.0000036     0.0003220   -0.0002419 
   0.191197799     0.0397864   -0.0724667    -0.0000923    0.0000903    -0.0000619   -0.0001460     0.0008553   -0.0002320 
   0.191297824     0.0391707   -0.0717248     0.0000558   -0.0001835     0.0000357   -0.0000901     0.0003752   -0.0002374 
   0.191397849     0.0387528   -0.0720389     0.0000865   -0.0001122    -0.0000191    0.0000630     0.0011810   -0.0000288 
   0.191497874     0.0395283   -0.0721887     0.0001089   -0.0000914    -0.0001677    0.0000174     0.0004250   -0.0005448 
   0.191597899     0.0392806   -0.0712876    -0.0000477   -0.0000823    -0.0000153   -0.0000269     0.0006831   -0.0005692 
   0.191697924     0.0400643   -0.0717665     0.0000618    0.0002878     0.0001487   -0.0000620     0.0008920   -0.0005646 
   0.191797949     0.0392528   -0.0713329     0.0000105   -0.0001548     0.0000252   -0.0000212     0.0006106   -0.0003967 
   0.191897974     0.0398439   -0.0712903     0.0000862    0.0001812     0.0001205   -0.0000004     0.0007338   -0.0009468 
   0.191997999     0.0387798   -0.0709275     0.0000442   -0.0000328     0.0001285   -0.0001434     0.0002589   -0.0006123 
   0.192098024     0.0398786   -0.0712778    -0.0001350    0.0000222    -0.0000779   -0.0002465     0.0007040   -0.0002869 
   0.192198049     0.0391727   -0.0708042    -0.0002560    0.0002452    -0.0000684    0.0001165     0.0005896   -0.0004136 
   0.192298074     0.0393352   -0.0706544    -0.0002044   -0.0001459    -0.0000645   -0.0000836     0.0007219   -0.0003106 
   0.192398099     0.0398404   -0.0705679     0.0000837   -0.0001960     0.0000619    0.0001275     0.0004831    0.0000023 
   0.192498124     0.0392767   -0.0700450    -0.0000402    0.0000495     0.0000827    0.0000881     0.0003087   -0.0003727 
   0.192598149     0.0396564   -0.0709244    -0.0000339   -0.0002768     0.0000788    0.0001246     0.0007236   -0.0003965 
   0.192698174     0.0399822   -0.0695308     0.0001281    0.0003259     0.0000309   -0.0000276     0.0006312   -0.0006671 
   0.192798199     0.0409594   -0.0697142    -0.0002502   -0.0000919    -0.0000402    0.0001589     0.0001396   -0.0008391 
   0.192898224     0.0397379   -0.0699919    -0.0000451    0.0000761     0.0000703   -0.0001962     0.0005964   -0.0000763 
   0.192998249     0.0399273   -0.0702220    -0.0000783    0.0000240    -0.0001323   -0.0000035    -0.0002203   -0.0006332 
   0.193098274     0.0407997   -0.0694022     0.0002940   -0.0000031     0.0000042    0.0000672     0.0003271   -0.0003665 
   0.193198299     0.0395263   -0.0698805     0.0000281    0.0002477    -0.0000869   -0.0000388     0.0004992   -0.0008419 
   0.193298324     0.0396353   -0.0699393     0.0000954   -0.0000400     0.0000466    0.0000603     0.0006868   -0.0003177 
   0.193398349     0.0393470   -0.0700547     0.0002277   -0.0000205    -0.0001241   -0.0000530     0.0002004   -0.0006600 
   0.193498374     0.0406014   -0.0691544    -0.0001023   -0.0001708    -0.0000033    0.0001540     0.0007297   -0.0003101 
   0.193598399     0.0398015   -0.0688108    -0.0000370    0.0000100     0.0001101   -0.0002711     0.0002828   -0.0004932 
   0.193698424     0.0397455   -0.0686765    -0.0001564   -0.0003114    -0.0000331   -0.0000570     0.0002908   -0.0001976 
   0.193798449     0.0396732   -0.0682092     0.0000870   -0.0001640     0.0000572   -0.0000491     0.0006847   -0.0007691 
   0.193898474     0.0400855   -0.0691254     0.0001071    0.0000648     0.0000546   -0.0001186     0.0006610   -0.0003641 
   0.193998499     0.0399518   -0.0685834     0.0000699    0.0002725     0.0000870   -0.0000052     0.0002326   -0.0006970 
   0.194098524     0.0403359   -0.0689302     0.0001354   -0.0000841    -0.0000736    0.0000056     0.0003596   -0.0004574 
   0.194198549     0.0403194   -0.0680493    -0.0002492    0.0000597    -0.0000961   -0.0001410     0.0006253   -0.0004485 
   0.194298574     0.0403581   -0.0684712     0.0001125    0.0000576    -0.0000702    0.0000244     0.0004819   -0.0005210 
   0.194398599     0.0396112   -0.0675946     0.0001628   -0.0001361    -0.0001686    0.0000502     0.0007190   -0.0001639 
   0.194498624     0.0400499   -0.0680913     0.0001840   -0.0000293     0.0000295   -0.0000123     0.0003251   -0.0002588 
   0.194598649     0.0400762   -0.0681109     0.0001750    0.0001691     0.0000543   -0.0000506     0.0004464   -0.0003546 
   0.194698674     0.0404751   -0.0683950     0.0001374   -0.0001823     0.0001180   -0.0000604     0.0004718   -0.0003926 
   0.194798699     0.0405821   -0.0678828    -0.0001833   -0.0002538    -0.0001504    0.0000350     0.0006586   -0.0001451 
   0.194898724     0.0413012   -0.0674865     0.0001017    0.0000381     0.0000039   -0.0000311     0.0003470   -0.0008324 
   0.194998749     0.0401820   -0.0672553    -0.0002346   -0.0001744     0.0001194    0.0000496     0.0007331   -0.0002654 
   0.195098774     0.0402581   -0.0677691    -0.0000068   -0.0001869     0.0000958   -0.0000870     0.0010667   -0.0006661 
   0.195198799     0.0408022   -0.0674765    -0.0002242    0.0000645     0.0000911    0.0003060     0.0013603   -0.0002647 
   0.195298824     0.0402447   -0.0674304    -0.0000249   -0.0001757    -0.0001028   -0.0001223     0.0007327    0.0001209 
   0.195398849     0.0404469   -0.0673372     0.0001702    0.0001939     0.0001595   -0.0000423     0.0004271   -0.0008448 
   0.195498874     0.0406352   -0.0671312    -0.0000840   -0.0000966    -0.0001221    0.0000311     0.0006350   -0.0002190 
   0.195598899     0.0403895   -0.0667534    -0.0001346   -0.0000568    -0.0000913    0.0000834     0.0011543   -0.0003454 
   0.195698924     0.0406165   -0.0666653     0.0001322    0.0000743     0.0001746    0.0000387     0.0004351   -0.0009466 
   0.195798949     0.0409245   -0.0669872     0.0000341   -0.0000034    -0.0000546    0.0001649     0.0008142   -0.0004644 
   0.195898974     0.0414350   -0.0657933     0.0000338    0.0000724     0.0000185   -0.0000721     0.0003483   -0.0001499 
   0.195998999     0.0415605   -0.0662311     0.0000443   -0.0000077    -0.0000799    0.0000551     0.0009559   -0.0003216 
   0.196099025     0.0412055   -0.0664714    -0.0003215   -0.0001344     0.0001584    0.0000251     0.0005995   -0.0004675 
   0.196199050     0.0413460   -0.0661239     0.0000077   -0.0001655     0.0000183   -0.0000593     0.0007795   -0.0008640 
   0.196299075     0.0413652   -0.0661977     0.0000677   -0.0000378    -0.0000063    0.0000335     0.0009699   -0.0004839 
   0.196399100     0.0405627   -0.0664749    -0.0000016   -0.0003509     0.0000346    0.0000937     0.0012158   -0.0003579 
   0.196499125     0.0417872   -0.0663700    -0.0000695    0.0001244    -0.0000466   -0.0000799     0.0009122   -0.0000915 
   0.196599150     0.0413138   -0.0666670     0.0000485    0.0001232     0.0000174    0.0000503     0.0005587   -0.0006234 
   0.196699175     0.0407127   -0.0660315     0.0000912   -0.0001080    -0.0000122   -0.0000894     0.0004136   -0.0003780 
   0.196799200     0.0417276   -0.0654893    -0.0000317    0.0000968    -0.0000909    0.0000082     0.0008762    0.0000883 
   0.196899225     0.0416279   -0.0653346     0.0000453    0.0000885     0.0001607   -0.0000823     0.0004092   -0.0005262 
   0.196999250     0.0412361   -0.0659941     0.0002055   -0.0001629     0.0001002    0.0001762     0.0008192   -0.0003531 
   0.197099275     0.0419956   -0.0652168    -0.0000372   -0.0004613    -0.0000402   -0.0001097     0.0008236   -0.0006071 
   0.197199300     0.0413074   -0.0651473     0.0000849    0.0000510     0.0002449    0.0000855     0.0007212   -0.0002937 
   0.197299325     0.0419300   -0.0648278     0.0002812   -0.0001327    -0.0000848   -0.0000586     0.0008433   -0.0005339 
   0.197399350     0.0403766   -0.0649707    -0.0001591   -0.0001292    -0.0000396    0.0000346     0.0007807   -0.0005610 
   0.197499375     0.0415058   -0.0650782     0.0000587   -0.0000714     0.0000325   -0.0001063     0.0008074   -0.0003696 
   0.197599400     0.0417703   -0.0654633    -0.0000791   -0.0000995    -0.0000505    0.0000070     0.0006448   -0.0003897 
   0.197699425     0.0420791   -0.0645050    -0.0000338    0.0000252    -0.0000010   -0.0000687     0.0010981   -0.0003373 
   0.197799450     0.0420003   -0.0644447    -0.0001485    0.0000770     0.0000076   -0.0000387     0.0002879   -0.0002374 
   0.197899475     0.0415263   -0.0651008     0.0000887    0.0000056     0.0000006    0.0001057     0.0008089   -0.0000142 
   0.197999500     0.0422138   -0.0640441    -0.0001575    0.0000490    -0.0000903   -0.0000673     0.0005804   -0.0003289 
   0.198099525     0.0421867   -0.0647219     0.0000523    0.0001747    -0.0000240    0.0001323     0.0011853   -0.0002842 
   0.198199550     0.0419702   -0.0638696     0.0003051    0.0000377     0.0001292   -0.0002168     0.0005827   -0.0004959 
   0.198299575     0.0414286   -0.0643486     0.0001422    0.0000952     0.0001672    0.0000529     0.0009178    0.0000355 
   0.198399600     0.0424260   -0.0644277     0.0002357    0.0000689     0.0001058    0.0000059     0.0004081   -0.0004035 
   0.198499625     0.0422653   -0.0640583    -0.0000287    0.0000604    -0.0001470    0.0001407     0.0006402   -0.0004038 
   0.198599650     0.0420831   -0.0630677     0.0000347   -0.0000307    -0.0000179   -0.0000605     0.0006462   -0.0005743 
   0.198699675     0.0422519   -0.0635267     0.0000400    0.0003023    -0.0000071    0.0000658     0.0007262   -0.0004858 
   0.198799700     0.0427162   -0.0633065     0.0001827    0.0000754    -0.0001551    0.0000105     0.0007000   -0.0002352 
   0.198899725     0.0422871   -0.0637981    -0.0001870   -0.0002618     0.0000971    0.0001204     0.0008405   -0.0004226 
   0.198999750     0.0419539   -0.0627186     0.0000849    0.0000926    -0.0000374    0.0000448     0.0011250   -0.0004350 
   0.199099775     0.0418615   -0.0633075     0.0002218    0.0000868     0.0000805   -0.0001127     0.0005084    0.0000784 
   0.199199800     0.0422726   -0.0631959     0.0000187   -0.0000959     0.0000190    0.0000020     0.0009255   -0.0005994 
   0.199299825     0.0423757   -0.0627420     0.0000172    0.0000476    -0.0001333   -0.0000848     0.0002791   -0.0000399 
   0.199399850     0.0419121   -0.0624182     0.0000693    0.0000456     0.0001001    0.0001675     0.0003294   -0.0005713 
   0.199499875     0.0425248   -0.0628014     0.0000464   -0.0003786    -0.0000107   -0.0000005     0.0007759   -0.0005137 
   0.199599900     0.0424731   -0.0628971    -0.0000082    0.0000042    -0.0000769    0.0000104     0.0006997   -0.0005006 
   0.199699925     0.0428665   -0.0631050     0.0000433    0.0000572    -0.0001044   -0.0000617     0.0007818   -0.0001252 
   0.199799950     0.0427315   -0.0625276     0.0001899   -0.0001797     0.0001807    0.0000488     0.0008783   -0.0003574 
   0.199899975     0.0420944   -0.0620189     0.0001435   -0.0000014     0.0000446    0.0001041     0.0009176   -0.0002291 
   0.200000000     0.0429224   -0.0620233     0.0001176    0.0004221     0.0000571   -0.0001749     0.0007034   -0.0000677 
