! 12-May-26 12:32:13 PM
! E:\REC_VNA_20260512\T2T2E5_LONGSHORT.S2P
! CHANNEL.1
! TR.MEASUREMENT
! CORRECTED.DATA
# GHZ S RI R 50.0
! FREQ.GHZ         S11RE         S11IM         S21RE         S21IM         S12RE         S12IM         S22RE         S22IM         
!; PortSelection: Port_12
   0.000050000    -0.1517002    1.1983610     1.7578220    0.2690634     0.0001870    0.0003473    -0.0259479    0.0302053 
   0.000150025    -0.1009497    0.0189262    -0.3220776   -0.3462653    -0.0006566   -0.0004452     0.0026740   -0.0014494 
   0.000250050    -0.2906812   -0.3435370     0.3938570   -0.3323808    -0.0007593   -0.0007825     0.0004104   -0.0023332 
   0.000350075     0.9918587   -0.0735814    -0.0035927   -0.0073172    -0.0007906    0.0007336     0.0003409    0.0000318 
   0.000450100     0.9695128   -0.0681472    -0.0024553   -0.0128826     0.0007829   -0.0014064     0.0000347   -0.0008319 
   0.000550125     0.9517363   -0.0719282    -0.0036640   -0.0081012     0.0000377   -0.0000860     0.0009579   -0.0006718 
   0.000650150     1.0142560   -0.0068285    -0.0035363   -0.0104525    -0.0012111    0.0008269     0.0019608    0.0004034 
   0.000750175     1.0108900   -0.0741801    -0.0095147   -0.0074691     0.0001181    0.0000843    -0.0002806    0.0003438 
   0.000850200     1.0056910   -0.0464910    -0.0082152   -0.0115587     0.0001488    0.0005843     0.0004917    0.0002780 
   0.000950225     1.0526830   -0.0302064    -0.0083174   -0.0128532    -0.0004347    0.0003971     0.0011671    0.0013308 
   0.001050250     1.0140690   -0.0855878    -0.0108486   -0.0084202    -0.0001617   -0.0004283     0.0011440   -0.0004163 
   0.001150275     0.9806048   -0.0522912    -0.0099152   -0.0078499    -0.0005394   -0.0005147     0.0009805   -0.0000049 
   0.001250300     0.9759119   -0.0060908    -0.0080834   -0.0066254     0.0002303    0.0001974     0.0017343    0.0008549 
   0.001350325     0.9917674   -0.0834179    -0.0069022   -0.0035668    -0.0004252   -0.0002007     0.0011922   -0.0006047 
   0.001450350     0.9710726   -0.0777255    -0.0071417   -0.0010217     0.0002146    0.0005707     0.0007910    0.0001630 
   0.001550375     0.9828507   -0.0609117    -0.0108524   -0.0010939    -0.0002570   -0.0010872     0.0011621   -0.0003355 
   0.001650400     0.9817442   -0.0417116    -0.0061560   -0.0017577     0.0003533   -0.0000628     0.0010870    0.0001012 
   0.001750425     1.0178240   -0.1012459    -0.0098731    0.0042657    -0.0002373   -0.0002705     0.0006343    0.0003553 
   0.001850450     0.9785205   -0.0712414    -0.0086613    0.0023741     0.0003866    0.0005313    -0.0002740    0.0008006 
   0.001950475     1.0285660    0.0024980    -0.0072129    0.0025930    -0.0000337    0.0003439     0.0023551   -0.0005689 
   0.002050500     0.9389856   -0.0710745    -0.0086103   -0.0012298     0.0001811    0.0006487     0.0016885    0.0001082 
   0.002150525     0.9959136   -0.0703897    -0.0083493    0.0035098     0.0010490    0.0000756     0.0013239   -0.0004096 
   0.002250550     1.0039530   -0.0746247    -0.0077876    0.0025436    -0.0002427   -0.0008372     0.0006335   -0.0007542 
   0.002350575     0.9645447   -0.1158017    -0.0057867    0.0025477    -0.0001416   -0.0004674     0.0014676    0.0006099 
   0.002450600     1.0161540   -0.0886941    -0.0042565    0.0022534     0.0000563   -0.0004517     0.0007133    0.0006606 
   0.002550625     1.0388620   -0.1185634    -0.0045504   -0.0000662    -0.0009618    0.0002132     0.0001819    0.0007014 
   0.002650650     1.0223750   -0.0789131    -0.0027439    0.0031860     0.0000676    0.0004855     0.0013695    0.0004653 
   0.002750675     0.9739947   -0.0371405    -0.0014273    0.0031096     0.0002683    0.0004371     0.0010920    0.0002383 
   0.002850700     1.0107830   -0.0444090    -0.0012266    0.0009471     0.0006103    0.0003183     0.0009697    0.0006446 
   0.002950725     0.9561102   -0.0721719    -0.0003866    0.0057860    -0.0000218    0.0003116     0.0016979   -0.0001505 
   0.003050750     1.0052980   -0.0805554    -0.0019328    0.0044802    -0.0001775    0.0009884     0.0006955    0.0002512 
   0.003150775     0.9566494   -0.1326649    -0.0026882   -0.0010257     0.0000957   -0.0000782     0.0004261    0.0003168 
   0.003250800     0.9695328   -0.0865107    -0.0041338   -0.0002284    -0.0001107    0.0003190     0.0013085    0.0009059 
   0.003350825     0.9975859   -0.1085164    -0.0012895    0.0042861    -0.0000484    0.0001837     0.0004163    0.0003919 
   0.003450850     0.9578940   -0.1354752    -0.0002215    0.0026282    -0.0005200   -0.0003089     0.0015594   -0.0004631 
   0.003550875     0.9686254   -0.1371123    -0.0030001    0.0020325    -0.0004102    0.0000033     0.0003416    0.0003647 
   0.003650900     0.9870844   -0.1103100    -0.0011966    0.0023627     0.0002358    0.0003122     0.0010528    0.0002331 
   0.003750925     0.9639667   -0.1553528    -0.0006874    0.0016902     0.0005211    0.0002252     0.0014749   -0.0008994 
   0.003850950     0.9915475   -0.1315436    -0.0018102    0.0001402     0.0001711   -0.0001289     0.0013021   -0.0000118 
   0.003950975     1.0146160   -0.1232098     0.0006046    0.0020756     0.0000943   -0.0001044     0.0005690   -0.0003440 
   0.004051001     0.9873302   -0.1556302    -0.0018495    0.0036046    -0.0001363   -0.0001234     0.0008842    0.0007380 
   0.004151026     1.0121840   -0.1252331     0.0007653    0.0021904    -0.0008869   -0.0000263     0.0004211   -0.0000473 
   0.004251051     0.9852428   -0.1520945     0.0000851    0.0011686     0.0002360    0.0003844     0.0012572    0.0002284 
   0.004351076     0.9462135   -0.1315528    -0.0018457    0.0002047    -0.0005255   -0.0002474     0.0011409    0.0006958 
   0.004451101     0.9981762   -0.1238175    -0.0011218    0.0021617    -0.0000086    0.0002804     0.0014845   -0.0008027 
   0.004551126     0.9858790   -0.1110102    -0.0010579    0.0003395     0.0000262    0.0003392     0.0006504    0.0003622 
   0.004651151     0.9624469   -0.1415887    -0.0023805   -0.0001424    -0.0002283    0.0004617     0.0008788   -0.0000306 
   0.004751176     0.9828141   -0.1448375     0.0004471    0.0003325    -0.0000986    0.0003259     0.0008173   -0.0001214 
   0.004851201     0.9307280   -0.1506924    -0.0003557    0.0009730     0.0000255    0.0002307     0.0012829    0.0007035 
   0.004951226     0.9719545   -0.1742996     0.0014692   -0.0007462    -0.0000522   -0.0000776     0.0012870   -0.0002951 
   0.005051251     0.9974004   -0.1904259     0.0000427    0.0013672    -0.0001849    0.0000546     0.0003311   -0.0004817 
   0.005151276     0.9781144   -0.1600656    -0.0002776    0.0019761     0.0001665   -0.0000031     0.0009654   -0.0003052 
   0.005251301     0.9496629   -0.1672709     0.0006689   -0.0002938    -0.0000865   -0.0005514     0.0012611    0.0007133 
   0.005351326     0.9824435   -0.1507041    -0.0005790    0.0006025     0.0004328   -0.0002586     0.0016437    0.0002825 
   0.005451351     0.9808286   -0.1712692    -0.0004601    0.0014006    -0.0004233   -0.0002125     0.0010903   -0.0001868 
   0.005551376     0.9992483   -0.2102925    -0.0001435    0.0031610     0.0000721   -0.0003466     0.0006839   -0.0001789 
   0.005651401     0.9492931   -0.1625240     0.0004702    0.0016542     0.0000345    0.0000981     0.0005824   -0.0002651 
   0.005751426     0.9339756   -0.1748740     0.0000736    0.0009772    -0.0001163    0.0003034     0.0016406    0.0000528 
   0.005851451     0.9620157   -0.2164310     0.0000577    0.0005597     0.0001743   -0.0000175     0.0001507   -0.0005221 
   0.005951476     0.9444215   -0.2005030     0.0000779    0.0009939    -0.0001402    0.0000122     0.0009378    0.0005528 
   0.006051501     0.9563627   -0.1898320    -0.0012552   -0.0005518    -0.0000466   -0.0001663     0.0005664   -0.0001488 
   0.006151526     0.9351059   -0.2118479     0.0002296    0.0007555    -0.0004356    0.0002039     0.0013443    0.0001662 
   0.006251551     0.9637325   -0.1859618    -0.0015372    0.0012761     0.0000872   -0.0000352     0.0011178    0.0005560 
   0.006351576     0.9551181   -0.2130331    -0.0009052   -0.0003861    -0.0003221    0.0002746     0.0006464   -0.0001323 
   0.006451601     0.9510305   -0.2021417    -0.0021977    0.0012596    -0.0003867    0.0003379     0.0006608    0.0002841 
   0.006551626     0.9479682   -0.2098945     0.0003606   -0.0005936    -0.0000026    0.0000810    -0.0000709   -0.0000432 
   0.006651651     0.9401712   -0.2045587    -0.0006496    0.0018882    -0.0000638   -0.0002090     0.0006593   -0.0002945 
   0.006751676     0.9471974   -0.2333668     0.0003312   -0.0011544     0.0001829    0.0001689     0.0010400    0.0001118 
   0.006851701     0.9604566   -0.2735982    -0.0005308    0.0012478    -0.0001398    0.0000357     0.0006781    0.0000868 
   0.006951726     0.9212872   -0.2491105    -0.0015137   -0.0003784    -0.0006168    0.0008086     0.0008203    0.0013967 
   0.007051751     0.9598308   -0.2105685    -0.0011411    0.0009375    -0.0001951   -0.0000841     0.0009808    0.0003210 
   0.007151776     0.9211351   -0.2278809    -0.0001807    0.0010260     0.0005083   -0.0003313     0.0013276    0.0000683 
   0.007251801     0.9439815   -0.2285822     0.0002579   -0.0014057     0.0001060   -0.0001179     0.0008571    0.0000885 
   0.007351826     0.9513384   -0.2428648    -0.0006106   -0.0007785     0.0004033    0.0001356     0.0012541    0.0000030 
   0.007451851     0.9514523   -0.2239909     0.0006622    0.0002717    -0.0000220   -0.0004066     0.0006358    0.0000143 
   0.007551876     0.9399101   -0.2413345     0.0011645   -0.0004824    -0.0001269   -0.0001998     0.0010024    0.0000082 
   0.007651901     0.9678269   -0.2641650     0.0004446    0.0015598    -0.0001877   -0.0001844     0.0005908    0.0002924 
   0.007751926     0.9603747   -0.2438417    -0.0008645   -0.0004832     0.0002996   -0.0001650     0.0002465   -0.0001701 
   0.007851951     0.9268035   -0.2605007    -0.0008625   -0.0004519     0.0001878    0.0004651     0.0008487   -0.0001488 
   0.007951976     0.9608113   -0.2824415     0.0001560   -0.0008849     0.0000087    0.0003174     0.0006394    0.0005122 
   0.008052001     0.9561028   -0.2453141    -0.0008756    0.0020976     0.0003410    0.0002368     0.0010215    0.0001317 
   0.008152026     0.9307992   -0.2842235    -0.0017824   -0.0004933     0.0007238    0.0000225     0.0009722    0.0001229 
   0.008252051     0.9380155   -0.2769383     0.0002451    0.0006806    -0.0002654   -0.0002114     0.0012574    0.0009510 
   0.008352076     0.9590089   -0.2860820    -0.0005280    0.0013163     0.0000505   -0.0001232     0.0015112    0.0000305 
   0.008452101     0.9392939   -0.2657664    -0.0003032   -0.0004121     0.0004010   -0.0000555     0.0005808   -0.0004009 
   0.008552126     0.9515144   -0.2857290     0.0009903    0.0021418    -0.0000843    0.0001689     0.0007432    0.0006123 
   0.008652151     0.9414276   -0.2806475     0.0004382   -0.0008346     0.0000462    0.0001102     0.0007890   -0.0000600 
   0.008752176     0.9505974   -0.2731513    -0.0015993   -0.0003897    -0.0001422   -0.0000069     0.0005890   -0.0001144 
   0.008852201     0.9203256   -0.2838420     0.0006040    0.0000636     0.0001524   -0.0000006     0.0011568    0.0003475 
   0.008952226     0.9556019   -0.2876840    -0.0006464    0.0007247    -0.0000743    0.0002105     0.0009955    0.0002113 
   0.009052251     0.9484016   -0.2966147    -0.0000228    0.0005932     0.0000960    0.0001410     0.0009227   -0.0000104 
   0.009152276     0.9522483   -0.3109248     0.0002135    0.0002380     0.0001317    0.0001584     0.0010525    0.0002373 
   0.009252301     0.9291821   -0.3034549    -0.0000709    0.0006310    -0.0000959   -0.0000586     0.0005615   -0.0003548 
   0.009352326     0.9458894   -0.3170872    -0.0001477    0.0005474     0.0005491   -0.0000159     0.0010247    0.0003833 
   0.009452351     0.9340313   -0.3256998     0.0001650    0.0003004    -0.0001818   -0.0001315     0.0008081    0.0001922 
   0.009552376     0.9205492   -0.3271122     0.0000186   -0.0014197     0.0000555    0.0003376     0.0011355    0.0003555 
   0.009652401     0.9095094   -0.3140369    -0.0003684   -0.0001605     0.0000239    0.0000054     0.0005929    0.0001221 
   0.009752426     0.9153085   -0.3231852     0.0002651    0.0000168     0.0003177   -0.0000719     0.0006793    0.0005477 
   0.009852451     0.9091849   -0.3287734    -0.0002423    0.0006354     0.0000163   -0.0002035     0.0008682    0.0000848 
   0.009952476     0.9131691   -0.3428550    -0.0002386   -0.0008526    -0.0002029   -0.0001972     0.0006122    0.0004547 
   0.010052501     0.9153224   -0.3486484     0.0004435   -0.0011746     0.0000987   -0.0000557     0.0004357    0.0003299 
   0.010152526     0.9036270   -0.3354382    -0.0004044    0.0000440    -0.0001807   -0.0001705     0.0008858    0.0006983 
   0.010252551     0.9049208   -0.3411131     0.0012791   -0.0004337     0.0001598   -0.0001555     0.0006187    0.0003397 
   0.010352576     0.9237645   -0.3584532     0.0002988   -0.0000668    -0.0000128    0.0000131     0.0009322    0.0004429 
   0.010452601     0.9140030   -0.3451182     0.0003628    0.0012813     0.0003460   -0.0000893     0.0008309   -0.0000790 
   0.010552626     0.8858639   -0.3730369    -0.0005058   -0.0011439    -0.0001986    0.0001272     0.0006658    0.0005612 
   0.010652651     0.8954708   -0.3604369     0.0003960    0.0002377     0.0000235    0.0003215     0.0009770    0.0001960 
   0.010752676     0.9061694   -0.3739451    -0.0002314    0.0005106    -0.0004462    0.0003550     0.0011282    0.0000816 
   0.010852701     0.9057623   -0.3553920     0.0000509   -0.0017650     0.0002263    0.0003465     0.0008073    0.0005945 
   0.010952726     0.9037111   -0.3938075     0.0005194    0.0014855     0.0000405   -0.0003416     0.0006847    0.0000606 
   0.011052751     0.9002193   -0.3991152    -0.0001209   -0.0004774     0.0000650    0.0002104     0.0010521    0.0003419 
   0.011152776     0.8964980   -0.3782853    -0.0001050    0.0007719    -0.0000447    0.0004095     0.0006593    0.0005618 
   0.011252801     0.8818516   -0.3908465    -0.0008201    0.0005944     0.0000144   -0.0004542     0.0001681    0.0004790 
   0.011352826     0.8926219   -0.4065319    -0.0000515   -0.0001019     0.0001210   -0.0002661     0.0007003    0.0002377 
   0.011452851     0.8807503   -0.3983883    -0.0005224    0.0002804     0.0001166    0.0000770     0.0004557    0.0007545 
   0.011552876     0.8760060   -0.4108661     0.0004240    0.0006389     0.0000704    0.0001622     0.0007919   -0.0001931 
   0.011652901     0.8752360   -0.4204077    -0.0002003    0.0013651     0.0000584    0.0000555     0.0008483    0.0003494 
   0.011752926     0.8734272   -0.4173850     0.0002689    0.0006507    -0.0001985    0.0003340     0.0007104    0.0003468 
   0.011852951     0.8658398   -0.4235566    -0.0008627    0.0007324    -0.0000018    0.0004248     0.0007515    0.0003638 
   0.011952976     0.8611418   -0.4276287     0.0005440   -0.0001564    -0.0000480    0.0000512     0.0002130    0.0002733 
   0.012053002     0.8515501   -0.4519453    -0.0002631    0.0009002    -0.0000959    0.0000219     0.0004751    0.0007371 
   0.012153027     0.8643506   -0.4506733    -0.0000548    0.0008610    -0.0000600   -0.0001495     0.0006543    0.0000484 
   0.012253052     0.8396320   -0.4588132    -0.0001216    0.0002383    -0.0000332    0.0000048     0.0007753    0.0004971 
   0.012353077     0.8544424   -0.4442210     0.0002205   -0.0001979     0.0000118    0.0000924     0.0004272    0.0005403 
   0.012453102     0.8438066   -0.4553198     0.0000606    0.0005934    -0.0002180   -0.0003183     0.0011236    0.0002657 
   0.012553127     0.8196858   -0.4762465    -0.0003202    0.0006793    -0.0001090    0.0001331     0.0008258   -0.0000159 
   0.012653152     0.8523318   -0.4686907    -0.0005021    0.0001966     0.0001113    0.0000697     0.0006333    0.0005688 
   0.012753177     0.8368980   -0.4755985     0.0013329    0.0003902     0.0000715   -0.0001523     0.0002800    0.0000754 
   0.012853202     0.8259290   -0.4751193    -0.0006949    0.0003800    -0.0003146   -0.0000659     0.0004540    0.0007694 
   0.012953227     0.8258998   -0.4843610    -0.0003165   -0.0000996     0.0001214    0.0001589     0.0011304    0.0005322 
   0.013053252     0.8021545   -0.5077568     0.0002047    0.0002620    -0.0000521   -0.0001606     0.0009048   -0.0000191 
   0.013153277     0.8069571   -0.4892993    -0.0007640    0.0000080     0.0000503   -0.0003189     0.0009943    0.0003406 
   0.013253302     0.8029752   -0.5145781    -0.0000515   -0.0000121    -0.0002454   -0.0001508     0.0004946    0.0001987 
   0.013353327     0.8108745   -0.5109611    -0.0000203   -0.0006540    -0.0000933    0.0000346     0.0004302    0.0004124 
   0.013453352     0.8033898   -0.5175860    -0.0002042   -0.0013280     0.0002359    0.0002667     0.0011008    0.0007463 
   0.013553377     0.7673100   -0.5212678     0.0005181   -0.0007393    -0.0000788   -0.0000929     0.0006267    0.0001866 
   0.013653402     0.7717772   -0.5461436    -0.0000148   -0.0007705    -0.0001509   -0.0001247     0.0009155    0.0004480 
   0.013753427     0.7708594   -0.5581782     0.0003143    0.0003340     0.0000760    0.0002857     0.0007589    0.0002745 
   0.013853452     0.7604809   -0.5739374     0.0004614    0.0001645     0.0001288   -0.0000881     0.0006209    0.0002736 
   0.013953477     0.7533144   -0.5552571    -0.0011708   -0.0001483    -0.0001779   -0.0003230     0.0005960    0.0005095 
   0.014053502     0.7327951   -0.5920614    -0.0003210    0.0001116    -0.0001212   -0.0002621     0.0002441    0.0002255 
   0.014153527     0.7218086   -0.5940951    -0.0002221    0.0004700    -0.0002260   -0.0000988     0.0007847    0.0004495 
   0.014253552     0.7119880   -0.6080776    -0.0002193   -0.0007049     0.0001883    0.0000843     0.0010112   -0.0003144 
   0.014353577     0.6897025   -0.5995663    -0.0002201    0.0000490     0.0001616   -0.0000036     0.0007972    0.0003245 
   0.014453602     0.6699911   -0.6178403     0.0002537    0.0000150     0.0000870    0.0003542     0.0002691    0.0005254 
   0.014553627     0.6535130   -0.6325720    -0.0003214    0.0001160    -0.0003373    0.0000183     0.0005779    0.0003203 
   0.014653652     0.6457673   -0.6474578    -0.0002233   -0.0006039    -0.0000024   -0.0000777     0.0007324    0.0001841 
   0.014753677     0.6078275   -0.6465707    -0.0005015   -0.0002579     0.0000171   -0.0000167     0.0006748    0.0001416 
   0.014853702     0.5942827   -0.6577902    -0.0001010    0.0000869    -0.0000893   -0.0000615     0.0008229    0.0003087 
   0.014953727     0.5387879   -0.6767344     0.0000532   -0.0003042     0.0001211   -0.0000555     0.0010688    0.0003386 
   0.015053752     0.5240569   -0.6788844    -0.0000362    0.0005383     0.0000175    0.0002827     0.0005692    0.0004916 
   0.015153777     0.4790917   -0.6873103     0.0004778   -0.0000364     0.0001252   -0.0001483     0.0005666   -0.0001590 
   0.015253802     0.4315747   -0.6850354     0.0006641    0.0003308     0.0001064    0.0000752     0.0006931    0.0004050 
   0.015353827     0.3858445   -0.6837084     0.0001510   -0.0001078     0.0001673   -0.0000092     0.0010665    0.0003130 
   0.015453852     0.3346557   -0.6776540    -0.0003792   -0.0000121    -0.0000131    0.0001028     0.0010658    0.0003013 
   0.015553877     0.2657958   -0.6606480     0.0001713    0.0000267    -0.0001739   -0.0001006     0.0007538    0.0002105 
   0.015653902     0.2060829   -0.6303840     0.0002430   -0.0001535    -0.0000380    0.0001042     0.0007640    0.0000305 
   0.015753927     0.1417022   -0.5842377    -0.0004321   -0.0001369    -0.0000414   -0.0001284     0.0001199    0.0003497 
   0.015853952     0.0660195   -0.5183447    -0.0000861   -0.0001217    -0.0000082   -0.0000305     0.0006817    0.0006236 
   0.015953977     0.0133220   -0.4328786    -0.0001604   -0.0002147    -0.0000906    0.0001635     0.0008360    0.0006558 
   0.016054002    -0.0293555   -0.3202835    -0.0002255   -0.0000451    -0.0000003   -0.0001372     0.0011466    0.0006338 
   0.016154027    -0.0429697   -0.1971563     0.0002224   -0.0001465     0.0001478   -0.0001094     0.0004047    0.0000715 
   0.016254052    -0.0186451   -0.0678652    -0.0001279   -0.0005709     0.0000448    0.0001636     0.0008109    0.0001716 
   0.016354077     0.0414428    0.0518950    -0.0002945    0.0005344     0.0001203   -0.0000728     0.0005763    0.0004445 
   0.016454102     0.1312388    0.1470443     0.0001662   -0.0003222     0.0000732   -0.0002561     0.0003462   -0.0000975 
   0.016554127     0.2280259    0.2032035     0.0005145    0.0002504     0.0001393   -0.0000032     0.0005007    0.0002705 
   0.016654152     0.3347278    0.2439264     0.0003880   -0.0007232     0.0000605    0.0001416     0.0010249    0.0002372 
   0.016754177     0.4404830    0.2563509     0.0000948   -0.0006235     0.0000952    0.0000510     0.0008466    0.0006778 
   0.016854202     0.5208290    0.2397726     0.0010311   -0.0001525    -0.0000096    0.0001494     0.0009435    0.0006943 
   0.016954227     0.6024435    0.2265089    -0.0000266    0.0006821     0.0000045   -0.0000096     0.0007568    0.0004337 
   0.017054252     0.6709673    0.1838959    -0.0002287    0.0002390    -0.0000656   -0.0001395     0.0005878    0.0003905 
   0.017154277     0.7020913    0.1503061     0.0006435    0.0009789    -0.0000003    0.0000125     0.0005517    0.0002108 
   0.017254302     0.7399905    0.1430141    -0.0001302   -0.0008962     0.0001959   -0.0000663     0.0007216    0.0004774 
   0.017354327     0.7790163    0.0964757     0.0003983   -0.0005392     0.0002645    0.0000184     0.0010491    0.0000833 
   0.017454352     0.8074524    0.0622667     0.0006060    0.0002522     0.0001003   -0.0000854     0.0003085    0.0000265 
   0.017554377     0.8255391    0.0294805     0.0008704    0.0005715    -0.0001636    0.0001626     0.0009137    0.0001639 
   0.017654402     0.8379794    0.0085914    -0.0000599   -0.0006314     0.0002415    0.0001710     0.0002387    0.0001441 
   0.017754427     0.8461260   -0.0292484     0.0001552    0.0000045     0.0001824   -0.0000511     0.0005989   -0.0000596 
   0.017854452     0.8661974   -0.0543622     0.0000987    0.0006507     0.0000519   -0.0000791     0.0014853    0.0000324 
   0.017954477     0.8648384   -0.0645964     0.0004645    0.0010370    -0.0002680    0.0001736     0.0007248    0.0004479 
   0.018054502     0.8730500   -0.0994445     0.0008550   -0.0001126    -0.0000806    0.0001025     0.0009056    0.0004007 
   0.018154527     0.8804316   -0.1198016     0.0006223    0.0007512    -0.0000924   -0.0002015     0.0009462    0.0001786 
   0.018254552     0.8861443   -0.1408112    -0.0000926    0.0000075     0.0000982    0.0001739     0.0008890    0.0004114 
   0.018354577     0.8857356   -0.1522425    -0.0004130   -0.0003592    -0.0001107    0.0002726     0.0004285    0.0003385 
   0.018454602     0.8809723   -0.1698045     0.0003348    0.0005826    -0.0000382    0.0005104     0.0009530    0.0003011 
   0.018554627     0.8925548   -0.1893874     0.0005138    0.0005144     0.0000507    0.0002956     0.0003272    0.0001250 
   0.018654652     0.8856087   -0.1993618     0.0012612    0.0005643    -0.0000342    0.0001023     0.0003900    0.0005015 
   0.018754677     0.8847841   -0.2094319     0.0000588    0.0005666     0.0001127   -0.0001816     0.0005524    0.0001338 
   0.018854702     0.8908489   -0.2217321    -0.0005144   -0.0000587     0.0000418   -0.0000443     0.0009244    0.0001645 
   0.018954727     0.8901035   -0.2346830    -0.0000596    0.0001558     0.0001672   -0.0001095     0.0006631    0.0008781 
   0.019054752     0.8908971   -0.2455906     0.0006625   -0.0003558    -0.0002285   -0.0000097     0.0002477    0.0006106 
   0.019154777     0.8840923   -0.2571708     0.0002485   -0.0000205    -0.0001270    0.0000367     0.0008676    0.0001275 
   0.019254802     0.8830541   -0.2708724     0.0004751   -0.0005565     0.0001422   -0.0000483     0.0009491    0.0005167 
   0.019354827     0.8695291   -0.2806857     0.0004285    0.0000890    -0.0002015    0.0001324     0.0007849    0.0005382 
   0.019454852     0.8823213   -0.2879806     0.0002462    0.0004109     0.0001015    0.0000751     0.0004576    0.0001534 
   0.019554877     0.8718306   -0.2988136     0.0002176    0.0000566    -0.0000779    0.0001296     0.0007103    0.0004029 
   0.019654902     0.8898196   -0.3076697    -0.0000215   -0.0004843    -0.0001260    0.0001186     0.0006481   -0.0000184 
   0.019754927     0.8726575   -0.3221405     0.0003542    0.0006207    -0.0000133   -0.0002340     0.0007476    0.0000711 
   0.019854952     0.8649136   -0.3248783    -0.0003487   -0.0006411     0.0000651   -0.0001261     0.0004834    0.0005297 
   0.019954977     0.8712698   -0.3398831    -0.0005626    0.0007847    -0.0001689    0.0000087     0.0007179    0.0006814 
   0.020055003     0.8768052   -0.3449801    -0.0000013   -0.0002767     0.0002412    0.0001269     0.0005712    0.0003438 
   0.020155028     0.8710883   -0.3476315     0.0002011   -0.0002792    -0.0000083   -0.0000517     0.0005629    0.0003846 
   0.020255053     0.8681552   -0.3567044     0.0001295   -0.0002138    -0.0000461    0.0003649     0.0002383    0.0006601 
   0.020355078     0.8617159   -0.3636869    -0.0002725    0.0000844    -0.0000737   -0.0002129    -0.0001441    0.0005377 
   0.020455103     0.8702825   -0.3755806     0.0008210   -0.0002158     0.0001958   -0.0001339     0.0003740    0.0005384 
   0.020555128     0.8580917   -0.3733788    -0.0005455    0.0001136    -0.0001668    0.0000022     0.0008262    0.0005937 
   0.020655153     0.8684230   -0.3765028    -0.0002211    0.0001024    -0.0000394   -0.0001104     0.0004876    0.0001036 
   0.020755178     0.8451062   -0.3927650     0.0004944   -0.0000386     0.0000658   -0.0000078     0.0005358    0.0003447 
   0.020855203     0.8487889   -0.3958141     0.0000620    0.0001613     0.0001431   -0.0000728     0.0002870    0.0002341 
   0.020955228     0.8471597   -0.3952165     0.0001229    0.0004269     0.0000421    0.0000059     0.0004807    0.0000448 
   0.021055253     0.8304647   -0.4199193    -0.0002186   -0.0003139     0.0000229    0.0000785     0.0004472    0.0003316 
   0.021155278     0.8428289   -0.4211503    -0.0002874   -0.0002653    -0.0001035   -0.0000689     0.0006214    0.0003833 
   0.021255303     0.8283124   -0.4257121     0.0005322    0.0002826    -0.0000179   -0.0001345     0.0008707    0.0002124 
   0.021355328     0.8466588   -0.4200223    -0.0002454   -0.0008971    -0.0000720    0.0001843     0.0007515    0.0006579 
   0.021455353     0.8291236   -0.4354192    -0.0001857   -0.0007473    -0.0001174    0.0000683     0.0005754    0.0002982 
   0.021555378     0.8300587   -0.4482588    -0.0003135   -0.0001521     0.0000897    0.0000286     0.0009324    0.0005568 
   0.021655403     0.8305210   -0.4492878    -0.0003062    0.0001974     0.0000284    0.0000861     0.0007744    0.0006558 
   0.021755428     0.8249925   -0.4563811     0.0000517    0.0003240    -0.0001597   -0.0000173     0.0008942   -0.0001346 
   0.021855453     0.8144976   -0.4578452     0.0000531    0.0002105     0.0000721   -0.0000619     0.0008813    0.0007055 
   0.021955478     0.8083586   -0.4596215    -0.0005684   -0.0003773     0.0000796    0.0000702     0.0006004    0.0010519 
   0.022055503     0.8209808   -0.4643218     0.0001197   -0.0001099     0.0000045    0.0002697     0.0002815    0.0006632 
   0.022155528     0.8093700   -0.4690997     0.0007186    0.0004818    -0.0002277    0.0002437     0.0001625    0.0002922 
   0.022255553     0.8044083   -0.4890025    -0.0000908    0.0000156    -0.0000595   -0.0000956     0.0005886    0.0002751 
   0.022355578     0.8048481   -0.4807907    -0.0002050    0.0000498    -0.0000235    0.0000083     0.0007515    0.0005874 
   0.022455603     0.7965008   -0.4963160    -0.0000132   -0.0001730    -0.0000798    0.0000626    -0.0001160    0.0001181 
   0.022555628     0.7965115   -0.4926391    -0.0002058   -0.0003965    -0.0000812    0.0000036     0.0005415    0.0002508 
   0.022655653     0.8054026   -0.4938010     0.0000718    0.0002757    -0.0000886   -0.0000817     0.0003045    0.0003273 
   0.022755678     0.7862477   -0.5136862    -0.0003745   -0.0001416     0.0000231    0.0001083     0.0003374    0.0006184 
   0.022855703     0.7821520   -0.5056358     0.0000166   -0.0005157    -0.0000877   -0.0001111     0.0002013    0.0004104 
   0.022955728     0.7820954   -0.5105444     0.0000751    0.0003768    -0.0000937    0.0000005     0.0010481    0.0004615 
   0.023055753     0.7870923   -0.5177118     0.0005507   -0.0002125     0.0001621    0.0000204     0.0003660    0.0007640 
   0.023155778     0.7809637   -0.5250767    -0.0000755   -0.0003378    -0.0001043    0.0000160     0.0005096    0.0001044 
   0.023255803     0.7672111   -0.5304440     0.0000332    0.0002333     0.0001326    0.0001229     0.0008936    0.0003877 
   0.023355828     0.7672425   -0.5347124     0.0000322    0.0001484     0.0001229    0.0001124     0.0004227    0.0003464 
   0.023455853     0.7660241   -0.5366449     0.0002436    0.0001005    -0.0000618    0.0000085     0.0005681    0.0000666 
   0.023555878     0.7634807   -0.5474330     0.0002729    0.0000253     0.0000187   -0.0000699     0.0002832    0.0002047 
   0.023655903     0.7606443   -0.5407595    -0.0000715   -0.0004854    -0.0000784   -0.0000455     0.0006456    0.0008480 
   0.023755928     0.7532457   -0.5489686    -0.0001581    0.0001005     0.0000218    0.0001586     0.0005917    0.0005675 
   0.023855953     0.7533227   -0.5509016    -0.0005833   -0.0001459     0.0000569   -0.0001079     0.0008101    0.0004508 
   0.023955978     0.7417026   -0.5593166    -0.0001944    0.0001738    -0.0000124   -0.0000154     0.0006264    0.0005220 
   0.024056003     0.7501078   -0.5598918    -0.0002437    0.0002816    -0.0000742   -0.0000079     0.0004715    0.0003370 
   0.024156028     0.7410774   -0.5696833     0.0001726   -0.0005622    -0.0000919    0.0000420     0.0002439    0.0002750 
   0.024256053     0.7360254   -0.5757087     0.0000477    0.0004236    -0.0001160   -0.0001189     0.0001390    0.0004831 
   0.024356078     0.7343744   -0.5663723     0.0001600    0.0003987    -0.0001336   -0.0000009     0.0006857    0.0002563 
   0.024456103     0.7234940   -0.5732260     0.0002047    0.0000617     0.0000249    0.0001111     0.0006414    0.0007509 
   0.024556128     0.7314594   -0.5853358     0.0000786    0.0004150    -0.0000332    0.0000734     0.0002917    0.0004650 
   0.024656153     0.7210809   -0.5884687     0.0001648    0.0002716    -0.0000259    0.0000046     0.0003692    0.0006550 
   0.024756178     0.7208151   -0.5972275    -0.0001921    0.0000720    -0.0000833    0.0000725     0.0006620    0.0006023 
   0.024856203     0.7197801   -0.5940778    -0.0002328    0.0004454    -0.0000863    0.0000891     0.0007271    0.0002372 
   0.024956228     0.7142792   -0.5924752    -0.0002485    0.0000360     0.0000814   -0.0000353     0.0008575    0.0006843 
   0.025056253     0.6988309   -0.6015652    -0.0002414    0.0001157     0.0001080    0.0000317     0.0000187    0.0002633 
   0.025156278     0.7039596   -0.6122339     0.0000737    0.0001394    -0.0001298    0.0000287     0.0008354    0.0003367 
   0.025256303     0.6930453   -0.6091843     0.0000670   -0.0001183    -0.0001057   -0.0000322     0.0007666    0.0003369 
   0.025356328     0.7011159   -0.6214846     0.0004475   -0.0000723     0.0000291   -0.0000329     0.0008354    0.0002773 
   0.025456353     0.6845002   -0.6238049    -0.0002945   -0.0001851     0.0001428    0.0001424     0.0004242    0.0005735 
   0.025556378     0.6812773   -0.6271011    -0.0000231    0.0001874     0.0000015    0.0000075     0.0004047    0.0004085 
   0.025656403     0.6785659   -0.6359727     0.0000831   -0.0001525     0.0000231    0.0000912     0.0004510    0.0004109 
   0.025756428     0.6712477   -0.6414855     0.0003834    0.0002491    -0.0001709   -0.0000248     0.0000920    0.0003741 
   0.025856453     0.6672682   -0.6432945    -0.0000163    0.0001798     0.0000003   -0.0000655     0.0009824    0.0007493 
   0.025956478     0.6625440   -0.6405821     0.0002052   -0.0002358     0.0000380   -0.0000010     0.0007098    0.0006873 
   0.026056503     0.6558425   -0.6469861    -0.0000970    0.0000066    -0.0000128    0.0000117     0.0007631    0.0006650 
   0.026156528     0.6447754   -0.6490378     0.0002127   -0.0001795     0.0000358   -0.0000032     0.0005272    0.0004073 
   0.026256553     0.6484712   -0.6525434     0.0002324   -0.0001374    -0.0000838   -0.0000435     0.0005018    0.0003735 
   0.026356578     0.6422150   -0.6678590     0.0000144    0.0000176     0.0000469    0.0000768     0.0006172    0.0003323 
   0.026456603     0.6290050   -0.6705076     0.0000845    0.0001208    -0.0000068    0.0000176     0.0004079    0.0002121 
   0.026556628     0.6240271   -0.6705966     0.0003541   -0.0000540    -0.0000037    0.0000343     0.0004476    0.0005788 
   0.026656653     0.6172183   -0.6691639     0.0002432   -0.0000657     0.0000009    0.0000105     0.0007352    0.0004176 
   0.026756678     0.6116156   -0.6809452    -0.0000898   -0.0001539     0.0001219   -0.0000575     0.0004348    0.0001877 
   0.026856703     0.6089941   -0.6904098     0.0001185   -0.0000661    -0.0001155   -0.0000254     0.0007115    0.0001461 
   0.026956728     0.6032028   -0.6877512     0.0002863    0.0002446     0.0000897   -0.0000880     0.0009171    0.0005910 
   0.027056753     0.5937417   -0.6970523     0.0001545    0.0001127    -0.0000417    0.0000104     0.0002880    0.0007020 
   0.027156778     0.5890114   -0.6965318    -0.0000514   -0.0000114    -0.0000774   -0.0000396     0.0007158    0.0010080 
   0.027256803     0.5785410   -0.6907989    -0.0001617   -0.0001473     0.0000515    0.0000819     0.0005665    0.0001441 
   0.027356828     0.5790093   -0.7067858    -0.0003063    0.0001460    -0.0000863    0.0000294     0.0004079    0.0005811 
   0.027456853     0.5597597   -0.7134750    -0.0002752    0.0002053     0.0000369   -0.0001215     0.0004720    0.0002219 
   0.027556878     0.5596345   -0.7095014     0.0001364   -0.0004272     0.0000756    0.0000153     0.0008335    0.0005339 
   0.027656903     0.5561903   -0.7198499    -0.0001246   -0.0002472     0.0000959    0.0000213     0.0007141    0.0004771 
   0.027756928     0.5399063   -0.7163444    -0.0002473   -0.0000622     0.0000067    0.0000083     0.0008085    0.0002644 
   0.027856953     0.5365807   -0.7241460    -0.0000990   -0.0001363    -0.0000170    0.0000909     0.0007766    0.0005443 
   0.027956978     0.5279680   -0.7255470     0.0000209   -0.0001506     0.0000264    0.0000612     0.0007569   -0.0002713 
   0.028057004     0.5176368   -0.7285859     0.0002164    0.0001828    -0.0000184    0.0001443     0.0006638    0.0004434 
   0.028157029     0.5053315   -0.7342095    -0.0001441   -0.0002813    -0.0001139   -0.0000450     0.0004379    0.0000922 
   0.028257054     0.4970497   -0.7352558    -0.0001198   -0.0001439    -0.0000178   -0.0000040     0.0004108    0.0003368 
   0.028357079     0.4834525   -0.7403461     0.0000232   -0.0002561    -0.0000762    0.0000050     0.0000545    0.0007732 
   0.028457104     0.4793533   -0.7425656    -0.0000237    0.0002113    -0.0000457   -0.0000010     0.0003746    0.0011397 
   0.028557129     0.4682674   -0.7543542     0.0003205   -0.0001241    -0.0000282   -0.0000074     0.0006847    0.0001203 
   0.028657154     0.4622538   -0.7538808    -0.0002091    0.0001333     0.0000213    0.0000183     0.0001821    0.0008041 
   0.028757179     0.4535969   -0.7583520    -0.0000965   -0.0004057    -0.0000726   -0.0001219     0.0006749    0.0003639 
   0.028857204     0.4362044   -0.7592145    -0.0002295   -0.0000642    -0.0000164   -0.0000149     0.0006779    0.0007200 
   0.028957229     0.4200469   -0.7606572     0.0000559    0.0001860    -0.0000094    0.0000327     0.0000090    0.0003123 
   0.029057254     0.4190635   -0.7717919     0.0002953   -0.0001049    -0.0000164    0.0001244     0.0006332    0.0007342 
   0.029157279     0.3984159   -0.7689352     0.0001422    0.0000302     0.0000453    0.0000352     0.0004096    0.0008230 
   0.029257304     0.3900581   -0.7725830    -0.0004297   -0.0003284     0.0000705   -0.0000549     0.0004206    0.0009519 
   0.029357329     0.3739831   -0.7675152    -0.0001184   -0.0001365    -0.0000891   -0.0000248     0.0005427    0.0006584 
   0.029457354     0.3663331   -0.7741616    -0.0000176   -0.0000174     0.0001143   -0.0000421     0.0002354    0.0006347 
   0.029557379     0.3439305   -0.7819695    -0.0002142   -0.0003889    -0.0001081   -0.0000729     0.0003358    0.0007424 
   0.029657404     0.3350314   -0.7798932     0.0001006   -0.0001069     0.0000071   -0.0000672     0.0006699    0.0005187 
   0.029757429     0.3145132   -0.7824001     0.0001066    0.0002552    -0.0000240    0.0000823     0.0004344    0.0005172 
   0.029857454     0.2993599   -0.7790329     0.0003065   -0.0000934    -0.0000243    0.0000138     0.0010137    0.0005714 
   0.029957479     0.2893716   -0.7778336     0.0001805   -0.0000320    -0.0000748   -0.0000956     0.0000701    0.0004004 
   0.030057504     0.2673517   -0.7805463    -0.0001781   -0.0001429     0.0000108   -0.0000246     0.0006062    0.0004849 
   0.030157529     0.2582153   -0.7764331     0.0000414   -0.0001481     0.0000135   -0.0000733     0.0001635    0.0003753 
   0.030257554     0.2395068   -0.7726502    -0.0000122    0.0001152     0.0000632    0.0000170     0.0000798    0.0003563 
   0.030357579     0.2232223   -0.7705374    -0.0003848   -0.0000210     0.0001282    0.0000262     0.0001931    0.0006668 
   0.030457604     0.1981636   -0.7749956     0.0001299    0.0000603    -0.0000579   -0.0000902     0.0008257    0.0009613 
   0.030557629     0.1824286   -0.7691826    -0.0000616    0.0002970     0.0000132   -0.0000279     0.0003836    0.0008240 
   0.030657654     0.1589186   -0.7665392    -0.0003213    0.0001914    -0.0000031    0.0000756     0.0002596    0.0002385 
   0.030757679     0.1403663   -0.7651849     0.0005178   -0.0001732     0.0000394    0.0000606     0.0004676    0.0000260 
   0.030857704     0.1159152   -0.7581954    -0.0002563    0.0002799     0.0001024    0.0001259     0.0003902    0.0005037 
   0.030957729     0.0965577   -0.7597994     0.0004838   -0.0002532    -0.0000051   -0.0000454     0.0003344    0.0006448 
   0.031057754     0.0712370   -0.7427134    -0.0000863    0.0005272     0.0000711   -0.0000347     0.0008635    0.0003819 
   0.031157779     0.0454693   -0.7401327     0.0000575   -0.0001073    -0.0000498    0.0001488     0.0002651    0.0006990 
   0.031257804     0.0205558   -0.7224824     0.0002033   -0.0003054    -0.0000166   -0.0001390     0.0004002    0.0004623 
   0.031357829    -0.0025220   -0.7136994    -0.0000443    0.0001119     0.0000479    0.0001117     0.0004737    0.0009678 
   0.031457854    -0.0256397   -0.6919847     0.0001461    0.0001042     0.0000638    0.0000908     0.0002660    0.0000038 
   0.031557879    -0.0551872   -0.6740431    -0.0001245   -0.0000830    -0.0000399   -0.0000812     0.0003463    0.0003090 
   0.031657904    -0.0788430   -0.6551838    -0.0002647   -0.0003121     0.0000238   -0.0001750     0.0005894    0.0006702 
   0.031757929    -0.1037724   -0.6365352    -0.0002679    0.0000143     0.0000609   -0.0000044     0.0000337    0.0007209 
   0.031857954    -0.1330733   -0.6140857     0.0006923   -0.0002738     0.0000232   -0.0001324     0.0007496    0.0003879 
   0.031957979    -0.1589483   -0.5861116     0.0003590   -0.0000184    -0.0000093   -0.0003024     0.0001114    0.0005832 
   0.032058004    -0.1784751   -0.5581429    -0.0004495   -0.0002950     0.0000648   -0.0001125     0.0000844    0.0002898 
   0.032158029    -0.2105199   -0.5225744     0.0001640    0.0009076     0.0000555    0.0001013     0.0004624    0.0002339 
   0.032258054    -0.2309946   -0.4837827     0.0002963   -0.0002447     0.0000351    0.0002577     0.0004412    0.0005307 
   0.032358079    -0.2502587   -0.4435183     0.0001880   -0.0000591     0.0000760   -0.0001168     0.0004294    0.0008231 
   0.032458104    -0.2697125   -0.3961845     0.0007598   -0.0002172    -0.0001136   -0.0000386     0.0000681    0.0003391 
   0.032558129    -0.2761820   -0.3457080     0.0000317    0.0006667     0.0002124   -0.0000565     0.0004796   -0.0000103 
   0.032658154    -0.2904952   -0.2931684    -0.0000305   -0.0003615    -0.0000252   -0.0001721    -0.0000653    0.0007376 
   0.032758179    -0.2939590   -0.2397978    -0.0000533    0.0006027     0.0000624   -0.0002342     0.0005726    0.0004533 
   0.032858204    -0.2934344   -0.1838525     0.0004942   -0.0009926    -0.0001102    0.0001753     0.0005617    0.0002388 
   0.032958229    -0.2871110   -0.1252797     0.0005358    0.0003734    -0.0000205   -0.0001596    -0.0001087    0.0008044 
   0.033058254    -0.2738734   -0.0680374    -0.0000565    0.0001235    -0.0001597    0.0000067     0.0001162    0.0003666 
   0.033158279    -0.2561036   -0.0090089    -0.0000464    0.0000444     0.0000838    0.0000437     0.0005217    0.0006161 
   0.033258304    -0.2288333    0.0525054    -0.0010381   -0.0006902     0.0000802    0.0000670     0.0002536    0.0004927 
   0.033358329    -0.1939312    0.1048199     0.0000492    0.0002133    -0.0001494    0.0001884     0.0010283    0.0002139 
   0.033458354    -0.1513040    0.1537629     0.0004390    0.0004848    -0.0001187   -0.0000037     0.0007233    0.0003815 
   0.033558379    -0.1074150    0.1964262    -0.0009571   -0.0001532    -0.0000024   -0.0001927     0.0002906    0.0002674 
   0.033658404    -0.0574535    0.2389228    -0.0001443    0.0007103     0.0002325   -0.0000525     0.0006545    0.0008693 
   0.033758429    -0.0048417    0.2705879    -0.0001600    0.0002150     0.0001549   -0.0000090     0.0002297    0.0002681 
   0.033858454     0.0494955    0.2996300    -0.0001648   -0.0002991     0.0000203   -0.0000303     0.0004429    0.0002393 
   0.033958479     0.1098606    0.3177079    -0.0008190   -0.0005352     0.0002348    0.0000035     0.0000427    0.0006336 
   0.034058504     0.1683476    0.3357220    -0.0000492   -0.0006446     0.0001537   -0.0000824    -0.0000974    0.0005337 
   0.034158529     0.2284182    0.3401626     0.0002085   -0.0004389    -0.0002015   -0.0000676     0.0008575    0.0008702 
   0.034258554     0.2874790    0.3379075    -0.0000656    0.0001344    -0.0000105    0.0000211     0.0002726    0.0005269 
   0.034358579     0.3363112    0.3353310    -0.0007038    0.0002095     0.0000447   -0.0001430     0.0007199    0.0001905 
   0.034458604     0.3923901    0.3251116    -0.0000851    0.0001780     0.0001737   -0.0001206     0.0005649    0.0000773 
   0.034558629     0.4408374    0.3120983    -0.0000727    0.0004192    -0.0001506   -0.0000417     0.0007984    0.0001287 
   0.034658654     0.4790293    0.2932152    -0.0007283   -0.0000691     0.0000731   -0.0000340    -0.0000620    0.0003773 
   0.034758679     0.5268598    0.2727834     0.0000257    0.0004665    -0.0001358    0.0000943     0.0000676    0.0006204 
   0.034858704     0.5621616    0.2528795    -0.0001741   -0.0002784     0.0001789   -0.0000668     0.0006569    0.0005927 
   0.034958729     0.5956996    0.2306153    -0.0001863    0.0000778    -0.0001082   -0.0001077     0.0008049    0.0005034 
   0.035058754     0.6261545    0.2002555     0.0003044    0.0001581    -0.0001612   -0.0000170     0.0005541   -0.0000323 
   0.035158779     0.6543506    0.1759097     0.0000587   -0.0002461    -0.0000557    0.0000100     0.0000649    0.0004295 
   0.035258804     0.6778818    0.1491482    -0.0002446   -0.0002354     0.0002324   -0.0001319     0.0002502    0.0005011 
   0.035358829     0.6938211    0.1241825    -0.0002320   -0.0004957    -0.0000718    0.0000364     0.0004740    0.0005335 
   0.035458854     0.7192975    0.0955548     0.0000601   -0.0000224     0.0000318    0.0001503     0.0006986    0.0001960 
   0.035558879     0.7372040    0.0721280     0.0004671   -0.0005274     0.0000102    0.0001316     0.0004596    0.0006127 
   0.035658904     0.7482317    0.0400383    -0.0002412   -0.0000086    -0.0001207   -0.0000086     0.0001284    0.0008868 
   0.035758929     0.7601331    0.0203451    -0.0003094   -0.0000483    -0.0000860   -0.0000591     0.0007211    0.0005649 
   0.035858954     0.7693046   -0.0085214    -0.0001604    0.0003684    -0.0000909    0.0000825     0.0006520    0.0007376 
   0.035958979     0.7800961   -0.0307111     0.0002928    0.0000664     0.0000163    0.0000530     0.0000755    0.0000684 
   0.036059005     0.7892366   -0.0588758     0.0001931   -0.0001579    -0.0000810   -0.0000989     0.0004581    0.0004125 
   0.036159030     0.7931085   -0.0783936     0.0001811    0.0001252     0.0000188   -0.0000101     0.0000391    0.0002335 
   0.036259055     0.7956938   -0.1005128     0.0001167   -0.0001754    -0.0000802    0.0000260     0.0001433   -0.0000934 
   0.036359080     0.8009678   -0.1243247     0.0000217    0.0000304    -0.0000577    0.0000825     0.0005833    0.0001947 
   0.036459105     0.8074426   -0.1468670    -0.0000078   -0.0003029     0.0000481   -0.0000566     0.0005288    0.0003259 
   0.036559130     0.8039612   -0.1595644    -0.0000590   -0.0001282    -0.0001063    0.0000190     0.0001109    0.0002868 
   0.036659155     0.8112780   -0.1838999    -0.0001834    0.0002279    -0.0000978    0.0001321     0.0006814    0.0005823 
   0.036759180     0.8111980   -0.2009526     0.0000003   -0.0001483     0.0000167   -0.0000498     0.0006278    0.0001865 
   0.036859205     0.8103155   -0.2157861    -0.0000643   -0.0000737     0.0000905   -0.0001045     0.0000692    0.0001279 
   0.036959230     0.8081741   -0.2376825     0.0001103   -0.0000807     0.0000700    0.0001551     0.0000685    0.0001816 
   0.037059255     0.8098752   -0.2542342     0.0000758    0.0001090    -0.0000535   -0.0000487     0.0001942    0.0001660 
   0.037159280     0.8058546   -0.2717239    -0.0001430   -0.0000494    -0.0000663    0.0000394     0.0007806    0.0008249 
   0.037259305     0.8062005   -0.2895828     0.0002248   -0.0001457    -0.0000054    0.0000104     0.0007352    0.0002964 
   0.037359330     0.8059895   -0.3017567    -0.0000884    0.0001446     0.0000108   -0.0000047     0.0000615    0.0003931 
   0.037459355     0.8003200   -0.3188649    -0.0000169   -0.0001283     0.0001191   -0.0000335     0.0004251    0.0005668 
   0.037559380     0.7953261   -0.3313642     0.0002061   -0.0001624    -0.0000143   -0.0000393     0.0008839    0.0003280 
   0.037659405     0.7936708   -0.3458382     0.0001428    0.0000047    -0.0000333   -0.0000940     0.0003569   -0.0001701 
   0.037759430     0.7895097   -0.3567550    -0.0001579    0.0000835     0.0000082    0.0000340     0.0005753    0.0002455 
   0.037859455     0.7822675   -0.3700671    -0.0002419   -0.0000033     0.0001045    0.0000224     0.0006445    0.0002863 
   0.037959480     0.7788966   -0.3814257     0.0001248    0.0000767    -0.0000370   -0.0000862     0.0001716    0.0002716 
   0.038059505     0.7774696   -0.3909414    -0.0001089   -0.0002946     0.0000377    0.0000821     0.0002739    0.0002859 
   0.038159530     0.7741934   -0.4038611     0.0001128   -0.0003466    -0.0000206    0.0000671    -0.0002306    0.0004392 
   0.038259555     0.7684776   -0.4199461    -0.0000235    0.0001458     0.0000636    0.0000080     0.0001544    0.0004754 
   0.038359580     0.7652798   -0.4268017    -0.0002908    0.0003046     0.0000106    0.0000593     0.0005637    0.0007934 
   0.038459605     0.7601020   -0.4372374    -0.0001466   -0.0000254     0.0001585    0.0000492     0.0002435    0.0002804 
   0.038559630     0.7520641   -0.4533258    -0.0000022   -0.0001193    -0.0000190    0.0000261     0.0001063    0.0003400 
   0.038659655     0.7522047   -0.4598483     0.0001688   -0.0000395    -0.0001219    0.0000978     0.0006275    0.0003297 
   0.038759680     0.7426759   -0.4633286    -0.0001564   -0.0001695    -0.0001260   -0.0000301     0.0002030    0.0000019 
   0.038859705     0.7349570   -0.4812765    -0.0000858    0.0000742    -0.0000140   -0.0000168     0.0004045    0.0001901 
   0.038959730     0.7356573   -0.4887586     0.0000091    0.0001258     0.0000919   -0.0000602     0.0003973    0.0003567 
   0.039059755     0.7334895   -0.5002360    -0.0000091   -0.0000477    -0.0000874   -0.0000982     0.0004246    0.0000327 
   0.039159780     0.7188699   -0.5034243     0.0001577    0.0002475    -0.0000015    0.0000063     0.0002824    0.0004735 
   0.039259805     0.7188243   -0.5146289     0.0000495   -0.0000604     0.0001118   -0.0000575     0.0004288    0.0000852 
   0.039359830     0.7088196   -0.5207949     0.0000656   -0.0003302    -0.0000407    0.0000336     0.0002565    0.0005675 
   0.039459855     0.7009764   -0.5315378     0.0002000    0.0000795    -0.0000406    0.0000105     0.0003395    0.0000515 
   0.039559880     0.6971706   -0.5415038     0.0000134    0.0001249    -0.0001335    0.0000145     0.0002557   -0.0000935 
   0.039659905     0.6942832   -0.5476318     0.0001559    0.0001971     0.0001102    0.0000330     0.0001833    0.0004405 
   0.039759930     0.6870592   -0.5551989    -0.0001347   -0.0002996    -0.0000712   -0.0000429     0.0002237   -0.0000491 
   0.039859955     0.6797108   -0.5583051     0.0002136   -0.0002432    -0.0000495    0.0000190     0.0003175    0.0000317 
   0.039959980     0.6723572   -0.5688846    -0.0003513    0.0001393    -0.0000520    0.0000256     0.0005599    0.0002568 
   0.040060005     0.6727603   -0.5741533     0.0001862    0.0000708    -0.0000317    0.0000496     0.0003518    0.0001365 
   0.040160030     0.6659814   -0.5827065     0.0001000   -0.0004297     0.0000812    0.0001097     0.0005930    0.0004865 
   0.040260055     0.6586279   -0.5836005    -0.0004184   -0.0001515    -0.0000538   -0.0001815     0.0004242    0.0007419 
   0.040360080     0.6500987   -0.5904114    -0.0000088   -0.0001964     0.0000549   -0.0000211     0.0000496    0.0006250 
   0.040460105     0.6470562   -0.5998333    -0.0000111   -0.0003432    -0.0001629    0.0000378     0.0003555    0.0006973 
   0.040560130     0.6406593   -0.6077900     0.0000943   -0.0000119    -0.0000294   -0.0001989     0.0003997    0.0003583 
   0.040660155     0.6391268   -0.6156263     0.0003854    0.0002311     0.0000530    0.0000584     0.0002783    0.0003389 
   0.040760180     0.6264202   -0.6146833     0.0001714   -0.0001440    -0.0000658   -0.0000536     0.0003388    0.0002210 
   0.040860205     0.6156524   -0.6261546    -0.0000740    0.0000160    -0.0000485    0.0001616     0.0001260    0.0005675 
   0.040960230     0.6170384   -0.6347768     0.0002047    0.0001113     0.0000646    0.0000767     0.0002476    0.0009673 
   0.041060255     0.6103160   -0.6293182     0.0000863    0.0003513     0.0002717    0.0001939    -0.0000054    0.0001478 
   0.041160280     0.6004182   -0.6422296     0.0001497    0.0000457    -0.0000708    0.0001473     0.0000183    0.0002749 
   0.041260305     0.5932623   -0.6510048    -0.0004038    0.0004568    -0.0001078    0.0002256     0.0002328    0.0002785 
   0.041360330     0.5822843   -0.6546127     0.0000531   -0.0000159     0.0000594    0.0000108     0.0003738    0.0005227 
   0.041460355     0.5735323   -0.6540546     0.0000771    0.0002193    -0.0000380   -0.0001374     0.0003303   -0.0001272 
   0.041560380     0.5753006   -0.6614482     0.0002685    0.0002779     0.0001127    0.0000864     0.0003051    0.0001122 
   0.041660405     0.5600529   -0.6682394     0.0002787   -0.0001107    -0.0000301   -0.0000888     0.0007107    0.0002657 
   0.041760430     0.5606584   -0.6755980    -0.0000533   -0.0008898    -0.0000726   -0.0000528     0.0006612    0.0006267 
   0.041860455     0.5541242   -0.6783312    -0.0000443    0.0004454     0.0000548   -0.0000557     0.0005799   -0.0001117 
   0.041960480     0.5381668   -0.6857482    -0.0006546    0.0003301     0.0001217   -0.0001658     0.0002868    0.0002158 
   0.042060505     0.5415148   -0.6841096     0.0000877    0.0003401    -0.0000750    0.0002443    -0.0000467    0.0002774 
   0.042160530     0.5271869   -0.6883516     0.0005538    0.0001278     0.0000446    0.0001736    -0.0002718   -0.0000704 
   0.042260555     0.5217162   -0.6973725     0.0001354    0.0001621     0.0002418    0.0001511     0.0002241    0.0006332 
   0.042360580     0.5188646   -0.7009075     0.0005619   -0.0001146     0.0000504    0.0000992     0.0004630    0.0000317 
   0.042460605     0.5115852   -0.7061628    -0.0003584    0.0004305    -0.0000124    0.0001237    -0.0003792    0.0009132 
   0.042560630     0.4993174   -0.7109447    -0.0000592    0.0001184    -0.0000152   -0.0000324    -0.0000733    0.0004320 
   0.042660655     0.4930735   -0.7092006    -0.0004587    0.0003141     0.0000868    0.0002345     0.0004451    0.0002382 
   0.042760680     0.4893242   -0.7126858    -0.0003840   -0.0000256     0.0001252    0.0001486     0.0001463    0.0004046 
   0.042860705     0.4777679   -0.7186934    -0.0004766    0.0003751     0.0000758   -0.0000073    -0.0000951   -0.0000398 
   0.042960730     0.4662297   -0.7282109    -0.0000907   -0.0000356    -0.0000406   -0.0000186    -0.0001634    0.0005679 
   0.043060755     0.4600214   -0.7258447     0.0002752    0.0003746    -0.0001829   -0.0001032     0.0001274    0.0001794 
   0.043160780     0.4556505   -0.7317442    -0.0003238   -0.0002877     0.0000865   -0.0000564     0.0007256    0.0002544 
   0.043260805     0.4485530   -0.7398567     0.0002389   -0.0000276     0.0000828   -0.0001042     0.0002772    0.0001850 
   0.043360830     0.4399678   -0.7370653    -0.0007964    0.0002408    -0.0001084   -0.0000731     0.0001678    0.0007127 
   0.043460855     0.4261093   -0.7342243     0.0005450    0.0002890     0.0001456    0.0001637     0.0002427   -0.0002258 
   0.043560880     0.4276114   -0.7386886     0.0003091    0.0001679    -0.0001296    0.0000935     0.0000857    0.0002380 
   0.043660905     0.4192359   -0.7502264    -0.0001045   -0.0003476     0.0000516   -0.0000874     0.0004242    0.0007326 
   0.043760930     0.4028977   -0.7511930    -0.0004628   -0.0000592     0.0000726    0.0000795     0.0002492    0.0004170 
   0.043860955     0.3933084   -0.7488089    -0.0008695    0.0006404    -0.0001149    0.0002122    -0.0000146    0.0003384 
   0.043960980     0.3826932   -0.7499182    -0.0000937    0.0001488    -0.0000348    0.0002719     0.0002324    0.0002416 
   0.044061006     0.3845540   -0.7537589    -0.0009077    0.0000790    -0.0001405   -0.0000911     0.0007540    0.0001212 
   0.044161031     0.3677658   -0.7622469     0.0001030    0.0005253    -0.0000043   -0.0003108     0.0001343    0.0004965 
   0.044261056     0.3533071   -0.7683790    -0.0004449    0.0001003    -0.0001130    0.0003414    -0.0004205    0.0002432 
   0.044361081     0.3485415   -0.7536483    -0.0008659   -0.0001300     0.0000122    0.0000413     0.0004264   -0.0001061 
   0.044461106     0.3412227   -0.7640420     0.0002030    0.0008124     0.0000202   -0.0002824     0.0003705    0.0006819 
   0.044561131     0.3347964   -0.7689872    -0.0004253   -0.0003138     0.0001528    0.0000347     0.0006514    0.0002045 
   0.044661156     0.3231185   -0.7707595     0.0007573    0.0003041    -0.0000407   -0.0000170     0.0004564    0.0003979 
   0.044761181     0.3065105   -0.7745243    -0.0003114   -0.0002485    -0.0000464   -0.0000407     0.0003370    0.0001184 
   0.044861206     0.2998381   -0.7757313    -0.0000186   -0.0001306     0.0000581    0.0000370     0.0004225    0.0002781 
   0.044961231     0.2887262   -0.7730939    -0.0006359   -0.0008139     0.0002145    0.0001307     0.0002225    0.0007215 
   0.045061256     0.2752596   -0.7763188     0.0000750    0.0005071     0.0002650   -0.0002135    -0.0001490    0.0006565 
   0.045161281     0.2642625   -0.7727451    -0.0002549   -0.0004188    -0.0001219   -0.0003034     0.0007638    0.0002686 
   0.045261306     0.2589240   -0.7750843     0.0000606   -0.0001093     0.0001929    0.0001567     0.0005216   -0.0002592 
   0.045361331     0.2457854   -0.7806391     0.0002935   -0.0000267     0.0000992    0.0001106     0.0003997   -0.0000506 
   0.045461356     0.2275138   -0.7801381     0.0007642    0.0001502     0.0001852   -0.0000532     0.0004767   -0.0005207 
   0.045561381     0.2281443   -0.7827578    -0.0000801   -0.0005211    -0.0002150    0.0000884    -0.0000562    0.0008012 
   0.045661406     0.2114711   -0.7903460     0.0003824    0.0004049    -0.0001089   -0.0002792     0.0003372    0.0002772 
   0.045761431     0.2007148   -0.7846880     0.0009677   -0.0005607     0.0000821   -0.0001593    -0.0001057    0.0003555 
   0.045861456     0.1972211   -0.7722164     0.0000060   -0.0000183    -0.0000657   -0.0001084    -0.0001134    0.0004504 
   0.045961481     0.1733802   -0.7704493     0.0004082   -0.0000209     0.0000392    0.0000206    -0.0000898    0.0007130 
   0.046061506     0.1650799   -0.7723744    -0.0002967   -0.0002735    -0.0000561    0.0000383     0.0001580    0.0000899 
   0.046161531     0.1546204   -0.7812883    -0.0002249    0.0001434    -0.0000104   -0.0000570    -0.0000124   -0.0002121 
   0.046261556     0.1396079   -0.7795261    -0.0000684   -0.0003395     0.0000748   -0.0000190     0.0003356    0.0001669 
   0.046361581     0.1198543   -0.7714035     0.0010406    0.0002303    -0.0000853    0.0001765     0.0001397    0.0001119 
   0.046461606     0.1075540   -0.7767222    -0.0000795   -0.0004946    -0.0000859    0.0001839     0.0002559    0.0006083 
   0.046561631     0.0931150   -0.7583288     0.0007352   -0.0001327     0.0000712   -0.0000398    -0.0000015    0.0008077 
   0.046661656     0.0843369   -0.7649747     0.0008986   -0.0003037     0.0002105   -0.0000728     0.0000654    0.0005176 
   0.046761681     0.0793029   -0.7621237     0.0004856    0.0005659     0.0001345    0.0001004    -0.0002241    0.0002474 
   0.046861706     0.0635740   -0.7534077    -0.0010279    0.0001149     0.0000955   -0.0000698     0.0000724    0.0002568 
   0.046961731     0.0579147   -0.7492992     0.0002352   -0.0003343     0.0001769    0.0001349     0.0004333    0.0003702 
   0.047061756     0.0414901   -0.7500607     0.0001078    0.0002093    -0.0001477    0.0000934     0.0006784    0.0000517 
   0.047161781     0.0206785   -0.7500998     0.0001937   -0.0003444    -0.0003110   -0.0001657     0.0003181    0.0003253 
   0.047261806     0.0036394   -0.7366140     0.0002859    0.0004518     0.0001622   -0.0000455     0.0001561    0.0002462 
   0.047361831    -0.0052981   -0.7356979     0.0007871    0.0004798     0.0001901    0.0001383     0.0000109    0.0002307 
   0.047461856    -0.0209499   -0.7262204     0.0002760   -0.0004990     0.0001679   -0.0000668     0.0001771    0.0004125 
   0.047561881    -0.0343042   -0.7236319     0.0002630   -0.0003340     0.0001094    0.0000612     0.0003470    0.0000813 
   0.047661906    -0.0535537   -0.7122080     0.0006022    0.0008014    -0.0000439   -0.0000651     0.0003839   -0.0003336 
   0.047761931    -0.0731517   -0.7011548     0.0002352   -0.0000660     0.0001440    0.0001408     0.0004704    0.0002716 
   0.047861956    -0.0867488   -0.6960141     0.0001483    0.0009176     0.0001440   -0.0003594     0.0004719    0.0005477 
   0.047961981    -0.1020413   -0.6868802    -0.0000250   -0.0005059     0.0000835    0.0000478     0.0007034   -0.0001453 
   0.048062006    -0.1150411   -0.6742889    -0.0008208   -0.0005893     0.0000024   -0.0000358    -0.0000759   -0.0000038 
   0.048162031    -0.1288592   -0.6627294     0.0006505   -0.0004858     0.0000572   -0.0001251    -0.0001516    0.0006446 
   0.048262056    -0.1489951   -0.6465704    -0.0001962   -0.0004741     0.0001391   -0.0000330     0.0003471    0.0001200 
   0.048362081    -0.1668729   -0.6431081    -0.0001501    0.0005395    -0.0003578   -0.0000161     0.0008258   -0.0001210 
   0.048462106    -0.1666762   -0.6356406    -0.0000327   -0.0004692     0.0000743    0.0002628     0.0002539   -0.0001279 
   0.048562131    -0.2007872   -0.6141760    -0.0007750   -0.0003082     0.0000883    0.0000317    -0.0001300    0.0003206 
   0.048662156    -0.2123269   -0.5979354     0.0004776    0.0013463    -0.0001198    0.0000265     0.0003365    0.0002240 
   0.048762181    -0.2312354   -0.5823592    -0.0000751    0.0009090     0.0000547   -0.0000741     0.0003619    0.0005978 
   0.048862206    -0.2423603   -0.5721899     0.0002002    0.0003625     0.0001847    0.0000561     0.0003397    0.0001821 
   0.048962231    -0.2574987   -0.5458423    -0.0002809   -0.0000155    -0.0001246    0.0001901    -0.0004191    0.0001412 
   0.049062256    -0.2764252   -0.5218229    -0.0003978    0.0001760     0.0003441   -0.0002318     0.0001050    0.0000396 
   0.049162281    -0.2758926   -0.4987415    -0.0006649   -0.0005684     0.0000433    0.0000025    -0.0003287    0.0007275 
   0.049262306    -0.2993799   -0.4803965     0.0002594   -0.0002166     0.0001966   -0.0001754     0.0000072    0.0002025 
   0.049362331    -0.3042326   -0.4594741    -0.0003057    0.0000049     0.0001552   -0.0001859     0.0006106    0.0002038 
   0.049462356    -0.3186405   -0.4281387     0.0006413   -0.0009909    -0.0001379    0.0002062     0.0003609    0.0002323 
   0.049562381    -0.3289340   -0.4041318     0.0000473   -0.0000167     0.0001182    0.0002509     0.0001007    0.0002054 
   0.049662406    -0.3387650   -0.3777006     0.0000638   -0.0001038     0.0000277    0.0003298     0.0004938    0.0003891 
   0.049762431    -0.3483458   -0.3497433     0.0001964   -0.0002536     0.0001021    0.0002729     0.0003132    0.0006833 
   0.049862456    -0.3570146   -0.3161021    -0.0004609   -0.0002598    -0.0002304   -0.0000772     0.0001960   -0.0000478 
   0.049962481    -0.3591450   -0.2848403    -0.0000269   -0.0001848     0.0001542    0.0002123     0.0002053   -0.0001285 
   0.050062506    -0.3660038   -0.2543333    -0.0008924    0.0009322    -0.0000164    0.0001244     0.0002530    0.0002896 
   0.050162531    -0.3618977   -0.2214354     0.0002554   -0.0000464    -0.0001835    0.0000753     0.0002861    0.0005148 
   0.050262556    -0.3660348   -0.1850627     0.0001157   -0.0005597     0.0001944   -0.0001596     0.0002854    0.0007277 
   0.050362581    -0.3656429   -0.1460276    -0.0002573    0.0001709    -0.0003004   -0.0001907     0.0003265    0.0003898 
   0.050462606    -0.3570496   -0.1098396    -0.0005149    0.0004534    -0.0001369   -0.0000907     0.0007025    0.0005614 
   0.050562631    -0.3446582   -0.0790203    -0.0000943    0.0007910     0.0001760    0.0000518    -0.0000025    0.0003569 
   0.050662656    -0.3403487   -0.0374288    -0.0001680    0.0002748    -0.0000713    0.0003064     0.0002102   -0.0000325 
   0.050762681    -0.3250012   -0.0059698    -0.0005504   -0.0007169    -0.0002723   -0.0000962     0.0003829    0.0002970 
   0.050862706    -0.3092682    0.0305804    -0.0003015   -0.0000426    -0.0002124   -0.0000014     0.0003911    0.0006301 
   0.050962731    -0.2889909    0.0672374     0.0005757   -0.0012578     0.0002692    0.0000226     0.0004981    0.0007278 
   0.051062756    -0.2711640    0.1023272     0.0005036    0.0002634    -0.0000701    0.0000949     0.0000988    0.0003523 
   0.051162781    -0.2463783    0.1361851     0.0000250   -0.0000162     0.0000748    0.0000287     0.0004138    0.0002415 
   0.051262806    -0.2219247    0.1663450    -0.0002590   -0.0001387    -0.0002993    0.0002244    -0.0002812   -0.0000824 
   0.051362831    -0.1877782    0.1943158     0.0001199    0.0002092    -0.0000077   -0.0000140     0.0002351    0.0000941 
   0.051462856    -0.1600143    0.2228662    -0.0002630   -0.0000502     0.0000044   -0.0000874     0.0006587    0.0009297 
   0.051562881    -0.1269448    0.2493818    -0.0005283   -0.0004308     0.0000214    0.0002839     0.0004429    0.0000410 
   0.051662906    -0.0892672    0.2722027     0.0005614    0.0002958     0.0000624   -0.0001355    -0.0001000   -0.0000519 
   0.051762931    -0.0538547    0.2893629     0.0000299   -0.0001840     0.0000403    0.0001121     0.0001062   -0.0002967 
   0.051862956    -0.0145577    0.3081583    -0.0003786   -0.0003621     0.0000973    0.0001661     0.0004960    0.0001411 
   0.051962981     0.0261705    0.3237189    -0.0003643    0.0003837    -0.0001663   -0.0000258     0.0005684   -0.0003670 
   0.052063007     0.0644855    0.3337791    -0.0001196    0.0001942     0.0001737   -0.0000505     0.0000894    0.0000017 
   0.052163032     0.1038142    0.3419936    -0.0002320   -0.0005250    -0.0002034    0.0001193     0.0004204    0.0002972 
   0.052263057     0.1481598    0.3464200    -0.0006324    0.0003730     0.0000532   -0.0000633     0.0002168    0.0000995 
   0.052363082     0.1884513    0.3508474    -0.0001172    0.0003077     0.0000786    0.0000871     0.0001487    0.0001744 
   0.052463107     0.2281695    0.3460837    -0.0002804   -0.0002736    -0.0001033    0.0001080     0.0005546    0.0000811 
   0.052563132     0.2635217    0.3442557     0.0001595    0.0002756    -0.0001022   -0.0000659     0.0003898    0.0001448 
   0.052663157     0.3058705    0.3376867     0.0001165   -0.0000154    -0.0000282    0.0001029    -0.0000120   -0.0000991 
   0.052763182     0.3411904    0.3257540    -0.0002533   -0.0001261    -0.0000584   -0.0000012     0.0002506   -0.0002245 
   0.052863207     0.3785498    0.3151395     0.0003017    0.0001544    -0.0001375   -0.0000772     0.0005901    0.0005152 
   0.052963232     0.4081377    0.3007454     0.0000489   -0.0004225     0.0000666    0.0001579     0.0003246    0.0001928 
   0.053063257     0.4442814    0.2882881    -0.0004458   -0.0000942    -0.0001103    0.0000898     0.0000316    0.0003844 
   0.053163282     0.4734260    0.2723951     0.0003118    0.0001145     0.0001458    0.0001439    -0.0001284    0.0002549 
   0.053263307     0.5042467    0.2517116     0.0002236    0.0001109     0.0000428   -0.0000876     0.0004466   -0.0000191 
   0.053363332     0.5299234    0.2314572     0.0004686    0.0000669    -0.0000448    0.0001015    -0.0000242    0.0000604 
   0.053463357     0.5542976    0.2149556     0.0001198   -0.0000423     0.0002149    0.0000122     0.0000502   -0.0001064 
   0.053563382     0.5783447    0.1919603     0.0003004   -0.0003311    -0.0001188    0.0000309    -0.0001568   -0.0000830 
   0.053663407     0.5965863    0.1743866     0.0001227    0.0001134     0.0000200   -0.0000776     0.0003811    0.0001658 
   0.053763432     0.6171377    0.1476204    -0.0004601   -0.0000061     0.0001595   -0.0000162     0.0004675    0.0004058 
   0.053863457     0.6356316    0.1218234    -0.0002314    0.0003554    -0.0000038   -0.0000054    -0.0001681   -0.0001575 
   0.053963482     0.6486539    0.1002715     0.0003765   -0.0000050     0.0000244    0.0001276     0.0002610    0.0003843 
   0.054063507     0.6662393    0.0758975    -0.0001959    0.0000553     0.0000442   -0.0000309     0.0003222    0.0001758 
   0.054163532     0.6795885    0.0560245    -0.0000646   -0.0002220    -0.0000525   -0.0000053     0.0002712    0.0003095 
   0.054263557     0.6937604    0.0302050    -0.0004670   -0.0001621    -0.0001106   -0.0001445     0.0001943    0.0001683 
   0.054363582     0.7005342    0.0082910     0.0002529    0.0000849    -0.0001270   -0.0000272    -0.0001242    0.0000575 
   0.054463607     0.7104689   -0.0149081     0.0000838   -0.0005017     0.0001049   -0.0000628     0.0002130   -0.0001127 
   0.054563632     0.7175053   -0.0376677     0.0002069   -0.0001527     0.0000657    0.0001165     0.0001685    0.0001432 
   0.054663657     0.7266369   -0.0597080    -0.0001134    0.0005377     0.0000449    0.0000525     0.0002234   -0.0001814 
   0.054763682     0.7324898   -0.0874764     0.0000136   -0.0002350     0.0000541   -0.0000451     0.0003582   -0.0001085 
   0.054863707     0.7351098   -0.1054049    -0.0005310    0.0000348     0.0003695   -0.0000396     0.0009783    0.0000867 
   0.054963732     0.7429057   -0.1260853     0.0001641    0.0001035    -0.0000307   -0.0000242     0.0002359    0.0000496 
   0.055063757     0.7395741   -0.1422398     0.0003433    0.0002369     0.0001060   -0.0001286     0.0001622    0.0004761 
   0.055163782     0.7444546   -0.1627059     0.0003465    0.0002505    -0.0000345    0.0001157     0.0001965   -0.0001664 
   0.055263807     0.7437891   -0.1802021    -0.0005019    0.0000928    -0.0000886    0.0000176     0.0005546    0.0001117 
   0.055363832     0.7394080   -0.2027830    -0.0006697   -0.0003642     0.0002141   -0.0000473     0.0001851    0.0001894 
   0.055463857     0.7407608   -0.2244796    -0.0002096    0.0003045    -0.0001123    0.0000434     0.0005980    0.0002176 
   0.055563882     0.7385518   -0.2402031     0.0000897   -0.0000447    -0.0000332    0.0001257     0.0007606    0.0005704 
   0.055663907     0.7345691   -0.2612016    -0.0001267   -0.0002291     0.0000549   -0.0001101     0.0005465    0.0005215 
   0.055763932     0.7385894   -0.2738127     0.0002283   -0.0002148     0.0000583    0.0002155     0.0000262   -0.0000833 
   0.055863957     0.7350810   -0.2996549     0.0006094    0.0006984     0.0001395    0.0000567     0.0005998   -0.0000500 
   0.055963982     0.7278239   -0.3077704     0.0001554    0.0002675     0.0001543    0.0001129    -0.0001149    0.0001148 
   0.056064007     0.7295481   -0.3249633     0.0006099    0.0001201     0.0000603   -0.0000595     0.0001428    0.0005683 
   0.056164032     0.7224798   -0.3398767    -0.0008574   -0.0000256     0.0000418   -0.0002154     0.0005390    0.0003039 
   0.056264057     0.7210633   -0.3582156     0.0004331    0.0004348     0.0001656    0.0002319    -0.0000751    0.0003928 
   0.056364082     0.7212470   -0.3748340     0.0000610    0.0007070    -0.0000460    0.0001581     0.0003863   -0.0005948 
   0.056464107     0.7135436   -0.3929782     0.0000412   -0.0007995    -0.0000845    0.0001666    -0.0002486    0.0000008 
   0.056564132     0.7022166   -0.3948337    -0.0005589   -0.0001402    -0.0002535   -0.0001737     0.0007105   -0.0000312 
   0.056664157     0.6941192   -0.4128742     0.0000161    0.0000448     0.0000006    0.0001311    -0.0002484    0.0005258 
   0.056764182     0.6972001   -0.4319208    -0.0000980    0.0008732    -0.0001033   -0.0000411     0.0002169    0.0003295 
   0.056864207     0.6841249   -0.4396420     0.0003982   -0.0000253    -0.0001207   -0.0000292    -0.0000648    0.0000867 
   0.056964232     0.6892232   -0.4537159     0.0007149    0.0002359    -0.0000523   -0.0001212    -0.0002011   -0.0002481 
   0.057064257     0.6754628   -0.4612848     0.0010646    0.0007682     0.0000689    0.0003476     0.0004811   -0.0001964 
   0.057164282     0.6730786   -0.4809659    -0.0004050    0.0000456    -0.0000461   -0.0000910    -0.0000055   -0.0000049 
   0.057264307     0.6613032   -0.4835066     0.0002092   -0.0002880     0.0003076    0.0000436     0.0003927   -0.0000347 
   0.057364332     0.6580348   -0.4924534    -0.0001107    0.0002619    -0.0000242   -0.0001871    -0.0001625    0.0002013 
   0.057464357     0.6552586   -0.5103273     0.0003521   -0.0003687    -0.0002246    0.0002734     0.0004286    0.0001864 
   0.057564382     0.6380148   -0.5177974     0.0006047    0.0000492     0.0000343    0.0000070     0.0004013   -0.0002648 
   0.057664407     0.6348905   -0.5236635     0.0000974   -0.0004071    -0.0001715    0.0001189     0.0004564    0.0002368 
   0.057764432     0.6262110   -0.5411665     0.0003291   -0.0001538     0.0000984    0.0001231     0.0005681    0.0001889 
   0.057864457     0.6273062   -0.5397764     0.0001158   -0.0000092    -0.0000009    0.0003204    -0.0000327    0.0000286 
   0.057964482     0.6072016   -0.5547034    -0.0009824   -0.0000528     0.0000375   -0.0001543    -0.0003678   -0.0001875 
   0.058064507     0.6077665   -0.5705795     0.0008477   -0.0002927     0.0000541    0.0001297     0.0007244    0.0000617 
   0.058164532     0.5894167   -0.5719295     0.0006307   -0.0004116     0.0001736    0.0001275     0.0001234    0.0000267 
   0.058264557     0.5897978   -0.5822192     0.0002709   -0.0002042    -0.0000103   -0.0000162     0.0000362    0.0000580 
   0.058364582     0.5802264   -0.5798697    -0.0008209    0.0001004    -0.0001059   -0.0003284     0.0004239   -0.0000257 
   0.058464607     0.5729072   -0.6075612     0.0000747    0.0002676    -0.0001800    0.0002194     0.0002087    0.0000005 
   0.058564632     0.5676479   -0.6082522     0.0003836    0.0004194    -0.0001888   -0.0002124     0.0008142    0.0000803 
   0.058664657     0.5540890   -0.6203907    -0.0004324   -0.0000168    -0.0000672    0.0002153     0.0000311    0.0000315 
   0.058764682     0.5490496   -0.6206895    -0.0001882    0.0004978    -0.0000138   -0.0001207    -0.0002164    0.0005993 
   0.058864707     0.5419799   -0.6382374    -0.0003051    0.0000066     0.0001154   -0.0000376     0.0004568    0.0005481 
   0.058964732     0.5326161   -0.6310784    -0.0000832    0.0001632    -0.0002707   -0.0002285     0.0005628    0.0000702 
   0.059064757     0.5262101   -0.6431252     0.0000688    0.0009189     0.0000170    0.0000207     0.0004010   -0.0000464 
   0.059164782     0.5198725   -0.6511927     0.0000096   -0.0004061    -0.0001164    0.0000041    -0.0000960    0.0004207 
   0.059264807     0.5031283   -0.6594766     0.0001602    0.0006512     0.0002966   -0.0003747     0.0003016   -0.0004056 
   0.059364832     0.4939123   -0.6599243     0.0000548   -0.0005505    -0.0000086   -0.0001538     0.0005306    0.0002030 
   0.059464857     0.4977061   -0.6580830     0.0013639   -0.0005158    -0.0001995    0.0003240     0.0001220   -0.0000603 
   0.059564882     0.4796003   -0.6696925    -0.0004936    0.0006826    -0.0001869    0.0003043     0.0005174    0.0000838 
   0.059664907     0.4760245   -0.6812139     0.0000904    0.0004205     0.0000655    0.0000581    -0.0004033    0.0002074 
   0.059764932     0.4575904   -0.6802372    -0.0001039   -0.0005383     0.0000199    0.0003456     0.0001198   -0.0001064 
   0.059864957     0.4579854   -0.6773762    -0.0006427    0.0009998    -0.0000041   -0.0002225     0.0000957   -0.0001437 
   0.059964982     0.4500128   -0.6988949    -0.0002544    0.0003073     0.0004644   -0.0001049     0.0004203   -0.0000946 
   0.060065008     0.4353637   -0.7061316     0.0000755   -0.0001530     0.0001736   -0.0000581     0.0002879   -0.0003314 
   0.060165033     0.4236552   -0.7039586     0.0007344    0.0001387     0.0000100   -0.0001031     0.0006202    0.0002267 
   0.060265058     0.4255767   -0.7075029    -0.0006383    0.0000217    -0.0000616   -0.0001772    -0.0000396    0.0002827 
   0.060365083     0.3971138   -0.7081044     0.0001571   -0.0004331     0.0001895   -0.0002268     0.0004239    0.0002244 
   0.060465108     0.4099413   -0.7116205    -0.0001752    0.0006802    -0.0000588    0.0000382     0.0004612   -0.0000099 
   0.060565133     0.3838960   -0.7189060     0.0006794    0.0002919    -0.0001230   -0.0000090    -0.0001067   -0.0002463 
   0.060665158     0.3812400   -0.7216136     0.0009019    0.0000158     0.0000518    0.0002137     0.0003000   -0.0003435 
   0.060765183     0.3722340   -0.7235553    -0.0005991    0.0008886     0.0001290   -0.0002306     0.0003323   -0.0000668 
   0.060865208     0.3711821   -0.7316685    -0.0005463   -0.0005093    -0.0000676   -0.0003364     0.0005623   -0.0002150 
   0.060965233     0.3513801   -0.7296540    -0.0003135    0.0001508    -0.0000067   -0.0000578     0.0003233   -0.0005432 
   0.061065258     0.3438616   -0.7340957     0.0004062   -0.0001171     0.0000658   -0.0000154     0.0005537    0.0003734 
   0.061165283     0.3290353   -0.7291253     0.0004604    0.0003427     0.0000074   -0.0000696     0.0002849    0.0004669 
   0.061265308     0.3127138   -0.7392329    -0.0001166   -0.0003643    -0.0002921    0.0002355     0.0003264    0.0001165 
   0.061365333     0.3175994   -0.7392662    -0.0004352    0.0010580     0.0002044    0.0001584     0.0005395    0.0000033 
   0.061465358     0.2972778   -0.7419846    -0.0000968   -0.0001469    -0.0000295   -0.0004192     0.0002577    0.0001789 
   0.061565383     0.2908589   -0.7458131    -0.0008444   -0.0000358    -0.0003343    0.0001625     0.0003867    0.0002115 
   0.061665408     0.2781702   -0.7460116     0.0003085    0.0004377     0.0001944   -0.0002514     0.0001705    0.0001211 
   0.061765433     0.2687478   -0.7522924     0.0008275   -0.0005881    -0.0000637   -0.0001144    -0.0001157    0.0003043 
   0.061865458     0.2664564   -0.7458224     0.0002985   -0.0004639    -0.0000028   -0.0003709     0.0002512    0.0002724 
   0.061965483     0.2520624   -0.7513933    -0.0010172   -0.0005618    -0.0000336   -0.0000481     0.0003526   -0.0000978 
   0.062065508     0.2447442   -0.7566507    -0.0004389   -0.0001813    -0.0001062   -0.0001166     0.0006891   -0.0000125 
   0.062165533     0.2290245   -0.7484071    -0.0009146   -0.0002839    -0.0002109   -0.0000868    -0.0000159    0.0003395 
   0.062265558     0.2176304   -0.7597436    -0.0002286    0.0007570    -0.0000600   -0.0001828     0.0000438   -0.0004124 
   0.062365583     0.2110144   -0.7583545     0.0000388   -0.0002648     0.0000873   -0.0000942     0.0002359   -0.0002489 
   0.062465608     0.1972796   -0.7590589    -0.0006219   -0.0003102    -0.0000037   -0.0001176     0.0003023   -0.0001363 
   0.062565633     0.1806595   -0.7576092    -0.0003695   -0.0001455    -0.0000084    0.0002649     0.0002690   -0.0001295 
   0.062665658     0.1861921   -0.7526965    -0.0003907    0.0006521    -0.0001586   -0.0004326    -0.0001901    0.0001056 
   0.062765683     0.1644077   -0.7615088     0.0008297    0.0002774    -0.0001307    0.0000914    -0.0002350   -0.0001234 
   0.062865708     0.1580991   -0.7633256     0.0005171   -0.0011492     0.0001808    0.0001973     0.0001959   -0.0004025 
   0.062965733     0.1458302   -0.7707534    -0.0002966    0.0003965    -0.0001201   -0.0002059     0.0008704   -0.0000447 
   0.063065758     0.1313795   -0.7661331    -0.0001951   -0.0004977     0.0000072   -0.0000811     0.0007953    0.0002147 
   0.063165783     0.1354633   -0.7545202     0.0005898    0.0000461     0.0000714    0.0002249     0.0002123    0.0003156 
   0.063265808     0.1167602   -0.7629097     0.0001882   -0.0008881     0.0003575    0.0002397     0.0003444    0.0004478 
   0.063365833     0.1058736   -0.7537304    -0.0006648    0.0005937    -0.0001096   -0.0001244     0.0002183    0.0000846 
   0.063465858     0.0837180   -0.7549355     0.0001603   -0.0006370    -0.0000373   -0.0000813     0.0001128    0.0003920 
   0.063565883     0.0769552   -0.7542593    -0.0000811    0.0003869     0.0000698    0.0001253    -0.0001748    0.0003922 
   0.063665908     0.0714456   -0.7481799    -0.0010748   -0.0003534     0.0004519   -0.0001635     0.0002556    0.0002883 
   0.063765933     0.0590513   -0.7439575     0.0000134    0.0002247    -0.0001191   -0.0000778     0.0002362    0.0002494 
   0.063865958     0.0482045   -0.7454947     0.0004303    0.0001122    -0.0000898   -0.0004199     0.0003751    0.0000479 
   0.063965983     0.0364004   -0.7391191    -0.0000660    0.0003398     0.0002064    0.0000009     0.0000774    0.0001707 
   0.064066008     0.0205802   -0.7269498    -0.0005628    0.0000461    -0.0001653    0.0000987     0.0005938   -0.0000505 
   0.064166033     0.0038510   -0.7321650    -0.0003620    0.0004286    -0.0000492   -0.0000382     0.0003998    0.0001691 
   0.064266058    -0.0041378   -0.7317959    -0.0003467    0.0003837    -0.0002839   -0.0000781     0.0000334    0.0004481 
   0.064366083    -0.0159588   -0.7314466     0.0009921    0.0003654     0.0000673   -0.0001546     0.0008749   -0.0003562 
   0.064466108    -0.0232342   -0.7294883     0.0005170   -0.0001588    -0.0000106   -0.0002019     0.0002717    0.0003529 
   0.064566133    -0.0382947   -0.7207169     0.0002449   -0.0008951     0.0003378    0.0003022     0.0006468    0.0004717 
   0.064666158    -0.0527350   -0.7108030    -0.0000348   -0.0001486    -0.0001716    0.0001043     0.0006658    0.0001697 
   0.064766183    -0.0603510   -0.7149647    -0.0004361   -0.0004274     0.0005585    0.0000008     0.0003605    0.0000206 
   0.064866208    -0.0743004   -0.7024417     0.0003920    0.0001194    -0.0000293   -0.0000122     0.0004966    0.0001716 
   0.064966233    -0.0998568   -0.6970174    -0.0002846    0.0004430     0.0001515    0.0001429     0.0004684    0.0002728 
   0.065066258    -0.0951515   -0.6966934     0.0007170   -0.0002381    -0.0000053    0.0000695     0.0003626   -0.0005468 
   0.065166283    -0.1158011   -0.6826390     0.0003638   -0.0000008     0.0002155    0.0001100     0.0000884   -0.0001881 
   0.065266308    -0.1304439   -0.6762679     0.0005214   -0.0001637    -0.0002527   -0.0000257     0.0003217   -0.0000072 
   0.065366333    -0.1401446   -0.6696362    -0.0003985    0.0000136     0.0001376    0.0000894     0.0006300   -0.0000043 
   0.065466358    -0.1482075   -0.6603797    -0.0006563   -0.0000586     0.0000378   -0.0001368     0.0002250    0.0003048 
   0.065566383    -0.1687731   -0.6499915    -0.0000020   -0.0000074     0.0004553   -0.0000570     0.0000542   -0.0000766 
   0.065666408    -0.1753540   -0.6439495     0.0005073    0.0001973     0.0000668   -0.0001406     0.0002933   -0.0001813 
   0.065766433    -0.1829903   -0.6335208    -0.0005379    0.0001706    -0.0001212    0.0002611     0.0005644   -0.0001833 
   0.065866458    -0.1967121   -0.6237462     0.0011445    0.0003601     0.0003154    0.0001493     0.0003123    0.0000721 
   0.065966483    -0.2084873   -0.6096476     0.0011817    0.0004948    -0.0000113   -0.0000988     0.0004137   -0.0002145 
   0.066066508    -0.2262892   -0.5974029     0.0006560    0.0001708    -0.0002083   -0.0000561     0.0000640    0.0002409 
   0.066166533    -0.2339884   -0.5937629     0.0003621    0.0008879     0.0001293    0.0001814     0.0002524   -0.0002595 
   0.066266558    -0.2440667   -0.5778907     0.0001534   -0.0008205     0.0001412    0.0000236     0.0005707   -0.0006593 
   0.066366583    -0.2503514   -0.5655802    -0.0002761    0.0010667     0.0000701   -0.0001424     0.0003768    0.0002203 
   0.066466608    -0.2686065   -0.5527052    -0.0001253    0.0005256     0.0002799   -0.0002198     0.0004825   -0.0000761 
   0.066566633    -0.2825250   -0.5292789    -0.0004907   -0.0002899    -0.0000749   -0.0000093     0.0003626   -0.0001038 
   0.066666658    -0.2928995   -0.5249454    -0.0007154   -0.0004195    -0.0000770   -0.0000204     0.0004797   -0.0001442 
   0.066766683    -0.3054980   -0.5055877     0.0001641    0.0001773    -0.0000318   -0.0000168     0.0002144   -0.0000264 
   0.066866708    -0.3122218   -0.4961905    -0.0001202   -0.0003397    -0.0001646    0.0000788    -0.0001893    0.0001446 
   0.066966733    -0.3218310   -0.4724005     0.0001331   -0.0000330     0.0001223    0.0000319     0.0009348    0.0001495 
   0.067066758    -0.3320611   -0.4587149     0.0010605   -0.0003437    -0.0000428    0.0002053     0.0004640    0.0000846 
   0.067166783    -0.3397485   -0.4386461     0.0003422   -0.0008423    -0.0001914    0.0003387     0.0000855    0.0000089 
   0.067266808    -0.3516625   -0.4192947     0.0000333    0.0000663     0.0001551   -0.0001511     0.0000155   -0.0001322 
   0.067366833    -0.3574746   -0.4007818     0.0005844    0.0004706    -0.0000654   -0.0000007     0.0005452    0.0001499 
   0.067466858    -0.3674819   -0.3817889    -0.0001222   -0.0006976    -0.0000653    0.0000430     0.0005206   -0.0007724 
   0.067566883    -0.3753570   -0.3568184    -0.0000188   -0.0002334     0.0001677    0.0000914     0.0003697   -0.0001294 
   0.067666908    -0.3750612   -0.3411743     0.0002516   -0.0003721    -0.0001987    0.0000314    -0.0000571   -0.0002784 
   0.067766933    -0.3777539   -0.3124633    -0.0005665    0.0002718     0.0001643    0.0002390     0.0009149   -0.0003666 
   0.067866958    -0.3866914   -0.2977958     0.0000763    0.0003900    -0.0000548   -0.0000481     0.0008311    0.0003994 
   0.067966983    -0.3891871   -0.2721186     0.0001971   -0.0001578    -0.0001519   -0.0001370     0.0004237    0.0001919 
   0.068067009    -0.3903146   -0.2468065    -0.0002110    0.0002955    -0.0000296    0.0000122     0.0000007   -0.0002534 
   0.068167034    -0.3949362   -0.2216414     0.0004104    0.0002360    -0.0000988   -0.0000123     0.0003677   -0.0002039 
   0.068267059    -0.3936006   -0.1979725     0.0005246    0.0000197     0.0001309    0.0002424     0.0007069   -0.0000051 
   0.068367084    -0.3965774   -0.1735488    -0.0002442   -0.0000529     0.0000797   -0.0000042     0.0004799    0.0000414 
   0.068467109    -0.3887243   -0.1463104     0.0004351    0.0001237    -0.0001805   -0.0000363     0.0002902    0.0000252 
   0.068567134    -0.3854790   -0.1204477     0.0000097   -0.0000230     0.0001093    0.0002352     0.0007049    0.0002849 
   0.068667159    -0.3833929   -0.0924977    -0.0002913   -0.0000632     0.0000897    0.0001370     0.0005192   -0.0003896 
   0.068767184    -0.3769525   -0.0693118    -0.0002797    0.0003219    -0.0000019    0.0000328     0.0006911   -0.0001081 
   0.068867209    -0.3708322   -0.0407132     0.0000756   -0.0005235    -0.0001491   -0.0001416     0.0003255    0.0001250 
   0.068967234    -0.3611822   -0.0123763    -0.0004332    0.0000387     0.0001178   -0.0002540     0.0000029    0.0001999 
   0.069067259    -0.3478818    0.0141907     0.0001872   -0.0002309     0.0002191    0.0001705     0.0003230   -0.0001552 
   0.069167284    -0.3380924    0.0410456     0.0000184   -0.0000285    -0.0000356   -0.0001041    -0.0000253    0.0000244 
   0.069267309    -0.3224082    0.0665072     0.0002863    0.0003572    -0.0000303   -0.0001813     0.0006379   -0.0000869 
   0.069367334    -0.3063734    0.0920250    -0.0001477   -0.0001265    -0.0000374   -0.0000102     0.0006235    0.0001450 
   0.069467359    -0.2891950    0.1178568    -0.0001240    0.0002175    -0.0000148    0.0002735     0.0006151   -0.0001276 
   0.069567384    -0.2740081    0.1409917    -0.0002600    0.0001314    -0.0000354   -0.0000878     0.0002232   -0.0001946 
   0.069667409    -0.2502744    0.1662780    -0.0002715   -0.0000116     0.0001216   -0.0000892     0.0003983   -0.0001925 
   0.069767434    -0.2332985    0.1895743    -0.0000930   -0.0001178     0.0001782    0.0001702     0.0005773    0.0004246 
   0.069867459    -0.2077030    0.2094086     0.0000429   -0.0002827    -0.0001156    0.0001512    -0.0001444   -0.0000723 
   0.069967484    -0.1824309    0.2325915    -0.0001792    0.0000621     0.0000413    0.0000801     0.0009916   -0.0000624 
   0.070067509    -0.1575563    0.2486744    -0.0002860    0.0003929    -0.0000482    0.0000263     0.0003640   -0.0002792 
   0.070167534    -0.1306823    0.2666898    -0.0001078    0.0003298    -0.0000281   -0.0000501     0.0000870    0.0004333 
   0.070267559    -0.1009111    0.2839128     0.0000842    0.0002567     0.0001742    0.0000278     0.0005465    0.0001137 
   0.070367584    -0.0715821    0.2965290    -0.0000671   -0.0002349    -0.0000738   -0.0000964     0.0001539    0.0000102 
   0.070467609    -0.0413188    0.3097054    -0.0000504   -0.0002703     0.0000099   -0.0000542     0.0003760    0.0002769 
   0.070567634    -0.0113539    0.3202505    -0.0003078    0.0000365     0.0000624    0.0001430     0.0005098    0.0000833 
   0.070667659     0.0212827    0.3289381     0.0000219   -0.0001238    -0.0001669    0.0000052     0.0002918    0.0000696 
   0.070767684     0.0538126    0.3371559     0.0006612   -0.0002395    -0.0000787    0.0002261     0.0004251   -0.0002229 
   0.070867709     0.0864186    0.3406689     0.0002576    0.0001662    -0.0001427    0.0000227     0.0003517    0.0004665 
   0.070967734     0.1178925    0.3433936     0.0000248    0.0000586     0.0000597   -0.0000713     0.0006014   -0.0000653 
   0.071067759     0.1509103    0.3477203    -0.0001223   -0.0001340     0.0001204   -0.0000424     0.0003119    0.0000754 
   0.071167784     0.1843965    0.3431853     0.0005798    0.0002599    -0.0001497   -0.0001381     0.0005977    0.0004749 
   0.071267809     0.2154227    0.3411503    -0.0002338    0.0003717    -0.0001411   -0.0001722     0.0005423    0.0002231 
   0.071367834     0.2480495    0.3357995    -0.0002187    0.0003052    -0.0001343   -0.0000727     0.0009094    0.0000687 
   0.071467859     0.2783470    0.3277115    -0.0001022   -0.0001569     0.0000674   -0.0000420     0.0002251    0.0003236 
   0.071567884     0.3096876    0.3198911    -0.0000387   -0.0001799     0.0000121    0.0000619     0.0006011   -0.0000833 
   0.071667909     0.3362786    0.3107417    -0.0001807   -0.0003647     0.0002008    0.0000292     0.0004376    0.0002845 
   0.071767934     0.3644170    0.2975234     0.0001238   -0.0000027    -0.0000641    0.0000105     0.0002671   -0.0002130 
   0.071867959     0.3919441    0.2840594     0.0002870    0.0001618     0.0000299    0.0000037     0.0003404   -0.0002367 
   0.071967984     0.4186416    0.2733681    -0.0000809    0.0000238     0.0001087   -0.0001969     0.0000303    0.0003922 
   0.072068009     0.4412957    0.2586727     0.0004350   -0.0001854     0.0002912    0.0001086     0.0004789    0.0001373 
   0.072168034     0.4696680    0.2384160     0.0001498    0.0000465     0.0002480    0.0000097     0.0006602    0.0001727 
   0.072268059     0.4881200    0.2234812     0.0000844   -0.0005341     0.0001586   -0.0004019     0.0002133    0.0002061 
   0.072368084     0.5116551    0.2066545     0.0004563    0.0001096    -0.0000497   -0.0002107     0.0004552   -0.0004538 
   0.072468109     0.5282583    0.1824845     0.0004601    0.0002593     0.0001641   -0.0002895     0.0008497   -0.0003345 
   0.072568134     0.5500614    0.1644949     0.0000520    0.0003984     0.0001702    0.0004364     0.0005482    0.0001694 
   0.072668159     0.5639304    0.1495230     0.0000019    0.0001171    -0.0000848   -0.0002735     0.0005893    0.0000947 
   0.072768184     0.5847150    0.1246674    -0.0000882   -0.0000188    -0.0000929    0.0000499    -0.0000802   -0.0003749 
   0.072868209     0.6020975    0.1002695    -0.0005448   -0.0000463     0.0002532   -0.0002432     0.0000609   -0.0002200 
   0.072968234     0.6119177    0.0855865    -0.0001781    0.0001031     0.0000889   -0.0001271     0.0007468   -0.0001138 
   0.073068259     0.6191551    0.0590182     0.0008328   -0.0001689    -0.0000191    0.0000229     0.0006564   -0.0003633 
   0.073168284     0.6380181    0.0415474    -0.0003662   -0.0001862    -0.0001219   -0.0004126     0.0000932    0.0001676 
   0.073268309     0.6443836    0.0213327    -0.0000461    0.0000345    -0.0000279    0.0000554     0.0005960    0.0004717 
   0.073368334     0.6543384   -0.0035210     0.0001701   -0.0002084    -0.0000421   -0.0000362     0.0008673    0.0000924 
   0.073468359     0.6601809   -0.0230077    -0.0001080   -0.0002804    -0.0002104    0.0000497     0.0006790   -0.0003199 
   0.073568384     0.6598175   -0.0450794    -0.0005319    0.0006886     0.0000725   -0.0002418     0.0000060    0.0000412 
   0.073668409     0.6714141   -0.0649567     0.0000836   -0.0001959    -0.0002242    0.0000888     0.0006036    0.0004396 
   0.073768434     0.6857927   -0.0881296    -0.0002777    0.0003331     0.0000244    0.0002858     0.0006234    0.0002818 
   0.073868459     0.6785629   -0.1049840     0.0011415   -0.0001596     0.0000679   -0.0001181     0.0001889    0.0001496 
   0.073968484     0.6855408   -0.1312808     0.0005737   -0.0000946     0.0000603    0.0000842     0.0005822    0.0000996 
   0.074068509     0.6832527   -0.1532260    -0.0007893   -0.0001197     0.0000937   -0.0000876    -0.0001451    0.0000046 
   0.074168534     0.6808676   -0.1625695    -0.0001136    0.0006428     0.0000873   -0.0000280     0.0005213    0.0001283 
   0.074268559     0.6922279   -0.1916232     0.0004513    0.0004528     0.0001279   -0.0000823     0.0000001    0.0000003 
   0.074368584     0.6879085   -0.2054511     0.0002972   -0.0003822     0.0000162    0.0003011     0.0002888    0.0000890 
   0.074468609     0.6820539   -0.2203422    -0.0003853   -0.0005723    -0.0001362    0.0001506     0.0006946   -0.0000186 
   0.074568634     0.6907586   -0.2508888     0.0000405    0.0003035    -0.0000283   -0.0001442     0.0004790    0.0007595 
   0.074668659     0.6873408   -0.2646719    -0.0002224    0.0001584     0.0000714    0.0001270     0.0003659   -0.0002461 
   0.074768684     0.6778754   -0.2767648    -0.0008614   -0.0001369    -0.0000017    0.0001958     0.0003113   -0.0002293 
   0.074868709     0.6810665   -0.3011108    -0.0002276    0.0006967    -0.0002206   -0.0000913     0.0007896    0.0001104 
   0.074968734     0.6716839   -0.3066792    -0.0002190    0.0001373     0.0002747   -0.0001018     0.0003367   -0.0001544 
   0.075068759     0.6662604   -0.3321989    -0.0002385   -0.0000662    -0.0001915   -0.0001345     0.0006514    0.0001961 
   0.075168784     0.6654871   -0.3480299    -0.0002592   -0.0001320    -0.0000573   -0.0002500     0.0008916    0.0002456 
   0.075268809     0.6604422   -0.3654181    -0.0000629    0.0000775    -0.0001187   -0.0000948     0.0010162    0.0000645 
   0.075368834     0.6559899   -0.3725952     0.0000738    0.0010324    -0.0001071    0.0004110     0.0005167   -0.0000197 
   0.075468859     0.6492321   -0.3906926    -0.0002005   -0.0001540     0.0001310    0.0001056     0.0003218    0.0005023 
   0.075568884     0.6401120   -0.4079140    -0.0000512   -0.0001516    -0.0001145   -0.0000878     0.0003917    0.0001570 
   0.075668909     0.6325774   -0.4194636     0.0003129    0.0003451    -0.0000859   -0.0001023     0.0000962    0.0001613 
   0.075768934     0.6259519   -0.4361505     0.0000410    0.0005634     0.0001676    0.0000122     0.0003250    0.0000081 
   0.075868959     0.6177956   -0.4476112     0.0003528    0.0002013     0.0000933   -0.0001237     0.0007057    0.0000051 
   0.075968984     0.6220231   -0.4577571    -0.0003215    0.0004917    -0.0001238    0.0002529     0.0008917   -0.0001103 
   0.076069010     0.6150696   -0.4713308    -0.0000382    0.0000251    -0.0004520   -0.0001998     0.0007611    0.0002293 
   0.076169035     0.6004591   -0.4866025    -0.0001409    0.0002172     0.0000998   -0.0000800    -0.0000428    0.0004315 
   0.076269060     0.5950658   -0.4953052    -0.0000657   -0.0006465    -0.0001048    0.0000390     0.0002847    0.0000923 
   0.076369085     0.5856941   -0.5081806     0.0003854   -0.0000640     0.0000475   -0.0000789     0.0006844   -0.0001107 
   0.076469110     0.5711493   -0.5210679    -0.0009057   -0.0006172    -0.0000433   -0.0000029     0.0004598   -0.0003325 
   0.076569135     0.5659333   -0.5226588     0.0006262    0.0009926    -0.0000489   -0.0000899     0.0003074   -0.0000593 
   0.076669160     0.5661370   -0.5351964     0.0006387    0.0001713     0.0000493   -0.0001872     0.0002531   -0.0000592 
   0.076769185     0.5545664   -0.5516385    -0.0000606   -0.0001554    -0.0002876   -0.0000553     0.0005890   -0.0002144 
   0.076869210     0.5478418   -0.5613704     0.0002205   -0.0001468     0.0000702    0.0001393     0.0005189   -0.0000018 
   0.076969235     0.5342000   -0.5690761     0.0001388   -0.0004110     0.0000245   -0.0000665     0.0009160    0.0003587 
   0.077069260     0.5183443   -0.5755910    -0.0001210    0.0001679    -0.0000674   -0.0000141     0.0007153   -0.0002832 
   0.077169285     0.5118818   -0.5825247    -0.0006743   -0.0005992     0.0000572    0.0001677     0.0006127    0.0003897 
   0.077269310     0.5057704   -0.5860019     0.0008145    0.0000059    -0.0001358    0.0002651     0.0005931   -0.0004853 
   0.077369335     0.5058131   -0.6069527     0.0005205    0.0004939    -0.0002717    0.0000268     0.0007304    0.0001402 
   0.077469360     0.4894235   -0.6121386    -0.0001031    0.0003353    -0.0000796   -0.0001460     0.0004264    0.0002719 
   0.077569385     0.4813596   -0.6220102     0.0001255    0.0002050     0.0001041    0.0000271     0.0005092    0.0001734 
   0.077669410     0.4640062   -0.6281970     0.0004887    0.0000513     0.0001454   -0.0000101     0.0005596   -0.0001599 
   0.077769435     0.4562912   -0.6383166     0.0001673   -0.0004847     0.0000334    0.0000154     0.0008041    0.0003847 
   0.077869460     0.4466316   -0.6380194     0.0007150    0.0007819     0.0000894    0.0002241     0.0001657   -0.0002282 
   0.077969485     0.4379933   -0.6441579    -0.0001615    0.0000668     0.0002607   -0.0000136     0.0007219   -0.0000460 
   0.078069510     0.4314096   -0.6516737    -0.0005893   -0.0002259     0.0003617    0.0000207     0.0002966    0.0004657 
   0.078169535     0.4185114   -0.6550950     0.0002541    0.0000161     0.0000805    0.0001587     0.0005908   -0.0000472 
   0.078269560     0.4070803   -0.6679059    -0.0000001    0.0007123    -0.0003221    0.0001594     0.0008555   -0.0003656 
   0.078369585     0.3999828   -0.6670232    -0.0007470   -0.0004284     0.0001530   -0.0001783     0.0008022   -0.0003338 
   0.078469610     0.3922145   -0.6791352    -0.0004243    0.0001677     0.0000813   -0.0000787     0.0003980    0.0001242 
   0.078569635     0.3817919   -0.6781669    -0.0003635    0.0005870     0.0002414   -0.0001485     0.0006760   -0.0004956 
   0.078669660     0.3719529   -0.6792981    -0.0000725   -0.0003506     0.0000664   -0.0001685     0.0006044   -0.0002262 
   0.078769685     0.3579813   -0.6857148     0.0003959    0.0003268     0.0000049   -0.0002282     0.0003618   -0.0001280 
   0.078869710     0.3426003   -0.6898615    -0.0001375    0.0005146     0.0001369   -0.0001567     0.0002850    0.0001558 
   0.078969735     0.3362983   -0.6897455    -0.0005467   -0.0005453     0.0000442    0.0002044     0.0005006    0.0004456 
   0.079069760     0.3187847   -0.6941251    -0.0001371    0.0000919    -0.0001872    0.0000338     0.0005068    0.0000488 
   0.079169785     0.3179706   -0.7047566    -0.0012489   -0.0001241    -0.0000062   -0.0001858     0.0008946    0.0000683 
   0.079269810     0.3129509   -0.7084475    -0.0000870    0.0003541    -0.0001651   -0.0000103     0.0006395   -0.0000729 
   0.079369835     0.2922292   -0.7078092    -0.0007448   -0.0002507     0.0000207   -0.0002589     0.0006723    0.0004632 
   0.079469860     0.2847456   -0.7132615     0.0002512    0.0000996    -0.0000782    0.0000441     0.0007322    0.0001796 
   0.079569885     0.2733074   -0.7145724     0.0002239    0.0000727    -0.0001642    0.0000763     0.0003999    0.0004140 
   0.079669910     0.2624254   -0.7195783    -0.0005186    0.0001024    -0.0001812    0.0000133     0.0003162   -0.0001341 
   0.079769935     0.2564341   -0.7186438    -0.0000736   -0.0004845     0.0000702   -0.0000655     0.0003925   -0.0002222 
   0.079869960     0.2396166   -0.7239065     0.0003502    0.0000294    -0.0001327   -0.0000186     0.0006142   -0.0005042 
   0.079969985     0.2303903   -0.7328966     0.0001251   -0.0002353     0.0000679   -0.0001208     0.0012566   -0.0000697 
   0.080070010     0.2218186   -0.7302911     0.0007033    0.0003115     0.0000054   -0.0002989     0.0006859    0.0005551 
   0.080170035     0.2124104   -0.7243619     0.0002081    0.0002973    -0.0000269    0.0001714     0.0005702    0.0001418 
   0.080270060     0.1995455   -0.7343347    -0.0000828   -0.0003628    -0.0000006   -0.0002385     0.0010325    0.0005568 
   0.080370085     0.1950144   -0.7262568     0.0000493    0.0003737    -0.0000301    0.0001574     0.0004600    0.0002500 
   0.080470110     0.1799861   -0.7327278    -0.0000139    0.0000701    -0.0002705   -0.0001658     0.0006939    0.0005622 
   0.080570135     0.1673815   -0.7318665     0.0004089    0.0000430     0.0000995    0.0001326     0.0003393   -0.0002387 
   0.080670160     0.1538470   -0.7362599     0.0000383   -0.0003613    -0.0000455    0.0001296     0.0005295   -0.0001760 
   0.080770185     0.1451182   -0.7246386    -0.0000734    0.0002868    -0.0000048   -0.0000901     0.0006233   -0.0000514 
   0.080870210     0.1292805   -0.7303115     0.0000052    0.0001699    -0.0000634    0.0000035     0.0004334   -0.0002522 
   0.080970235     0.1262620   -0.7335998    -0.0000714    0.0001950     0.0001555   -0.0001136     0.0006233    0.0000963 
   0.081070260     0.1089027   -0.7300736     0.0004802    0.0009971    -0.0001761    0.0000956     0.0012849    0.0001739 
   0.081170285     0.0978451   -0.7335331     0.0003852    0.0002291     0.0000820   -0.0001694     0.0004154    0.0002492 
   0.081270310     0.0890484   -0.7315012     0.0002172    0.0003131     0.0001882   -0.0000409     0.0006449    0.0002125 
   0.081370335     0.0835884   -0.7245830    -0.0000465   -0.0001395     0.0001515    0.0000284     0.0007336    0.0001651 
   0.081470360     0.0635890   -0.7255535    -0.0000926   -0.0001076     0.0001079   -0.0000436     0.0012224    0.0001780 
   0.081570385     0.0549299   -0.7255741     0.0001400   -0.0002687     0.0000759   -0.0000395     0.0007324   -0.0000947 
   0.081670410     0.0450730   -0.7263417    -0.0001281   -0.0003176    -0.0000220    0.0003402     0.0008163    0.0003573 
   0.081770435     0.0333059   -0.7238994    -0.0003426   -0.0001324    -0.0000093    0.0001762     0.0010044    0.0003325 
   0.081870460     0.0218745   -0.7217755    -0.0004943    0.0000855    -0.0000135    0.0000481     0.0006462   -0.0003887 
   0.081970485     0.0113412   -0.7192084     0.0002963    0.0002671     0.0001548    0.0003378     0.0004627    0.0001313 
   0.082070510    -0.0021766   -0.7155423    -0.0001919    0.0006124     0.0001167   -0.0002176     0.0005462    0.0001754 
   0.082170535    -0.0148668   -0.7107490     0.0001968   -0.0004815     0.0002522    0.0001470     0.0006061    0.0001068 
   0.082270560    -0.0222181   -0.7059031     0.0001276    0.0002163     0.0000629   -0.0000769     0.0009099   -0.0002898 
   0.082370585    -0.0367214   -0.7016599    -0.0000169   -0.0000239    -0.0002211    0.0003321     0.0008726    0.0001800 
   0.082470610    -0.0455484   -0.7000589    -0.0003841    0.0001603     0.0000471    0.0000188     0.0009029    0.0002322 
   0.082570635    -0.0564007   -0.6943769    -0.0000669   -0.0004780     0.0000169    0.0000347     0.0009419    0.0002473 
   0.082670660    -0.0712090   -0.6849642    -0.0001384   -0.0000068    -0.0000156   -0.0001783     0.0003195   -0.0000314 
   0.082770685    -0.0816056   -0.6854000     0.0001357    0.0003669     0.0000490   -0.0001766     0.0005473    0.0003063 
   0.082870710    -0.0907120   -0.6799304     0.0002767    0.0000872     0.0000610   -0.0001881     0.0006997   -0.0000296 
   0.082970735    -0.1026159   -0.6773091    -0.0004431    0.0005661    -0.0000131    0.0000115     0.0008066    0.0000672 
   0.083070760    -0.1131629   -0.6719102    -0.0004419    0.0004495    -0.0001298   -0.0000293     0.0005419    0.0000811 
   0.083170785    -0.1224921   -0.6668629    -0.0000627    0.0003794     0.0000137    0.0000087     0.0009521    0.0000521 
   0.083270810    -0.1336211   -0.6569483     0.0000293   -0.0000427    -0.0000945   -0.0001173     0.0005203    0.0008370 
   0.083370835    -0.1503596   -0.6555459     0.0003532    0.0002715     0.0000060    0.0000366     0.0006152    0.0001156 
   0.083470860    -0.1553069   -0.6472579    -0.0001126   -0.0003395     0.0000168    0.0000606     0.0002181    0.0003148 
   0.083570885    -0.1693470   -0.6371441    -0.0000643   -0.0002438    -0.0001002    0.0000968     0.0000821    0.0000590 
   0.083670910    -0.1778486   -0.6328859     0.0004752   -0.0004795    -0.0001539   -0.0000326     0.0003238    0.0000776 
   0.083770935    -0.1882791   -0.6176514     0.0000314    0.0002405     0.0001377   -0.0000612     0.0008270    0.0001893 
   0.083870960    -0.2004748   -0.6135027    -0.0004254    0.0002706     0.0001351   -0.0000399     0.0006585    0.0003820 
   0.083970985    -0.2108645   -0.6049208     0.0000755   -0.0000464    -0.0000118    0.0000806     0.0006008    0.0003144 
   0.084071011    -0.2197496   -0.6008587    -0.0000469   -0.0002720    -0.0000708    0.0000319     0.0010301   -0.0003123 
   0.084171036    -0.2294221   -0.5896428    -0.0001786   -0.0005305    -0.0000079   -0.0001328     0.0007541    0.0001393 
   0.084271061    -0.2457097   -0.5763004    -0.0000145   -0.0003211    -0.0001540    0.0000139     0.0006087    0.0001937 
   0.084371086    -0.2531427   -0.5729976    -0.0001831   -0.0000430    -0.0002152    0.0000306     0.0010462    0.0002449 
   0.084471111    -0.2634428   -0.5574878     0.0001448    0.0000730    -0.0000705   -0.0001912     0.0008680    0.0000423 
   0.084571136    -0.2708215   -0.5488013     0.0001389    0.0000482     0.0000918   -0.0000634     0.0005256    0.0004227 
   0.084671161    -0.2819628   -0.5343115     0.0003128    0.0001455    -0.0001963    0.0000419     0.0004714    0.0004962 
   0.084771186    -0.2953040   -0.5243252    -0.0000933    0.0000859    -0.0000551   -0.0001575     0.0006148    0.0001894 
   0.084871211    -0.3057784   -0.5135846    -0.0000290    0.0001231     0.0001280   -0.0002328     0.0005475    0.0001723 
   0.084971236    -0.3084525   -0.4987438    -0.0000109    0.0000753     0.0000529    0.0000221     0.0007772    0.0001411 
   0.085071261    -0.3203622   -0.4874689    -0.0002339    0.0001466     0.0001788    0.0003029     0.0003662    0.0006149 
   0.085171286    -0.3305071   -0.4732486     0.0001128   -0.0000593    -0.0001021    0.0000090     0.0001787   -0.0001354 
   0.085271311    -0.3345841   -0.4631923     0.0003138   -0.0001583     0.0000513    0.0000250     0.0002117    0.0000490 
   0.085371336    -0.3456104   -0.4466585    -0.0002474    0.0000837    -0.0000171    0.0000270     0.0008544    0.0000155 
   0.085471361    -0.3508841   -0.4344558    -0.0001104   -0.0001098    -0.0000964   -0.0000372     0.0007816   -0.0001479 
   0.085571386    -0.3616357   -0.4148786     0.0000324   -0.0000779    -0.0000069    0.0000135     0.0008761    0.0003969 
   0.085671411    -0.3655019   -0.3999657    -0.0001102   -0.0002231     0.0001147   -0.0000185     0.0010558    0.0000350 
   0.085771436    -0.3740667   -0.3881314    -0.0001134    0.0001918     0.0000816   -0.0000611     0.0001002   -0.0001487 
   0.085871461    -0.3791659   -0.3683182     0.0000345    0.0002023    -0.0002145   -0.0001520     0.0005157    0.0003202 
   0.085971486    -0.3853298   -0.3523442    -0.0003505   -0.0001195     0.0000131    0.0000833     0.0009804    0.0005409 
   0.086071511    -0.3877690   -0.3341780    -0.0001540    0.0002471    -0.0000294    0.0000002     0.0008131   -0.0004328 
   0.086171536    -0.3933696   -0.3188325    -0.0002889    0.0000189     0.0000307   -0.0000278     0.0013220    0.0002266 
   0.086271561    -0.3966429   -0.2975029    -0.0003266    0.0002358    -0.0000697   -0.0000551     0.0006926    0.0001267 
   0.086371586    -0.4026387   -0.2790645    -0.0004407    0.0004139     0.0000545    0.0001064     0.0006962    0.0001984 
   0.086471611    -0.4036020   -0.2609703     0.0001513    0.0000477    -0.0000912   -0.0000240     0.0007037    0.0000126 
   0.086571636    -0.4083136   -0.2430453     0.0000287    0.0000058     0.0001622   -0.0000373     0.0002605    0.0004458 
   0.086671661    -0.4088550   -0.2227363     0.0000911   -0.0000861    -0.0000635   -0.0000522     0.0007489    0.0002908 
   0.086771686    -0.4096966   -0.2016933    -0.0000332   -0.0002759    -0.0000847   -0.0001020     0.0004131   -0.0000643 
   0.086871711    -0.4091631   -0.1810028    -0.0002261   -0.0000706     0.0001091    0.0000811     0.0002870    0.0001985 
   0.086971736    -0.4084331   -0.1596279    -0.0000100   -0.0003385    -0.0000166   -0.0001205     0.0008040   -0.0003099 
   0.087071761    -0.4065164   -0.1409652    -0.0000506    0.0000140     0.0000763    0.0000516     0.0006880   -0.0003821 
   0.087171786    -0.4060542   -0.1192192     0.0000795    0.0002066    -0.0001511    0.0000751     0.0005324    0.0000426 
   0.087271811    -0.4013092   -0.0983017     0.0000189   -0.0000056    -0.0000692    0.0000391     0.0005651   -0.0000759 
   0.087371836    -0.3962062   -0.0751800     0.0001500    0.0002491    -0.0000692   -0.0000778     0.0001989    0.0002654 
   0.087471861    -0.3925993   -0.0530151    -0.0003279   -0.0003874     0.0000407    0.0001014     0.0002183   -0.0002877 
   0.087571886    -0.3849504   -0.0324367     0.0001942   -0.0002483    -0.0001421   -0.0001146     0.0004193   -0.0001239 
   0.087671911    -0.3768234   -0.0127378     0.0002427   -0.0001235     0.0000176    0.0000789     0.0005737    0.0002231 
   0.087771936    -0.3693414    0.0109984     0.0000704    0.0000581     0.0000901    0.0000145     0.0005042    0.0000435 
   0.087871961    -0.3592528    0.0336565     0.0001169   -0.0000860     0.0000596    0.0000841     0.0010704   -0.0004673 
   0.087971986    -0.3487970    0.0536898    -0.0000201   -0.0001615     0.0000764    0.0000629     0.0002092    0.0003622 
   0.088072011    -0.3382928    0.0752874     0.0000645    0.0000948     0.0000069   -0.0000480     0.0000449   -0.0000557 
   0.088172036    -0.3262305    0.0957564    -0.0001635    0.0000297    -0.0001031   -0.0001113     0.0005483    0.0001684 
   0.088272061    -0.3125601    0.1188477     0.0000216   -0.0001306    -0.0000178   -0.0000301     0.0005757    0.0000239 
   0.088372086    -0.2947246    0.1382678     0.0000831    0.0002686    -0.0000049    0.0000458     0.0003833   -0.0004429 
   0.088472111    -0.2790868    0.1574600    -0.0001458    0.0000320     0.0000562    0.0001647     0.0007880    0.0007387 
   0.088572136    -0.2634499    0.1756319     0.0000579   -0.0003114     0.0000121   -0.0000076     0.0001222    0.0000411 
   0.088672161    -0.2452668    0.1953596     0.0000666    0.0002539    -0.0000837    0.0001064     0.0006163   -0.0000543 
   0.088772186    -0.2259960    0.2120597     0.0001439   -0.0000795     0.0000381   -0.0000160     0.0009251    0.0001459 
   0.088872211    -0.2042994    0.2284087     0.0003217   -0.0001084     0.0000782    0.0000700     0.0008615   -0.0000580 
   0.088972236    -0.1834314    0.2437261    -0.0001786    0.0000584    -0.0000267   -0.0001171     0.0008117    0.0000531 
   0.089072261    -0.1604922    0.2590907     0.0003908    0.0001335    -0.0001371   -0.0000857     0.0006108    0.0001525 
   0.089172286    -0.1384504    0.2730125    -0.0002354    0.0004109    -0.0000385   -0.0000042     0.0010061   -0.0001763 
   0.089272311    -0.1128145    0.2852868     0.0004083    0.0000998    -0.0000038    0.0000614     0.0004184    0.0002340 
   0.089372336    -0.0883891    0.2959245     0.0000573   -0.0000443    -0.0001031    0.0000524     0.0010032   -0.0001638 
   0.089472361    -0.0640604    0.3061253     0.0001399   -0.0005214     0.0000631    0.0000629     0.0010349   -0.0001847 
   0.089572386    -0.0381480    0.3158081     0.0000488    0.0001762    -0.0004379    0.0000166     0.0004103    0.0000026 
   0.089672411    -0.0102650    0.3247410    -0.0000101   -0.0005232    -0.0000726    0.0000991     0.0008092    0.0008853 
   0.089772436     0.0174574    0.3293718     0.0002043   -0.0003275    -0.0000564   -0.0000408     0.0008648    0.0002351 
   0.089872461     0.0432953    0.3353459     0.0002598    0.0002480    -0.0001786   -0.0000312     0.0006408    0.0002888 
   0.089972486     0.0711345    0.3364193    -0.0001795    0.0000467    -0.0000801    0.0000419     0.0007799    0.0000454 
   0.090072511     0.0996943    0.3374390     0.0000105   -0.0000341     0.0000477   -0.0001896     0.0004196   -0.0000775 
   0.090172536     0.1280996    0.3385677     0.0002871    0.0001047    -0.0001579    0.0001008     0.0008468    0.0004867 
   0.090272561     0.1540160    0.3364037     0.0000906    0.0002998    -0.0003714    0.0002369     0.0004809    0.0003828 
   0.090372586     0.1829059    0.3378968     0.0000088   -0.0000112     0.0000675    0.0001360     0.0002091    0.0003216 
   0.090472611     0.2104341    0.3304992     0.0001927    0.0001915     0.0001303   -0.0000297     0.0009173    0.0004767 
   0.090572636     0.2364724    0.3256507     0.0000131   -0.0001800     0.0000989    0.0000869     0.0009113    0.0001797 
   0.090672661     0.2649720    0.3182238    -0.0002008    0.0000367     0.0000257    0.0000449     0.0009613    0.0003094 
   0.090772686     0.2911023    0.3110142     0.0000368   -0.0002665     0.0001381   -0.0001231     0.0008777    0.0004197 
   0.090872711     0.3150658    0.2982844    -0.0000279   -0.0001164     0.0001022    0.0002305     0.0006651    0.0002688 
   0.090972736     0.3387845    0.2918376    -0.0000826    0.0001370    -0.0000641    0.0002638     0.0002183   -0.0001710 
   0.091072761     0.3611239    0.2764515    -0.0003399    0.0002151     0.0001727    0.0000335     0.0003676    0.0003160 
   0.091172786     0.3852049    0.2626565    -0.0000699    0.0001824     0.0001953    0.0000917     0.0003910    0.0000195 
   0.091272811     0.4117520    0.2518857     0.0000469    0.0002785     0.0000563   -0.0001750     0.0006416   -0.0000885 
   0.091372836     0.4290993    0.2357282    -0.0001146   -0.0007622     0.0001073    0.0001099     0.0008037   -0.0000358 
   0.091472861     0.4528750    0.2174618     0.0000282   -0.0005442     0.0000417    0.0001900     0.0012801   -0.0000637 
   0.091572886     0.4689820    0.2071895    -0.0002320    0.0002714     0.0000835   -0.0001520     0.0007115   -0.0000125 
   0.091672911     0.4827921    0.1830429     0.0003960    0.0003479    -0.0001722   -0.0000516     0.0006647   -0.0001873 
   0.091772936     0.5052211    0.1651441    -0.0000336    0.0000223     0.0000578   -0.0000182     0.0006057   -0.0000106 
   0.091872961     0.5248584    0.1489132     0.0003423    0.0004897    -0.0001195   -0.0002424     0.0008426    0.0000072 
   0.091972986     0.5355651    0.1311454     0.0003043   -0.0001887     0.0001352    0.0002928     0.0007089   -0.0004961 
   0.092073012     0.5505740    0.1109237    -0.0003141    0.0001595     0.0001852    0.0000559     0.0001495   -0.0000187 
   0.092173037     0.5604023    0.0914366    -0.0006991    0.0004755    -0.0002161    0.0002445     0.0004459    0.0002396 
   0.092273062     0.5736064    0.0681884     0.0000665    0.0007300     0.0001036    0.0000874     0.0008781   -0.0000377 
   0.092373087     0.5857322    0.0549527    -0.0004079   -0.0001686    -0.0001229    0.0001911     0.0002291    0.0002833 
   0.092473112     0.5905412    0.0248142    -0.0001925    0.0000314    -0.0000792    0.0001056     0.0009263    0.0003326 
   0.092573137     0.6067294    0.0105316    -0.0002509    0.0003296     0.0000492   -0.0000999     0.0005793   -0.0001393 
   0.092673162     0.6134694   -0.0129101     0.0003309    0.0003178    -0.0000445    0.0000622    -0.0001214    0.0002722 
   0.092773187     0.6182446   -0.0274579     0.0002551   -0.0002922    -0.0002628    0.0000552     0.0009408    0.0001800 
   0.092873212     0.6225111   -0.0478044    -0.0006448   -0.0000501    -0.0001001   -0.0000900     0.0008553    0.0003312 
   0.092973237     0.6291465   -0.0682234    -0.0001388   -0.0003263     0.0000126   -0.0001560     0.0005871    0.0000817 
   0.093073262     0.6371675   -0.0904495    -0.0001607   -0.0002471    -0.0000032    0.0000651     0.0008056    0.0005411 
   0.093173287     0.6363207   -0.1118983     0.0000742   -0.0003109     0.0001751    0.0000783     0.0003119    0.0009674 
   0.093273312     0.6372641   -0.1305421     0.0003546    0.0004163     0.0003220   -0.0003954     0.0007076    0.0004127 
   0.093373337     0.6381976   -0.1557343    -0.0004542   -0.0001077     0.0000531   -0.0000720     0.0004538   -0.0000501 
   0.093473362     0.6366964   -0.1731957     0.0000826    0.0007569     0.0000382   -0.0001552     0.0010581    0.0001757 
   0.093573387     0.6403325   -0.1914664    -0.0005169   -0.0001026    -0.0000918    0.0002194     0.0007858   -0.0000739 
   0.093673412     0.6347796   -0.2123882    -0.0000222   -0.0001774    -0.0001164   -0.0000295     0.0007496    0.0005220 
   0.093773437     0.6329979   -0.2277770    -0.0001071   -0.0006625    -0.0001248    0.0000157     0.0004350    0.0003905 
   0.093873462     0.6364978   -0.2435563    -0.0001429   -0.0002890     0.0001128   -0.0000322     0.0005437    0.0002611 
   0.093973487     0.6325782   -0.2673824    -0.0000671   -0.0001865    -0.0002062    0.0000317     0.0004001   -0.0002035 
   0.094073512     0.6283917   -0.2902040     0.0002153   -0.0000911    -0.0000580    0.0001433     0.0010668    0.0002979 
   0.094173537     0.6184225   -0.3036668    -0.0001407    0.0003262     0.0001332   -0.0000839     0.0007397    0.0001387 
   0.094273562     0.6211632   -0.3140547    -0.0005671    0.0002512    -0.0000062   -0.0001791     0.0007901    0.0001839 
   0.094373587     0.6151710   -0.3342788    -0.0003680   -0.0004607     0.0001798   -0.0004503     0.0008807    0.0004771 
   0.094473612     0.6065523   -0.3513035     0.0003225    0.0006549    -0.0001510    0.0001225     0.0007234    0.0004658 
   0.094573637     0.6052354   -0.3692178    -0.0000988    0.0002716     0.0000309    0.0001454     0.0008390    0.0000834 
   0.094673662     0.6024823   -0.3844865     0.0002269   -0.0002013    -0.0000616    0.0001891     0.0007718    0.0003507 
   0.094773687     0.5931081   -0.3985735     0.0001062   -0.0000672     0.0001030   -0.0002318     0.0006979    0.0002366 
   0.094873712     0.5840126   -0.4081457    -0.0003273   -0.0001532     0.0002755    0.0001253     0.0005295    0.0002852 
   0.094973737     0.5823168   -0.4256214     0.0000276   -0.0001654    -0.0001588    0.0002137     0.0007712    0.0005847 
   0.095073762     0.5666437   -0.4411364    -0.0003057    0.0001250     0.0001439    0.0002000     0.0010646    0.0006570 
   0.095173787     0.5652847   -0.4540981     0.0000898   -0.0001645     0.0000896   -0.0000310     0.0011020    0.0007955 
   0.095273812     0.5622249   -0.4644448    -0.0002935    0.0002512     0.0000155    0.0000616     0.0006020    0.0002549 
   0.095373837     0.5504212   -0.4780829     0.0002332    0.0002969    -0.0000943    0.0001141     0.0009485    0.0005787 
   0.095473862     0.5425311   -0.4888170     0.0004659    0.0004459     0.0002083   -0.0000507     0.0005137    0.0000737 
   0.095573887     0.5331734   -0.5028195     0.0001714    0.0001075     0.0001009    0.0000694     0.0008185    0.0003915 
   0.095673912     0.5212730   -0.5126925     0.0004185    0.0001397     0.0000523    0.0000542     0.0005514   -0.0000089 
   0.095773937     0.5108335   -0.5243075     0.0002080    0.0004087    -0.0001351    0.0002580     0.0009598   -0.0002443 
   0.095873962     0.5002436   -0.5352038     0.0003778   -0.0001115    -0.0000817   -0.0000696     0.0008508    0.0004881 
   0.095973987     0.4934047   -0.5447034     0.0001037   -0.0002299    -0.0000676    0.0000675     0.0006337    0.0004370 
   0.096074012     0.4860996   -0.5553142     0.0000182    0.0000301     0.0000925    0.0001664     0.0007985    0.0002703 
   0.096174037     0.4737875   -0.5627188     0.0001398    0.0001450     0.0001539    0.0000544     0.0007627    0.0000856 
   0.096274062     0.4655266   -0.5764924     0.0000160    0.0000422     0.0002419   -0.0001059     0.0007975    0.0001423 
   0.096374087     0.4575763   -0.5792074     0.0001802   -0.0001176    -0.0002524    0.0000679     0.0010549    0.0002751 
   0.096474112     0.4438473   -0.5912066    -0.0003346    0.0001348    -0.0000770   -0.0000325     0.0009106    0.0005247 
   0.096574137     0.4372955   -0.6037639    -0.0000558   -0.0000213    -0.0001662    0.0002123     0.0002501    0.0001413 
   0.096674162     0.4263242   -0.6004670     0.0003088    0.0000753     0.0002924    0.0000364     0.0004473    0.0004299 
   0.096774187     0.4100775   -0.6126930    -0.0000653    0.0002247    -0.0002061   -0.0000265     0.0007511    0.0008059 
   0.096874212     0.4017255   -0.6220478     0.0000935   -0.0003407    -0.0000166   -0.0000207     0.0007804    0.0005251 
   0.096974237     0.3913646   -0.6269701    -0.0004360   -0.0001965     0.0000854   -0.0000797     0.0006294    0.0003199 
   0.097074262     0.3753729   -0.6298751     0.0002847    0.0002267    -0.0000903    0.0000096     0.0010050    0.0004120 
   0.097174287     0.3739705   -0.6414381    -0.0001557   -0.0000293    -0.0001219    0.0000144     0.0006630    0.0004924 
   0.097274312     0.3611717   -0.6472113    -0.0004096    0.0002643    -0.0000037   -0.0000192     0.0008266    0.0006464 
   0.097374337     0.3469271   -0.6526540    -0.0002786    0.0002030     0.0000957   -0.0000276     0.0005495    0.0002230 
   0.097474362     0.3367724   -0.6589805    -0.0000467   -0.0001025     0.0001285    0.0000610     0.0005773   -0.0002475 
   0.097574387     0.3256460   -0.6638823    -0.0004849   -0.0003773     0.0000168    0.0000615     0.0004793    0.0006344 
   0.097674412     0.3163834   -0.6651721     0.0000898   -0.0001936    -0.0000630   -0.0001048     0.0003731    0.0005893 
   0.097774437     0.3092316   -0.6743019     0.0000034   -0.0002520     0.0000202   -0.0000737     0.0009901    0.0004992 
   0.097874462     0.2918254   -0.6744609    -0.0002399    0.0002621     0.0000983    0.0000001     0.0003345    0.0001228 
   0.097974487     0.2874385   -0.6838192    -0.0000375   -0.0002812     0.0000406   -0.0000707     0.0008604    0.0002883 
   0.098074512     0.2705245   -0.6812560     0.0000111    0.0000161    -0.0000202    0.0000798     0.0002884    0.0001039 
   0.098174537     0.2575088   -0.6851438    -0.0000217   -0.0001284    -0.0001834   -0.0001875     0.0008532    0.0007427 
   0.098274562     0.2457797   -0.6918912    -0.0002499    0.0000029     0.0001544   -0.0001598     0.0008411    0.0004861 
   0.098374587     0.2367638   -0.6931294    -0.0003255   -0.0000314    -0.0001325   -0.0001384     0.0008157   -0.0000679 
   0.098474612     0.2206141   -0.7000106    -0.0001665   -0.0000465     0.0001736   -0.0002058     0.0008943    0.0005169 
   0.098574637     0.2126380   -0.7021037    -0.0000335    0.0000503    -0.0001171    0.0000705     0.0010212    0.0003046 
   0.098674662     0.2011722   -0.6993159     0.0000648   -0.0000821     0.0001531    0.0000230     0.0009900   -0.0000622 
   0.098774687     0.1866699   -0.6995435     0.0001621   -0.0000860    -0.0001261   -0.0001239     0.0004199    0.0002586 
   0.098874712     0.1786888   -0.7073469     0.0002597   -0.0004467    -0.0000416   -0.0000533     0.0011097    0.0004594 
   0.098974737     0.1677796   -0.7038345     0.0000201    0.0000341     0.0000084   -0.0001494     0.0007576    0.0005049 
   0.099074762     0.1575823   -0.7059720    -0.0000060    0.0002659     0.0000364   -0.0001399     0.0010404    0.0003040 
   0.099174787     0.1443146   -0.7066149    -0.0003828   -0.0002674     0.0000435    0.0000824     0.0010943    0.0003724 
   0.099274812     0.1311475   -0.7114604    -0.0000867   -0.0002018    -0.0000314    0.0000602     0.0008833    0.0003624 
   0.099374837     0.1222919   -0.7115802    -0.0000578    0.0000786     0.0000291   -0.0000896     0.0006883    0.0006870 
   0.099474862     0.1084427   -0.7090343    -0.0000581   -0.0000651     0.0000392    0.0000497     0.0008775    0.0004723 
   0.099574887     0.1016298   -0.7106023     0.0002179   -0.0000532     0.0000004   -0.0000623     0.0007055    0.0006026 
   0.099674912     0.0869243   -0.7082971    -0.0001506   -0.0000087     0.0000641    0.0001246     0.0005340    0.0006198 
   0.099774937     0.0777763   -0.7102929     0.0000533   -0.0000392     0.0000428   -0.0000634     0.0002377    0.0000070 
   0.099874962     0.0664622   -0.7120878    -0.0000156   -0.0001407     0.0000671   -0.0000694     0.0010238    0.0002560 
   0.099974987     0.0542081   -0.7077516     0.0000534    0.0001778     0.0000825   -0.0000067     0.0006397    0.0002779 
   0.100075013     0.0402093   -0.7108305     0.0001929   -0.0001731    -0.0000265    0.0001177     0.0006574    0.0004169 
   0.100175038     0.0342040   -0.7042178     0.0001354    0.0000230    -0.0000264    0.0000104     0.0005565   -0.0000761 
   0.100275063     0.0186465   -0.7009010    -0.0000178   -0.0000905    -0.0000290    0.0000382     0.0002546    0.0004340 
   0.100375088     0.0052112   -0.6996694     0.0002821   -0.0000732     0.0000057    0.0000596     0.0006692    0.0003409 
   0.100475113    -0.0040900   -0.6969581     0.0002067    0.0000252    -0.0000420   -0.0000374     0.0006310    0.0004646 
   0.100575138    -0.0166066   -0.6963152    -0.0001819   -0.0001435    -0.0000397   -0.0000816     0.0011829    0.0006300 
   0.100675163    -0.0278745   -0.6939564    -0.0000718   -0.0000997     0.0000828    0.0000250     0.0005832    0.0003751 
   0.100775188    -0.0390043   -0.6910679     0.0000680    0.0001007    -0.0000079    0.0000061     0.0001604    0.0000593 
   0.100875213    -0.0473253   -0.6880155     0.0000780    0.0001214    -0.0000685   -0.0000316     0.0006248    0.0006005 
   0.100975238    -0.0617076   -0.6796477     0.0001023    0.0002316    -0.0000711   -0.0000453     0.0002382    0.0000231 
   0.101075263    -0.0730963   -0.6786258     0.0002318    0.0000750     0.0000254   -0.0000141     0.0007326    0.0004814 
   0.101175288    -0.0830594   -0.6740106    -0.0000672   -0.0000581    -0.0000107   -0.0000312     0.0008773    0.0002970 
   0.101275313    -0.0925698   -0.6721553    -0.0001618    0.0001724    -0.0000196   -0.0000865     0.0003628    0.0006740 
   0.101375338    -0.1016229   -0.6692067     0.0000180    0.0001313     0.0000297   -0.0000342     0.0006321    0.0003964 
   0.101475363    -0.1175658   -0.6614494    -0.0000454    0.0000388    -0.0000377   -0.0000423     0.0003193    0.0002853 
   0.101575388    -0.1283824   -0.6556446    -0.0001682    0.0001339     0.0000883    0.0000099     0.0004943    0.0001777 
   0.101675413    -0.1356118   -0.6556913     0.0001927    0.0002252     0.0000479    0.0001236     0.0011512    0.0005533 
   0.101775438    -0.1476907   -0.6467956    -0.0000273   -0.0000111    -0.0001290    0.0000421     0.0004829    0.0004521 
   0.101875463    -0.1572843   -0.6412020     0.0002517    0.0000513    -0.0000271   -0.0000435     0.0007269    0.0006096 
   0.101975488    -0.1698055   -0.6301733    -0.0000361   -0.0000201     0.0000905    0.0000316     0.0004177    0.0003248 
   0.102075513    -0.1818182   -0.6267254     0.0001200   -0.0000307     0.0000659    0.0001375     0.0006160    0.0008431 
   0.102175538    -0.1893550   -0.6188473     0.0000912    0.0002053     0.0000298    0.0000279     0.0011379   -0.0000316 
   0.102275563    -0.2006157   -0.6140508    -0.0000982   -0.0000632    -0.0000164    0.0001409     0.0010162    0.0007749 
   0.102375588    -0.2115372   -0.6051580     0.0002285    0.0000363     0.0000344    0.0001008     0.0005145    0.0002874 
   0.102475613    -0.2193098   -0.5977818     0.0000418   -0.0001163    -0.0000214   -0.0000548     0.0008698    0.0005679 
   0.102575638    -0.2276622   -0.5915515    -0.0000740    0.0000208    -0.0000006   -0.0000303     0.0007280    0.0002232 
   0.102675663    -0.2391634   -0.5838556    -0.0000817   -0.0000763    -0.0000204   -0.0000561     0.0009604    0.0001784 
   0.102775688    -0.2508191   -0.5738958     0.0000100    0.0000710    -0.0000429    0.0001351     0.0004084    0.0003927 
   0.102875713    -0.2579599   -0.5690534    -0.0001999   -0.0001699    -0.0000753    0.0000240     0.0004381    0.0002385 
   0.102975738    -0.2679792   -0.5572644    -0.0001050    0.0001260     0.0001044   -0.0000951     0.0010563    0.0003857 
   0.103075763    -0.2804253   -0.5457485     0.0000515    0.0002571    -0.0000985   -0.0000096     0.0006204    0.0003448 
   0.103175788    -0.2858131   -0.5359198    -0.0001638    0.0001576     0.0000334    0.0000467     0.0008906    0.0003664 
   0.103275813    -0.2941891   -0.5276871     0.0001713    0.0001580    -0.0000270    0.0001058     0.0005523    0.0006092 
   0.103375838    -0.3060779   -0.5194644    -0.0001692    0.0000249    -0.0000362   -0.0000527     0.0007194    0.0005885 
   0.103475863    -0.3129800   -0.5059875     0.0000860    0.0000508    -0.0000298   -0.0000954     0.0005821    0.0006187 
   0.103575888    -0.3223670   -0.4942560     0.0000219   -0.0000213     0.0000841    0.0000687     0.0007078    0.0005376 
   0.103675913    -0.3284356   -0.4833536     0.0000946    0.0000528     0.0000716   -0.0000605     0.0008303    0.0006957 
   0.103775938    -0.3372591   -0.4742801    -0.0001034    0.0000896    -0.0000009    0.0000901     0.0007979    0.0000189 
   0.103875963    -0.3435863   -0.4618396     0.0001054   -0.0001171    -0.0000841   -0.0000429     0.0004494    0.0004691 
   0.103975988    -0.3516883   -0.4480880    -0.0000708    0.0000858     0.0000081   -0.0000553     0.0006188    0.0002107 
   0.104076013    -0.3592548   -0.4379055    -0.0000182   -0.0002557     0.0001711   -0.0001930     0.0007449    0.0003215 
   0.104176038    -0.3659128   -0.4225988    -0.0000099   -0.0003017    -0.0000726    0.0000219     0.0009775    0.0004887 
   0.104276063    -0.3737401   -0.4091670    -0.0000460    0.0003571     0.0000392   -0.0001449     0.0009649    0.0005121 
   0.104376088    -0.3792729   -0.3960116    -0.0001715    0.0001287    -0.0000028   -0.0000132     0.0009650    0.0004563 
   0.104476113    -0.3861058   -0.3807756     0.0002455    0.0002021    -0.0001794   -0.0000227     0.0006623    0.0005629 
   0.104576138    -0.3909360   -0.3659191    -0.0002667   -0.0001328    -0.0000356   -0.0000730     0.0007259    0.0006648 
   0.104676163    -0.3964937   -0.3532632     0.0000316    0.0000963    -0.0000559    0.0000012     0.0006698    0.0005556 
   0.104776188    -0.4025830   -0.3400734    -0.0003415    0.0001625     0.0000379   -0.0001097     0.0005321    0.0005884 
   0.104876213    -0.4078164   -0.3221593     0.0000160    0.0003616    -0.0000265   -0.0001148     0.0011637    0.0004525 
   0.104976238    -0.4096428   -0.3077596     0.0003674    0.0002608    -0.0000989    0.0000331     0.0011533    0.0005918 
   0.105076263    -0.4118554   -0.2929155     0.0001215    0.0000735    -0.0001291    0.0001940     0.0006234    0.0008494 
   0.105176288    -0.4170011   -0.2777356     0.0000240    0.0001758    -0.0000669    0.0000554     0.0009627    0.0004984 
   0.105276313    -0.4197061   -0.2596529     0.0001545    0.0001636    -0.0001665    0.0001392     0.0008914    0.0003378 
   0.105376338    -0.4224136   -0.2429363    -0.0003008   -0.0000763     0.0002026    0.0002178     0.0007106    0.0004916 
   0.105476363    -0.4271477   -0.2252727     0.0002675    0.0000635    -0.0001006    0.0000952     0.0010654    0.0005503 
   0.105576388    -0.4266661   -0.2079322    -0.0000539    0.0002451     0.0000604   -0.0000195     0.0007641    0.0005109 
   0.105676413    -0.4280686   -0.1924479    -0.0003061   -0.0001422     0.0001388    0.0000995     0.0011650    0.0003487 
   0.105776438    -0.4266409   -0.1726187     0.0002185   -0.0001596     0.0000440   -0.0000951     0.0002894    0.0007941 
   0.105876463    -0.4255749   -0.1558804    -0.0000625   -0.0001917    -0.0001812   -0.0000846     0.0005976    0.0005528 
   0.105976488    -0.4252492   -0.1367456     0.0000705   -0.0001948     0.0000771    0.0000800     0.0005279    0.0007443 
   0.106076513    -0.4245800   -0.1211235    -0.0000349    0.0001523    -0.0000441    0.0001329     0.0011501    0.0005826 
   0.106176538    -0.4220988   -0.1028904     0.0000602    0.0003137     0.0000162   -0.0000262     0.0008762    0.0006315 
   0.106276563    -0.4184512   -0.0830611    -0.0002454    0.0001048     0.0001743    0.0000560     0.0004794    0.0001720 
   0.106376588    -0.4123440   -0.0660175    -0.0001347   -0.0000126    -0.0002682   -0.0001216     0.0006397    0.0007146 
   0.106476613    -0.4086975   -0.0453791     0.0000152   -0.0000689     0.0000326    0.0000196     0.0004236    0.0009731 
   0.106576638    -0.4042034   -0.0264624    -0.0001498    0.0001343    -0.0002021   -0.0000825     0.0006249    0.0004562 
   0.106676663    -0.3990991   -0.0084982    -0.0001377   -0.0000746    -0.0001351   -0.0001127     0.0008326    0.0005160 
   0.106776688    -0.3914323    0.0101100     0.0003889   -0.0002011    -0.0000414   -0.0001914     0.0005917    0.0006248 
   0.106876713    -0.3835887    0.0286398    -0.0001027   -0.0000487    -0.0001002   -0.0001317     0.0005572    0.0002712 
   0.106976738    -0.3753057    0.0494229     0.0000357    0.0002677    -0.0001107   -0.0001178     0.0010780    0.0002396 
   0.107076763    -0.3656655    0.0665634     0.0001730   -0.0000080    -0.0000030    0.0001853     0.0004216    0.0001903 
   0.107176788    -0.3559954    0.0844292     0.0002064   -0.0002452    -0.0000369   -0.0003372     0.0008665    0.0008087 
   0.107276813    -0.3448259    0.1017105    -0.0001031   -0.0000166    -0.0001250   -0.0000175     0.0007426    0.0006351 
   0.107376838    -0.3330387    0.1211342    -0.0002828   -0.0001285    -0.0001587   -0.0002125     0.0006145    0.0003435 
   0.107476863    -0.3183695    0.1380377    -0.0001462    0.0004925     0.0001094    0.0001235     0.0011335   -0.0002173 
   0.107576888    -0.3070961    0.1534909     0.0001592    0.0005003    -0.0002463   -0.0000653     0.0011372    0.0003488 
   0.107676913    -0.2923389    0.1725822    -0.0003155    0.0001454     0.0001578   -0.0000406     0.0009684    0.0007022 
   0.107776938    -0.2751851    0.1883687     0.0000390   -0.0002495     0.0001295   -0.0001122     0.0007175    0.0001272 
   0.107876963    -0.2593496    0.2047803    -0.0000427   -0.0002232     0.0000511    0.0001216     0.0007012    0.0003521 
   0.107976988    -0.2421807    0.2176499    -0.0000087   -0.0003252    -0.0001374   -0.0000618     0.0009725    0.0007954 
   0.108077014    -0.2238054    0.2326942     0.0001115   -0.0004127     0.0000030    0.0001744     0.0005194    0.0002466 
   0.108177039    -0.2050562    0.2477501    -0.0003549   -0.0005977    -0.0000904   -0.0001549     0.0002397    0.0008728 
   0.108277064    -0.1848839    0.2600628    -0.0001754   -0.0001553     0.0000090    0.0002208     0.0010700    0.0006108 
   0.108377089    -0.1653702    0.2715262    -0.0002761   -0.0002766    -0.0001103    0.0001448     0.0007422    0.0005716 
   0.108477114    -0.1469558    0.2837031    -0.0000878   -0.0002531     0.0001269    0.0000236     0.0008319    0.0005862 
   0.108577139    -0.1252324    0.2924134     0.0004448   -0.0001340    -0.0001882    0.0001342     0.0005872    0.0000904 
   0.108677164    -0.1026215    0.3035534    -0.0001473   -0.0003678     0.0000318    0.0000892     0.0006090    0.0007352 
   0.108777189    -0.0791351    0.3114790    -0.0000206    0.0000013    -0.0000254    0.0001676     0.0010235    0.0004667 
   0.108877214    -0.0559971    0.3174779     0.0004255   -0.0004135     0.0000688   -0.0001016     0.0003948    0.0005763 
   0.108977239    -0.0320534    0.3240215    -0.0004400    0.0001962     0.0001569    0.0001119     0.0005077    0.0005889 
   0.109077264    -0.0084082    0.3297756     0.0000049    0.0000565    -0.0000657   -0.0000644     0.0005553    0.0008895 
   0.109177289     0.0152493    0.3330766    -0.0002271   -0.0003016     0.0002142   -0.0002189     0.0005747    0.0001221 
   0.109277314     0.0392874    0.3380812    -0.0000296   -0.0000622     0.0000586   -0.0000817     0.0007972    0.0007800 
   0.109377339     0.0651577    0.3391797    -0.0000565    0.0003745     0.0000540   -0.0000788     0.0009866    0.0005253 
   0.109477364     0.0896837    0.3373462     0.0003303    0.0000687    -0.0001828   -0.0000406     0.0005864    0.0004697 
   0.109577389     0.1133229    0.3394730    -0.0002889   -0.0000377    -0.0000511    0.0001828     0.0003723    0.0004041 
   0.109677414     0.1398879    0.3367750    -0.0001122    0.0001226     0.0000375    0.0001652     0.0005613   -0.0000676 
   0.109777439     0.1646762    0.3331899    -0.0000224   -0.0002147     0.0000200    0.0001703     0.0006959    0.0010979 
   0.109877464     0.1881942    0.3276956     0.0004910    0.0002003     0.0000829   -0.0001511     0.0007305    0.0002180 
   0.109977489     0.2145566    0.3249591    -0.0000611   -0.0002311    -0.0000065   -0.0001646     0.0007160    0.0007782 
   0.110077514     0.2371021    0.3169154     0.0005958   -0.0001079     0.0001447   -0.0000676     0.0005660    0.0003739 
   0.110177539     0.2604409    0.3107688    -0.0002347    0.0001579     0.0001182    0.0000791     0.0009637    0.0004818 
   0.110277564     0.2807217    0.3009134    -0.0004105   -0.0000708    -0.0000387    0.0000253     0.0007149    0.0005029 
   0.110377589     0.3034677    0.2889186    -0.0003122    0.0000794    -0.0000645    0.0000612     0.0005178    0.0007066 
   0.110477614     0.3254464    0.2788161    -0.0002448   -0.0001169    -0.0000053   -0.0000327     0.0007493    0.0007260 
   0.110577639     0.3499321    0.2669670     0.0002332    0.0001845     0.0000035   -0.0000437     0.0006549    0.0006417 
   0.110677664     0.3667675    0.2536287     0.0002656   -0.0003471     0.0002964    0.0000827     0.0002780    0.0006484 
   0.110777689     0.3878528    0.2416091    -0.0001250   -0.0002662    -0.0000754   -0.0001213     0.0005323    0.0009334 
   0.110877714     0.4071223    0.2272618    -0.0000696    0.0000814    -0.0001906   -0.0001123     0.0003502    0.0011054 
   0.110977739     0.4255841    0.2126948     0.0003352   -0.0001061     0.0001446    0.0000654     0.0008024    0.0003502 
   0.111077764     0.4416818    0.1966347    -0.0000223   -0.0003188     0.0000087    0.0000086     0.0000757    0.0002654 
   0.111177789     0.4583566    0.1761378    -0.0003622    0.0001210    -0.0001554   -0.0000442     0.0001528    0.0005866 
   0.111277814     0.4760060    0.1630524     0.0000716   -0.0002226    -0.0000185   -0.0002542     0.0008573    0.0008518 
   0.111377839     0.4900405    0.1440481    -0.0003291    0.0002321     0.0000415    0.0000959     0.0004915    0.0007148 
   0.111477864     0.5029868    0.1250500    -0.0001264   -0.0000370     0.0000049    0.0000597     0.0009894    0.0009947 
   0.111577889     0.5152946    0.1056684    -0.0002017    0.0003620     0.0000216   -0.0000312     0.0010139    0.0011694 
   0.111677914     0.5284318    0.0852616     0.0002413   -0.0001291    -0.0000488    0.0000558     0.0008949    0.0005686 
   0.111777939     0.5377678    0.0671001     0.0000385   -0.0002804    -0.0001514   -0.0000268     0.0007062    0.0007249 
   0.111877964     0.5483949    0.0481417     0.0000435    0.0000581     0.0001482   -0.0001536     0.0007362    0.0005880 
   0.111977989     0.5585560    0.0279642     0.0002089   -0.0001973     0.0000220   -0.0001217     0.0008092    0.0006522 
   0.112078014     0.5659403    0.0072505    -0.0000783   -0.0002463     0.0000341    0.0002269     0.0008004    0.0012524 
   0.112178039     0.5734427   -0.0122066     0.0001139   -0.0003358    -0.0000382   -0.0000215     0.0004832    0.0005668 
   0.112278064     0.5772482   -0.0310784     0.0001523   -0.0000360    -0.0001817   -0.0000214     0.0009592    0.0008535 
   0.112378089     0.5843192   -0.0511267    -0.0001698   -0.0000283     0.0001701    0.0000235     0.0003220    0.0005277 
   0.112478114     0.5904558   -0.0715762     0.0002405   -0.0000984    -0.0000207   -0.0000423     0.0003336    0.0002766 
   0.112578139     0.5915707   -0.0938157    -0.0000870   -0.0000140     0.0002325    0.0000514     0.0005540    0.0009604 
   0.112678164     0.5951946   -0.1137699    -0.0002419    0.0001757    -0.0000320    0.0000223     0.0007650    0.0004359 
   0.112778189     0.5977699   -0.1318912    -0.0000367    0.0000389     0.0000578    0.0000074     0.0008287    0.0011938 
   0.112878214     0.5975729   -0.1525824    -0.0000373   -0.0001387     0.0000353    0.0000215     0.0008309    0.0006167 
   0.112978239     0.5995626   -0.1714720     0.0003021    0.0003377     0.0000253    0.0000053     0.0006450    0.0006446 
   0.113078264     0.5992894   -0.1911923    -0.0000779   -0.0001458     0.0000766   -0.0001329     0.0008465    0.0009581 
   0.113178289     0.5963684   -0.2079239    -0.0002792    0.0001270    -0.0000239   -0.0000285     0.0005764    0.0003079 
   0.113278314     0.5977771   -0.2253897     0.0001257    0.0000273    -0.0000568    0.0000282     0.0002999    0.0005816 
   0.113378339     0.5951897   -0.2470145    -0.0002755    0.0000325     0.0000804    0.0000230     0.0005804    0.0005459 
   0.113478364     0.5910181   -0.2616499    -0.0000703    0.0000657    -0.0000058    0.0000421     0.0005990    0.0009596 
   0.113578389     0.5859090   -0.2793532    -0.0000268    0.0000989     0.0000198    0.0000191     0.0004728    0.0008140 
   0.113678414     0.5835356   -0.2959296    -0.0000376    0.0004197     0.0000452    0.0000871     0.0007836    0.0003406 
   0.113778439     0.5798420   -0.3166246    -0.0000028    0.0001750    -0.0000464   -0.0000159     0.0007896    0.0009725 
   0.113878464     0.5728500   -0.3317781    -0.0002406   -0.0000156     0.0000600    0.0000032     0.0006878    0.0005956 
   0.113978489     0.5673426   -0.3478776     0.0000485    0.0000410     0.0001459   -0.0000902     0.0011883    0.0003606 
   0.114078514     0.5601247   -0.3651458    -0.0000870   -0.0000520    -0.0000192   -0.0000687     0.0011492    0.0008030 
   0.114178539     0.5522265   -0.3792107     0.0000598    0.0001214     0.0000388   -0.0000523     0.0006859    0.0008812 
   0.114278564     0.5475661   -0.3954110     0.0002430   -0.0000504     0.0001442    0.0000080     0.0000256    0.0004662 
   0.114378589     0.5404688   -0.4100581     0.0000801   -0.0000144    -0.0000083   -0.0000044     0.0003925    0.0004971 
   0.114478614     0.5337851   -0.4237247     0.0001239    0.0000650     0.0000789    0.0000960     0.0005684    0.0008117 
   0.114578639     0.5247004   -0.4361086     0.0000993    0.0000671    -0.0000369   -0.0000442     0.0001495    0.0005585 
   0.114678664     0.5156184   -0.4504331    -0.0001203   -0.0000431     0.0000557    0.0000662     0.0006282    0.0003953 
   0.114778689     0.5074148   -0.4670661     0.0001751    0.0000292     0.0000081    0.0000734     0.0001734    0.0007213 
   0.114878714     0.5007329   -0.4781605     0.0001854    0.0000356     0.0000645   -0.0000415     0.0002771    0.0005453 
   0.114978739     0.4890845   -0.4870257     0.0000232    0.0000633    -0.0000200   -0.0001450     0.0005643    0.0008167 
   0.115078764     0.4785852   -0.5036809    -0.0000295   -0.0000673    -0.0000324    0.0001693     0.0003565    0.0007421 
   0.115178789     0.4688903   -0.5153201     0.0000661   -0.0000231     0.0000001   -0.0000459     0.0006246    0.0006730 
   0.115278814     0.4590698   -0.5247672    -0.0001158   -0.0000415     0.0000285   -0.0001069     0.0006512    0.0010961 
   0.115378839     0.4474255   -0.5312575     0.0000013    0.0000573    -0.0001078   -0.0000173     0.0005467    0.0008881 
   0.115478864     0.4410269   -0.5426542    -0.0000262    0.0000815     0.0000588   -0.0000480     0.0002522    0.0005652 
   0.115578889     0.4303595   -0.5539845    -0.0000933    0.0002119    -0.0002109    0.0000565     0.0002894    0.0011286 
   0.115678914     0.4162788   -0.5621843    -0.0000560    0.0000592     0.0000730    0.0001009     0.0007368    0.0004264 
   0.115778939     0.4069973   -0.5701776     0.0001655    0.0000052    -0.0000297   -0.0000818     0.0003669    0.0009172 
   0.115878964     0.3953480   -0.5794682     0.0000551   -0.0001781    -0.0000657    0.0000472     0.0010084    0.0005784 
   0.115978989     0.3833043   -0.5892660     0.0000658   -0.0000965    -0.0000162    0.0000052     0.0005409    0.0008735 
   0.116079015     0.3741174   -0.5960419    -0.0001549    0.0001451     0.0000235   -0.0001756     0.0007005    0.0003339 
   0.116179040     0.3604324   -0.6049245     0.0000135    0.0000290    -0.0000330   -0.0000728     0.0004914    0.0005975 
   0.116279065     0.3490161   -0.6111750    -0.0001491   -0.0001757     0.0000834    0.0000559     0.0006618    0.0008894 
   0.116379090     0.3393802   -0.6187459     0.0000584    0.0002064    -0.0000271    0.0000145     0.0004969    0.0010055 
   0.116479115     0.3265013   -0.6254870    -0.0000584    0.0000561    -0.0000072    0.0000430     0.0006149    0.0009356 
   0.116579140     0.3125529   -0.6307709    -0.0001068    0.0001032    -0.0000853    0.0000966     0.0005948    0.0010558 
   0.116679165     0.3009982   -0.6351983     0.0001106   -0.0001077    -0.0000309   -0.0000207     0.0004450    0.0002820 
   0.116779190     0.2889906   -0.6434603     0.0000810    0.0001996    -0.0001950    0.0000282    -0.0000066    0.0006068 
   0.116879215     0.2777718   -0.6465196    -0.0000518   -0.0001419    -0.0000303    0.0000315     0.0005490    0.0008090 
   0.116979240     0.2710763   -0.6490835     0.0001160   -0.0000340     0.0000232   -0.0000794     0.0003174    0.0007738 
   0.117079265     0.2560601   -0.6547584     0.0000208   -0.0003034    -0.0000342   -0.0000058     0.0004510    0.0006810 
   0.117179290     0.2417903   -0.6590412     0.0002334    0.0000395    -0.0000684    0.0000236     0.0011485    0.0007043 
   0.117279315     0.2310396   -0.6633734    -0.0002721   -0.0001325     0.0000007    0.0000042     0.0009856    0.0010558 
   0.117379340     0.2184891   -0.6651239    -0.0000374    0.0000973    -0.0000399    0.0000839     0.0002410    0.0009060 
   0.117479365     0.2061145   -0.6694084     0.0000585   -0.0003258    -0.0001074    0.0000357    -0.0000531    0.0002027 
   0.117579390     0.1915050   -0.6725418    -0.0002800   -0.0000655     0.0000244    0.0001199     0.0005292    0.0007750 
   0.117679415     0.1810931   -0.6776802    -0.0000331   -0.0000561    -0.0001223    0.0001117     0.0003995    0.0008077 
   0.117779440     0.1703403   -0.6738708    -0.0000100   -0.0002626    -0.0000726   -0.0000699     0.0005411    0.0006931 
   0.117879465     0.1556958   -0.6782437     0.0000486   -0.0000074     0.0000216   -0.0000144     0.0001440    0.0004281 
   0.117979490     0.1455345   -0.6785584    -0.0002248    0.0001286     0.0000789   -0.0001825     0.0005117    0.0006458 
   0.118079515     0.1357184   -0.6835408     0.0000201   -0.0001199     0.0000199    0.0000694     0.0002926    0.0010922 
   0.118179540     0.1222462   -0.6838253    -0.0000262   -0.0002136     0.0000475    0.0001664     0.0012008    0.0005068 
   0.118279565     0.1105081   -0.6846698     0.0000138   -0.0001853     0.0000143   -0.0000261     0.0002590    0.0008779 
   0.118379590     0.0977903   -0.6828958    -0.0001314    0.0000844    -0.0000104    0.0000899     0.0003142    0.0008327 
   0.118479615     0.0861326   -0.6844327    -0.0002659   -0.0001125     0.0001402   -0.0000898     0.0002663    0.0008046 
   0.118579640     0.0757645   -0.6830206     0.0001744   -0.0000669     0.0000497    0.0000282     0.0005296    0.0008246 
   0.118679665     0.0606665   -0.6819959    -0.0001707    0.0002167     0.0000956    0.0000665     0.0005219    0.0007215 
   0.118779690     0.0502710   -0.6837462    -0.0000398   -0.0002140    -0.0001130    0.0000207     0.0006344    0.0006226 
   0.118879715     0.0358548   -0.6820668     0.0000577    0.0001599     0.0000652    0.0000490     0.0002329    0.0007062 
   0.118979740     0.0231535   -0.6802810     0.0000661    0.0002552    -0.0000582   -0.0001057     0.0008471    0.0009741 
   0.119079765     0.0151919   -0.6807195     0.0001333   -0.0000178     0.0001247    0.0000815    -0.0003013    0.0012996 
   0.119179790     0.0020891   -0.6772166     0.0000924   -0.0000541    -0.0000900    0.0000985     0.0002568    0.0007238 
   0.119279815    -0.0076384   -0.6792016    -0.0002855   -0.0000003     0.0002499    0.0000883     0.0011574    0.0009230 
   0.119379840    -0.0203020   -0.6725837     0.0002429   -0.0000635     0.0000346   -0.0001444     0.0005996    0.0002127 
   0.119479865    -0.0343587   -0.6719044    -0.0001300    0.0000088     0.0000568    0.0000120     0.0007786    0.0006666 
   0.119579890    -0.0449228   -0.6680334    -0.0001346    0.0003391    -0.0000447    0.0000637     0.0004454    0.0007901 
   0.119679915    -0.0557982   -0.6665869    -0.0000016   -0.0000443    -0.0000246    0.0000268     0.0002306    0.0007432 
   0.119779940    -0.0655170   -0.6621069    -0.0000614   -0.0001582    -0.0000056   -0.0000520     0.0002418    0.0010880 
   0.119879965    -0.0764515   -0.6599401     0.0000351    0.0004180    -0.0000656   -0.0000835     0.0002123    0.0004870 
   0.119979990    -0.0896170   -0.6565834     0.0000455    0.0000373    -0.0000386    0.0001412     0.0006526    0.0006958 
   0.120080015    -0.0973437   -0.6500005     0.0000408   -0.0000600    -0.0000696   -0.0000573     0.0005730    0.0009268 
   0.120180040    -0.1125757   -0.6470294    -0.0003266    0.0000875     0.0001911    0.0000480     0.0004885    0.0009029 
   0.120280065    -0.1225491   -0.6436079     0.0001668    0.0002310    -0.0001179   -0.0000491     0.0007372    0.0004222 
   0.120380090    -0.1336118   -0.6361228    -0.0002645   -0.0001870     0.0001344    0.0000300     0.0002354    0.0004036 
   0.120480115    -0.1409217   -0.6322253     0.0001524   -0.0000109     0.0000653   -0.0001421     0.0003219    0.0008757 
   0.120580140    -0.1544346   -0.6280469     0.0000272   -0.0000264     0.0000741   -0.0001238     0.0005374    0.0007364 
   0.120680165    -0.1644707   -0.6213910     0.0000573   -0.0000395     0.0000484    0.0000751     0.0009851    0.0010607 
   0.120780190    -0.1780131   -0.6189013    -0.0001169    0.0000462     0.0000043    0.0000087     0.0007915    0.0006692 
   0.120880215    -0.1839103   -0.6108650    -0.0001174   -0.0002682    -0.0000314   -0.0000058     0.0005756    0.0004754 
   0.120980240    -0.1955242   -0.6034987     0.0000916    0.0003134     0.0001603    0.0000584     0.0000612    0.0007968 
   0.121080265    -0.2072966   -0.6008452     0.0001597    0.0003474     0.0000177   -0.0002276     0.0002858    0.0009861 
   0.121180290    -0.2157066   -0.5881751    -0.0000711    0.0003266     0.0000764    0.0001675     0.0002760    0.0010522 
   0.121280315    -0.2259657   -0.5867696    -0.0002366   -0.0000838     0.0000985    0.0000077     0.0005174    0.0010071 
   0.121380340    -0.2350715   -0.5775579     0.0000494    0.0000814     0.0000285   -0.0001787     0.0008486    0.0006998 
   0.121480365    -0.2485757   -0.5685502    -0.0000196    0.0000881     0.0000626    0.0000163     0.0004717    0.0007485 
   0.121580390    -0.2544023   -0.5615019    -0.0001357    0.0000169    -0.0000223    0.0002414     0.0005331    0.0011686 
   0.121680415    -0.2629482   -0.5525637     0.0003928   -0.0000280     0.0000290    0.0000233     0.0002801    0.0006328 
   0.121780440    -0.2730150   -0.5487841    -0.0000991    0.0004632    -0.0000220    0.0001190    -0.0000702    0.0003313 
   0.121880465    -0.2843729   -0.5362729     0.0003021   -0.0004810     0.0000177   -0.0001808     0.0003418    0.0008351 
   0.121980490    -0.2945693   -0.5279400    -0.0000179    0.0002616    -0.0000669    0.0000389     0.0002849    0.0005377 
   0.122080515    -0.2995022   -0.5159454    -0.0003350    0.0002581    -0.0000015   -0.0000383     0.0002976    0.0008460 
   0.122180540    -0.3086408   -0.5143372    -0.0001755   -0.0003209     0.0000243    0.0000219     0.0007341    0.0006516 
   0.122280565    -0.3169650   -0.4991125     0.0000865    0.0001636    -0.0000348    0.0001152     0.0008048    0.0006194 
   0.122380590    -0.3245108   -0.4899397    -0.0001661   -0.0000434    -0.0000049   -0.0000959     0.0003206    0.0007289 
   0.122480615    -0.3337388   -0.4836160    -0.0003220   -0.0001369     0.0000473    0.0002273     0.0007988    0.0005207 
   0.122580640    -0.3403078   -0.4720052     0.0004524    0.0000135     0.0000564   -0.0000301     0.0004781    0.0009009 
   0.122680665    -0.3467940   -0.4604173    -0.0001306    0.0000870    -0.0003305    0.0001691     0.0000747    0.0009015 
   0.122780690    -0.3568425   -0.4522245     0.0003659   -0.0000870    -0.0001365   -0.0000146     0.0002080    0.0011516 
   0.122880715    -0.3640924   -0.4379149    -0.0002198   -0.0001550     0.0000068   -0.0000167     0.0003965    0.0006546 
   0.122980740    -0.3699671   -0.4244865     0.0000856    0.0000388     0.0000494    0.0001019     0.0003747    0.0009608 
   0.123080765    -0.3744382   -0.4145807    -0.0000252   -0.0000768     0.0000114    0.0002047     0.0005988    0.0006158 
   0.123180790    -0.3833797   -0.4011771     0.0000351    0.0000763    -0.0000200    0.0000189     0.0009162    0.0012751 
   0.123280815    -0.3894872   -0.3907175     0.0000053   -0.0000861     0.0001528   -0.0001180     0.0003909    0.0010352 
   0.123380840    -0.3949616   -0.3808958     0.0000994    0.0001147     0.0000455   -0.0001734     0.0004749    0.0010215 
   0.123480865    -0.3981062   -0.3679020     0.0000076    0.0000184     0.0002211    0.0001739     0.0005341    0.0007736 
   0.123580890    -0.4059321   -0.3541082     0.0000565    0.0001998    -0.0000910    0.0000676     0.0000726    0.0002518 
   0.123680915    -0.4090768   -0.3434003    -0.0002246   -0.0002650    -0.0000031   -0.0000260     0.0001404    0.0005054 
   0.123780940    -0.4166874   -0.3275122     0.0006094    0.0003186     0.0000635    0.0002465     0.0004202    0.0003483 
   0.123880965    -0.4213248   -0.3143402    -0.0004060   -0.0003278    -0.0001019   -0.0002357    -0.0000091    0.0003224 
   0.123980990    -0.4227777   -0.2974055     0.0002195   -0.0000787    -0.0000236    0.0001990     0.0004034    0.0006708 
   0.124081016    -0.4244876   -0.2844451     0.0001743   -0.0001115     0.0000172   -0.0001747     0.0003940    0.0009236 
   0.124181041    -0.4269991   -0.2724067     0.0001344   -0.0004672     0.0000954   -0.0002438     0.0001567    0.0012346 
   0.124281066    -0.4345891   -0.2572203    -0.0001733   -0.0005257     0.0002084   -0.0002247     0.0003541    0.0004402 
   0.124381091    -0.4349823   -0.2436833     0.0002379    0.0000818     0.0001772   -0.0001175     0.0001569    0.0003454 
   0.124481116    -0.4354815   -0.2278519     0.0006873   -0.0002030    -0.0000136   -0.0001040     0.0002332    0.0008656 
   0.124581141    -0.4354549   -0.2086607    -0.0000690    0.0000604     0.0001012    0.0000695     0.0004647    0.0004746 
   0.124681166    -0.4395698   -0.1948085     0.0002957   -0.0000881     0.0000102    0.0001858     0.0007164    0.0003398 
   0.124781191    -0.4427991   -0.1812229     0.0000358   -0.0003820    -0.0000548    0.0001012     0.0002355    0.0008871 
   0.124881216    -0.4396827   -0.1659632    -0.0004219    0.0005886    -0.0003838    0.0003497     0.0003280    0.0008847 
   0.124981241    -0.4408369   -0.1500865    -0.0000905   -0.0002744     0.0001179   -0.0001811     0.0001985    0.0009259 
   0.125081266    -0.4403306   -0.1338131    -0.0001516    0.0002245    -0.0002130   -0.0002347     0.0008865    0.0013985 
   0.125181291    -0.4387134   -0.1178534    -0.0002095    0.0000633     0.0000831   -0.0001207     0.0004707    0.0010947 
   0.125281316    -0.4400446   -0.1006812     0.0001793    0.0004483     0.0000031    0.0000892     0.0004171    0.0009687 
   0.125381341    -0.4354721   -0.0844355    -0.0003778   -0.0001553    -0.0000703    0.0002321     0.0005793    0.0008242 
   0.125481366    -0.4301509   -0.0685168    -0.0000789   -0.0000909    -0.0001313    0.0000999     0.0005905    0.0006703 
   0.125581391    -0.4302319   -0.0528065     0.0000851   -0.0004891     0.0000334    0.0000488     0.0007371    0.0005591 
   0.125681416    -0.4242373   -0.0356179    -0.0001843   -0.0000530    -0.0001426    0.0002587     0.0001906    0.0013085 
   0.125781441    -0.4221808   -0.0197325    -0.0002204    0.0003706    -0.0001214   -0.0000921     0.0000021    0.0008623 
   0.125881466    -0.4149449   -0.0030398    -0.0000370   -0.0000271     0.0000935    0.0001325     0.0006375    0.0009385 
   0.125981491    -0.4073043    0.0132291     0.0000831    0.0002609     0.0002479    0.0000159     0.0001416    0.0012246 
   0.126081516    -0.4028502    0.0293186     0.0003504   -0.0004780     0.0001453    0.0004054    -0.0002362    0.0008093 
   0.126181541    -0.3948839    0.0453452    -0.0003050   -0.0000878     0.0002621   -0.0000227     0.0000786    0.0004776 
   0.126281566    -0.3884972    0.0650736     0.0003243    0.0002200     0.0000376    0.0000500     0.0003977    0.0003070 
   0.126381591    -0.3788502    0.0796689    -0.0000072    0.0001811     0.0001120   -0.0001972    -0.0000882    0.0006710 
   0.126481616    -0.3697757    0.0961723     0.0002341   -0.0002652     0.0000209   -0.0002115     0.0001315    0.0007119 
   0.126581641    -0.3607645    0.1121735     0.0000942    0.0000674     0.0002504    0.0002268     0.0003071    0.0005659 
   0.126681666    -0.3491265    0.1270971     0.0003011   -0.0001661     0.0000727   -0.0000664     0.0000398    0.0003536 
   0.126781691    -0.3363818    0.1449693    -0.0000897   -0.0000513    -0.0000463   -0.0000712     0.0006583    0.0005818 
   0.126881716    -0.3271627    0.1579806    -0.0000331    0.0002696     0.0002490   -0.0001692     0.0004828    0.0006246 
   0.126981741    -0.3136007    0.1718072     0.0001784   -0.0002651     0.0001807    0.0001281     0.0005517    0.0008115 
   0.127081766    -0.2987366    0.1868196     0.0002071    0.0004314    -0.0001800   -0.0001762    -0.0001055    0.0007760 
   0.127181791    -0.2862686    0.2021910    -0.0000617   -0.0002816    -0.0000657    0.0000885    -0.0000349    0.0009031 
   0.127281816    -0.2725375    0.2153350     0.0000016   -0.0000601    -0.0000526   -0.0001926     0.0008247    0.0006166 
   0.127381841    -0.2558748    0.2293974     0.0002853    0.0002953    -0.0002935    0.0002120     0.0001314    0.0003341 
   0.127481866    -0.2394136    0.2382730    -0.0003648    0.0001796     0.0001436    0.0000739     0.0001474    0.0002830 
   0.127581891    -0.2249506    0.2523710    -0.0000366    0.0001133     0.0000044   -0.0000042     0.0007720    0.0005308 
   0.127681916    -0.2080846    0.2639076     0.0001466   -0.0001916    -0.0001167   -0.0000569     0.0001038    0.0004830 
   0.127781941    -0.1890981    0.2738629    -0.0003558   -0.0000959     0.0001423    0.0000575     0.0001058    0.0005241 
   0.127881966    -0.1708829    0.2817813    -0.0000627   -0.0002217    -0.0001224    0.0000358     0.0000983    0.0005179 
   0.127981991    -0.1523313    0.2946271     0.0000631   -0.0001831     0.0000693   -0.0002042    -0.0000692    0.0004551 
   0.128082016    -0.1313636    0.3039864     0.0003148    0.0001326     0.0001572   -0.0002120     0.0004437    0.0010722 
   0.128182041    -0.1137600    0.3120909    -0.0000595    0.0004010    -0.0000314    0.0000315     0.0002961    0.0007111 
   0.128282066    -0.0921900    0.3168734     0.0000495    0.0000479    -0.0000427   -0.0001787     0.0003099    0.0005641 
   0.128382091    -0.0703004    0.3236385     0.0000759   -0.0002943    -0.0000228    0.0000044    -0.0000611    0.0008760 
   0.128482116    -0.0502555    0.3299033    -0.0001587   -0.0000079    -0.0001934   -0.0000436    -0.0001505    0.0005761 
   0.128582141    -0.0284700    0.3334634     0.0002121    0.0000355     0.0002057   -0.0001027     0.0003065    0.0008620 
   0.128682166    -0.0068901    0.3370621    -0.0000393    0.0000572     0.0000817   -0.0001036    -0.0000955    0.0008652 
   0.128782191     0.0152789    0.3393694    -0.0000072    0.0003475     0.0001001   -0.0002171     0.0003288    0.0005460 
   0.128882216     0.0368914    0.3417081    -0.0001642   -0.0002479     0.0000664    0.0001273    -0.0001701    0.0005499 
   0.128982241     0.0606615    0.3416985     0.0001389   -0.0001624    -0.0001909   -0.0000962    -0.0003803    0.0003067 
   0.129082266     0.0839249    0.3423363     0.0003024   -0.0000967     0.0001286    0.0001305     0.0003980    0.0005714 
   0.129182291     0.1050332    0.3406439     0.0000664    0.0001922     0.0001198   -0.0000559     0.0004233    0.0002299 
   0.129282316     0.1278137    0.3393669     0.0003282    0.0003169    -0.0000251   -0.0002351    -0.0001284    0.0006543 
   0.129382341     0.1504932    0.3359164     0.0000766    0.0001518     0.0000467    0.0000974    -0.0001587    0.0010072 
   0.129482366     0.1720148    0.3303294    -0.0004057   -0.0000203    -0.0000828   -0.0000559     0.0007419    0.0007270 
   0.129582391     0.1950833    0.3244628    -0.0000963   -0.0001054    -0.0000632   -0.0000450     0.0005466    0.0004298 
   0.129682416     0.2178509    0.3183749    -0.0000561   -0.0001051     0.0000128    0.0000970     0.0001163    0.0010014 
   0.129782441     0.2375161    0.3101689     0.0000272   -0.0000655    -0.0002487   -0.0000536     0.0005693    0.0005662 
   0.129882466     0.2598880    0.3002533    -0.0003178    0.0001689    -0.0001197   -0.0000925    -0.0001767    0.0008508 
   0.129982491     0.2802663    0.2929953    -0.0000868    0.0001213     0.0000120   -0.0001232     0.0007197    0.0010572 
   0.130082516     0.2996370    0.2827346     0.0002888    0.0002869    -0.0000148    0.0000587     0.0001943    0.0007884 
   0.130182541     0.3170719    0.2705122    -0.0000021   -0.0000184     0.0000610   -0.0000153     0.0001812    0.0009686 
   0.130282566     0.3367544    0.2583165    -0.0000665    0.0000157    -0.0000655    0.0000290     0.0002470    0.0001386 
   0.130382591     0.3561479    0.2483740    -0.0001435    0.0000068    -0.0000058    0.0000124     0.0003327    0.0004111 
   0.130482616     0.3743234    0.2328783    -0.0000860    0.0001693    -0.0001086   -0.0000111    -0.0002581    0.0012289 
   0.130582641     0.3912467    0.2202397    -0.0001065    0.0001386    -0.0000336   -0.0000232    -0.0002742    0.0009358 
   0.130682666     0.4067672    0.2042866    -0.0000226   -0.0000538    -0.0000956   -0.0000426     0.0001724    0.0008500 
   0.130782691     0.4216434    0.1893908     0.0000685    0.0000708     0.0000357    0.0000515     0.0001912    0.0004564 
   0.130882716     0.4375900    0.1733311    -0.0001491    0.0000956     0.0000991    0.0000855     0.0003050    0.0010686 
   0.130982741     0.4533235    0.1554705    -0.0001861    0.0000082     0.0000353   -0.0000773     0.0001366    0.0004492 
   0.131082766     0.4655008    0.1381711     0.0000394    0.0001684    -0.0000322   -0.0000332     0.0003275    0.0005444 
   0.131182791     0.4802074    0.1191607    -0.0002160   -0.0000637     0.0000751   -0.0000066     0.0003353    0.0007105 
   0.131282816     0.4885889    0.1023708    -0.0000249   -0.0002581    -0.0001203   -0.0000540     0.0003379    0.0007176 
   0.131382841     0.4995680    0.0834841     0.0005234   -0.0000790     0.0000275    0.0000809     0.0005511    0.0004977 
   0.131482866     0.5109060    0.0638266     0.0001528    0.0000463    -0.0000977    0.0000341     0.0000242    0.0006709 
   0.131582891     0.5204202    0.0438667    -0.0000777    0.0002208    -0.0000368   -0.0000550     0.0001112    0.0006301 
   0.131682916     0.5283034    0.0249475    -0.0001068   -0.0000044    -0.0000800    0.0000288    -0.0000560    0.0009966 
   0.131782941     0.5339798    0.0061068    -0.0002013    0.0000350    -0.0001409    0.0000824    -0.0002059    0.0003340 
   0.131882966     0.5403372   -0.0133074     0.0002232   -0.0000113     0.0000818    0.0000843     0.0006467    0.0006941 
   0.131982991     0.5456406   -0.0336672     0.0000200   -0.0002418    -0.0000740   -0.0000670     0.0000342    0.0005471 
   0.132083017     0.5501488   -0.0525949    -0.0001257   -0.0003671     0.0000406    0.0000572     0.0001859    0.0007001 
   0.132183042     0.5543777   -0.0708515    -0.0001631   -0.0002423    -0.0000044    0.0000795    -0.0005934    0.0007568 
   0.132283067     0.5575488   -0.0931174     0.0003321    0.0000406     0.0000227    0.0000663    -0.0001223    0.0007961 
   0.132383092     0.5586934   -0.1134128    -0.0001437    0.0001116    -0.0000999    0.0000193     0.0000751    0.0009932 
   0.132483117     0.5612778   -0.1318067    -0.0000444   -0.0001183     0.0000196    0.0000931    -0.0001070    0.0004254 
   0.132583142     0.5616295   -0.1489676    -0.0001249   -0.0000076     0.0000721    0.0002571     0.0001245    0.0005103 
   0.132683167     0.5622148   -0.1710220    -0.0001759    0.0000418    -0.0000337    0.0000473     0.0001655    0.0010698 
   0.132783192     0.5600758   -0.1888922    -0.0001352    0.0000159     0.0000188    0.0000608     0.0003135    0.0006433 
   0.132883217     0.5575143   -0.2094871     0.0000395    0.0001197     0.0000147    0.0001077     0.0007818    0.0010902 
   0.132983242     0.5551043   -0.2245881     0.0000426   -0.0003608    -0.0000171    0.0001059     0.0003061    0.0009005 
   0.133083267     0.5543876   -0.2450463    -0.0002313    0.0002623    -0.0001394    0.0001211    -0.0001554    0.0008791 
   0.133183292     0.5499095   -0.2640899    -0.0000586    0.0001751     0.0000870   -0.0000543     0.0002298    0.0009079 
   0.133283317     0.5458520   -0.2803046     0.0000029    0.0000388     0.0001228    0.0000691     0.0000188    0.0010251 
   0.133383342     0.5410272   -0.2971894    -0.0001582   -0.0001628    -0.0001530   -0.0000206    -0.0001263    0.0008668 
   0.133483367     0.5359463   -0.3144879    -0.0001960    0.0001745     0.0000332   -0.0000641    -0.0002378    0.0003642 
   0.133583392     0.5320477   -0.3306203    -0.0001526    0.0000829     0.0000396    0.0000669     0.0001564    0.0006752 
   0.133683417     0.5246992   -0.3486558    -0.0001464   -0.0003721    -0.0001294   -0.0000268    -0.0000015    0.0004503 
   0.133783442     0.5157732   -0.3621981    -0.0000074   -0.0003143     0.0001122    0.0001234     0.0000398    0.0004579 
   0.133883467     0.5099207   -0.3790446    -0.0001319   -0.0001483     0.0000446   -0.0000291     0.0003490    0.0005122 
   0.133983492     0.5010701   -0.3924661     0.0001928   -0.0002711    -0.0002183   -0.0001340     0.0001852    0.0005584 
   0.134083517     0.4938768   -0.4084173     0.0002003   -0.0001487     0.0000851   -0.0001167    -0.0003682    0.0009941 
   0.134183542     0.4846627   -0.4212078    -0.0000091   -0.0002389     0.0001299   -0.0002431     0.0000172    0.0009298 
   0.134283567     0.4738027   -0.4342495     0.0001500   -0.0000707    -0.0001652    0.0001871     0.0002022    0.0006053 
   0.134383592     0.4673609   -0.4481995    -0.0000376    0.0001503     0.0002112   -0.0001069     0.0003009    0.0003872 
   0.134483617     0.4565960   -0.4620357    -0.0002153   -0.0003824    -0.0000925    0.0001005     0.0000293    0.0003964 
   0.134583642     0.4469921   -0.4720231    -0.0000614    0.0002223    -0.0001066   -0.0000237    -0.0000680    0.0009537 
   0.134683667     0.4361621   -0.4861636    -0.0002791   -0.0002376     0.0000827    0.0000351     0.0004273    0.0007532 
   0.134783692     0.4260492   -0.4991054     0.0001224    0.0003572     0.0001814   -0.0000190     0.0004104    0.0008713 
   0.134883717     0.4173647   -0.5105344    -0.0000989   -0.0000066     0.0000111    0.0000646     0.0002200    0.0007383 
   0.134983742     0.4030133   -0.5185481    -0.0001332   -0.0001814     0.0000112    0.0001345    -0.0003239    0.0007522 
   0.135083767     0.3953826   -0.5322447     0.0002945   -0.0000553     0.0000536   -0.0001285    -0.0000660    0.0004897 
   0.135183792     0.3811490   -0.5404006     0.0000076    0.0000254    -0.0000484    0.0000452     0.0002083    0.0004986 
   0.135283817     0.3722758   -0.5481130     0.0000729    0.0000507     0.0002015   -0.0000671     0.0002629    0.0005242 
   0.135383842     0.3554600   -0.5585116     0.0002238    0.0002372     0.0001983    0.0001605    -0.0002286    0.0006593 
   0.135483867     0.3442798   -0.5632790    -0.0000885   -0.0001028    -0.0000392   -0.0001188     0.0002060    0.0003529 
   0.135583892     0.3337364   -0.5733091    -0.0001045   -0.0001758     0.0003153   -0.0000057     0.0004344    0.0008651 
   0.135683917     0.3245169   -0.5822778    -0.0003197    0.0002366     0.0000199   -0.0000791     0.0001984    0.0003002 
   0.135783942     0.3111090   -0.5884833     0.0000347    0.0001264     0.0001739   -0.0000375    -0.0001960    0.0005346 
   0.135883967     0.2959894   -0.5953789     0.0003661   -0.0002351    -0.0000100   -0.0001321    -0.0000215    0.0007451 
   0.135983992     0.2853410   -0.6023179     0.0003115    0.0001138    -0.0002094    0.0000629     0.0000570    0.0004397 
   0.136084017     0.2729550   -0.6105021     0.0002387    0.0001017    -0.0000520   -0.0000035     0.0003444    0.0003854 
   0.136184042     0.2626340   -0.6154508     0.0000070   -0.0002288    -0.0001455    0.0001005     0.0003332    0.0007708 
   0.136284067     0.2469072   -0.6162576     0.0000195   -0.0002189     0.0000129    0.0000145    -0.0002516    0.0008645 
   0.136384092     0.2372705   -0.6233087    -0.0001714   -0.0002109    -0.0002086    0.0001855     0.0000213    0.0009747 
   0.136484117     0.2199544   -0.6298626    -0.0005556    0.0000950    -0.0001775   -0.0003342    -0.0000522    0.0005353 
   0.136584142     0.2096537   -0.6336352    -0.0001943   -0.0003616    -0.0001221   -0.0003453     0.0002891    0.0009813 
   0.136684167     0.1959478   -0.6383289    -0.0002594   -0.0003574    -0.0003213   -0.0000349    -0.0001055    0.0007104 
   0.136784192     0.1816486   -0.6407543     0.0003562    0.0000121    -0.0001946   -0.0001312     0.0002524    0.0004526 
   0.136884217     0.1725883   -0.6460867    -0.0001329    0.0000741     0.0000028    0.0000750    -0.0003461    0.0006673 
   0.136984242     0.1568391   -0.6468366    -0.0002663    0.0000406     0.0000627    0.0002126    -0.0001044    0.0009006 
   0.137084267     0.1472746   -0.6488189    -0.0003017   -0.0001767    -0.0000209   -0.0001469    -0.0001954    0.0006848 
   0.137184292     0.1308288   -0.6524361    -0.0000860   -0.0001572     0.0000956    0.0000539    -0.0003920    0.0004503 
   0.137284317     0.1203913   -0.6516820     0.0002256   -0.0002241    -0.0000063   -0.0001083    -0.0001996    0.0012680 
   0.137384342     0.1059320   -0.6528279     0.0001288   -0.0000218     0.0003236    0.0000073     0.0004936    0.0006529 
   0.137484367     0.0916225   -0.6565302     0.0003628    0.0006144    -0.0000879   -0.0000321    -0.0002091    0.0008223 
   0.137584392     0.0828908   -0.6557335    -0.0000979   -0.0000676    -0.0001436    0.0000110     0.0001578    0.0003542 
   0.137684417     0.0717453   -0.6564223    -0.0004269   -0.0001355    -0.0001612   -0.0000563     0.0002043    0.0009893 
   0.137784442     0.0556599   -0.6579590     0.0001479    0.0002003     0.0002076    0.0001198    -0.0000488    0.0006635 
   0.137884467     0.0463193   -0.6548944    -0.0002930   -0.0000096    -0.0000164    0.0000377    -0.0000924    0.0003899 
   0.137984492     0.0301050   -0.6570656    -0.0003081    0.0003913     0.0001072   -0.0001650    -0.0001036    0.0007020 
   0.138084517     0.0178194   -0.6560991     0.0001668    0.0005079    -0.0000305   -0.0000621     0.0002126    0.0007786 
   0.138184542     0.0055602   -0.6526653    -0.0000680   -0.0002258     0.0000709   -0.0001298     0.0000133    0.0005144 
   0.138284567    -0.0077041   -0.6542866     0.0003024    0.0002435    -0.0000969    0.0001518    -0.0000950    0.0006963 
   0.138384592    -0.0187552   -0.6524842    -0.0001120   -0.0000492     0.0000015    0.0000472    -0.0003070    0.0009635 
   0.138484617    -0.0276762   -0.6488373    -0.0000001    0.0000504    -0.0001293   -0.0001772     0.0004823    0.0007391 
   0.138584642    -0.0403548   -0.6455171     0.0001249   -0.0001144     0.0000847   -0.0001390    -0.0000546    0.0001439 
   0.138684667    -0.0545060   -0.6457992     0.0003836    0.0004041    -0.0002917   -0.0000063     0.0000272    0.0008965 
   0.138784692    -0.0622314   -0.6438160     0.0000886    0.0001973     0.0001996   -0.0000595     0.0003552    0.0004520 
   0.138884717    -0.0739624   -0.6382884     0.0000278    0.0001149    -0.0000831    0.0000616     0.0000772    0.0003605 
   0.138984742    -0.0885282   -0.6343949    -0.0000793    0.0002378     0.0000502    0.0000614     0.0000091    0.0003642 
   0.139084767    -0.1025863   -0.6317902    -0.0000359   -0.0002097    -0.0001120    0.0000179    -0.0000621    0.0008462 
   0.139184792    -0.1115498   -0.6290320     0.0003490   -0.0002562    -0.0003127    0.0001642     0.0000932    0.0005554 
   0.139284817    -0.1209292   -0.6230029    -0.0001466   -0.0001263    -0.0000927   -0.0000921     0.0002813    0.0006635 
   0.139384842    -0.1353781   -0.6206297    -0.0000298   -0.0001277    -0.0000741   -0.0001187     0.0001519    0.0007068 
   0.139484867    -0.1433994   -0.6158680     0.0006139   -0.0002632    -0.0000708    0.0001552    -0.0001623    0.0008265 
   0.139584892    -0.1568390   -0.6087596     0.0003791    0.0003334    -0.0001097   -0.0001822     0.0003003    0.0002714 
   0.139684917    -0.1678487   -0.6050983    -0.0002172   -0.0000554    -0.0001228    0.0000858     0.0000801    0.0004991 
   0.139784942    -0.1759114   -0.6022197    -0.0000061   -0.0001428    -0.0000318   -0.0001701    -0.0001804   -0.0000444 
   0.139884967    -0.1860062   -0.5926068     0.0000345    0.0000530     0.0002047   -0.0001867     0.0000180    0.0003136 
   0.139984992    -0.1980309   -0.5876420     0.0003414    0.0005751     0.0000385    0.0002905     0.0002459    0.0000838 
   0.140085018    -0.2092943   -0.5813355     0.0000178   -0.0000992    -0.0000413   -0.0000389     0.0003179    0.0007127 
   0.140185043    -0.2190267   -0.5730599    -0.0001498   -0.0002547    -0.0004020   -0.0000665    -0.0002331    0.0009240 
   0.140285068    -0.2283276   -0.5680917     0.0002335    0.0000626     0.0000667    0.0001132     0.0001282    0.0006375 
   0.140385093    -0.2383919   -0.5601532    -0.0001308    0.0001335     0.0000235   -0.0000211     0.0001717    0.0005582 
   0.140485118    -0.2501675   -0.5545385     0.0002441   -0.0001739    -0.0001115   -0.0001356    -0.0004669    0.0011668 
   0.140585143    -0.2579692   -0.5517617    -0.0001900   -0.0002961    -0.0000779   -0.0001830     0.0002379    0.0002498 
   0.140685168    -0.2689615   -0.5414416     0.0002627    0.0001036     0.0000340   -0.0000760     0.0001914    0.0006117 
   0.140785193    -0.2755968   -0.5306258    -0.0000944   -0.0000293     0.0001253   -0.0000239     0.0001688    0.0005822 
   0.140885218    -0.2863530   -0.5243285    -0.0000340   -0.0000148     0.0001792    0.0000510    -0.0003373    0.0004305 
   0.140985243    -0.2966562   -0.5157805     0.0001470    0.0000340    -0.0000835    0.0003068    -0.0001195    0.0003443 
   0.141085268    -0.3064178   -0.5109522     0.0001351    0.0000163     0.0001209    0.0000769     0.0000452    0.0002090 
   0.141185293    -0.3148529   -0.4962889     0.0000177   -0.0003931     0.0000120    0.0001284     0.0003105    0.0009008 
   0.141285318    -0.3208543   -0.4917449     0.0002211   -0.0005919    -0.0001211    0.0000630    -0.0003695    0.0008138 
   0.141385343    -0.3294922   -0.4843342    -0.0002439   -0.0002385    -0.0000319   -0.0000378     0.0001778    0.0007373 
   0.141485368    -0.3359965   -0.4708463    -0.0000283   -0.0002983     0.0000590   -0.0002923     0.0005113    0.0000282 
   0.141585393    -0.3444606   -0.4588445     0.0000463   -0.0002974     0.0001507   -0.0002074     0.0000136    0.0005244 
   0.141685418    -0.3528733   -0.4567829     0.0003506    0.0001417     0.0000727   -0.0002036     0.0000076    0.0007308 
   0.141785443    -0.3623746   -0.4412736     0.0001830    0.0002055     0.0002000    0.0001834    -0.0006804    0.0006303 
   0.141885468    -0.3680868   -0.4306787    -0.0003684   -0.0004668     0.0000948    0.0001969    -0.0001321    0.0004537 
   0.141985493    -0.3753522   -0.4203406    -0.0000627   -0.0002400     0.0002799   -0.0001301    -0.0005209    0.0004487 
   0.142085518    -0.3820716   -0.4096259     0.0000773   -0.0003199     0.0002888   -0.0001266    -0.0002462    0.0005565 
   0.142185543    -0.3894503   -0.4001332     0.0003930    0.0001668     0.0000048    0.0003574    -0.0001245    0.0005860 
   0.142285568    -0.3949783   -0.3895100     0.0002785    0.0000136    -0.0000246   -0.0002325    -0.0002624    0.0002172 
   0.142385593    -0.3999910   -0.3775623    -0.0003040   -0.0002804    -0.0001321    0.0000064    -0.0000140    0.0006247 
   0.142485618    -0.4080603   -0.3639284     0.0004404    0.0005126    -0.0000426   -0.0000199    -0.0003069    0.0007528 
   0.142585643    -0.4104137   -0.3542294     0.0000865    0.0000373    -0.0000492   -0.0000806    -0.0000410    0.0007959 
   0.142685668    -0.4128681   -0.3421471     0.0000772   -0.0002004    -0.0000780   -0.0004401    -0.0000645    0.0003534 
   0.142785693    -0.4209180   -0.3286670     0.0000734    0.0000401     0.0000952   -0.0001536    -0.0002959    0.0007566 
   0.142885718    -0.4220111   -0.3140021     0.0000186    0.0001927     0.0000558   -0.0001277    -0.0007300    0.0008909 
   0.142985743    -0.4285277   -0.3042686    -0.0003022    0.0001398     0.0000917    0.0001126     0.0002911    0.0001098 
   0.143085768    -0.4332941   -0.2933202    -0.0001626    0.0002232     0.0000541   -0.0000304    -0.0001016    0.0005741 
   0.143185793    -0.4349158   -0.2758919    -0.0001942    0.0001950     0.0002285   -0.0000505    -0.0005452    0.0001775 
   0.143285818    -0.4387836   -0.2662166    -0.0003185    0.0002439    -0.0000512   -0.0000795    -0.0003027    0.0012919 
   0.143385843    -0.4429605   -0.2517781     0.0001726    0.0001386     0.0003115   -0.0000936    -0.0000516    0.0005756 
   0.143485868    -0.4459773   -0.2374118    -0.0000594    0.0002709    -0.0000886    0.0001803     0.0002860    0.0005854 
   0.143585893    -0.4476246   -0.2235766    -0.0002647    0.0000468     0.0000217   -0.0001976    -0.0007376    0.0003988 
   0.143685918    -0.4479222   -0.2091224     0.0000907   -0.0003538    -0.0000699    0.0000726    -0.0001779    0.0004303 
   0.143785943    -0.4530820   -0.1985880    -0.0000117    0.0002053     0.0001603    0.0000966    -0.0002588    0.0003041 
   0.143885968    -0.4522962   -0.1839541     0.0000765    0.0002120    -0.0002673   -0.0000242    -0.0002094    0.0002664 
   0.143985993    -0.4519425   -0.1695469     0.0000741   -0.0000357     0.0002039   -0.0000617    -0.0001483    0.0004607 
   0.144086018    -0.4550179   -0.1534770     0.0002580    0.0002725    -0.0000790   -0.0001092     0.0000211    0.0005474 
   0.144186043    -0.4551484   -0.1428880    -0.0002244   -0.0000409    -0.0002199    0.0001497    -0.0004403    0.0006507 
   0.144286068    -0.4520107   -0.1275722    -0.0000805   -0.0002685     0.0001094   -0.0000160    -0.0002315    0.0007258 
   0.144386093    -0.4500108   -0.1090982    -0.0000546   -0.0001999    -0.0000546   -0.0000185    -0.0000403    0.0001350 
   0.144486118    -0.4501895   -0.0962230     0.0001252    0.0000978     0.0001786   -0.0001994    -0.0000805   -0.0004033 
   0.144586143    -0.4481212   -0.0806071     0.0000408    0.0002949    -0.0002190   -0.0002994     0.0000236    0.0008874 
   0.144686168    -0.4470454   -0.0697062     0.0005021    0.0001147     0.0000277    0.0002517     0.0000983    0.0010050 
   0.144786193    -0.4448449   -0.0512355    -0.0002288   -0.0002337     0.0001183    0.0000182    -0.0002480    0.0005584 
   0.144886218    -0.4421841   -0.0375621     0.0001166   -0.0000743    -0.0001672   -0.0000482    -0.0002182    0.0006632 
   0.144986243    -0.4372523   -0.0219713     0.0004378   -0.0001042    -0.0001302    0.0000480    -0.0000232    0.0005995 
   0.145086268    -0.4320474   -0.0081715     0.0002252    0.0001000    -0.0003239    0.0000639    -0.0002437    0.0003284 
   0.145186293    -0.4273608    0.0071574     0.0000440   -0.0001142     0.0000716    0.0000338    -0.0003785    0.0002812 
   0.145286318    -0.4240487    0.0227394    -0.0001750    0.0001372    -0.0000363    0.0001391     0.0001056    0.0003216 
   0.145386343    -0.4160320    0.0358873    -0.0002681   -0.0000800    -0.0001211   -0.0002888    -0.0001186    0.0005294 
   0.145486368    -0.4111708    0.0539247    -0.0000471   -0.0000778    -0.0000072    0.0003184    -0.0004974    0.0009191 
   0.145586393    -0.4044874    0.0673873    -0.0001296   -0.0003597     0.0000202    0.0000367    -0.0000409    0.0004479 
   0.145686418    -0.3979868    0.0817484     0.0000793    0.0003156     0.0001580   -0.0000350    -0.0004401   -0.0001568 
   0.145786443    -0.3882726    0.0956156     0.0001517    0.0002269     0.0000190   -0.0000155    -0.0004835    0.0008306 
   0.145886468    -0.3819407    0.1107311     0.0000857   -0.0000263     0.0000309   -0.0001479    -0.0003818    0.0001162 
   0.145986493    -0.3730789    0.1264376    -0.0000766   -0.0000434     0.0000130   -0.0000902    -0.0004069    0.0006732 
   0.146086518    -0.3621931    0.1402126    -0.0001552    0.0000754    -0.0001382   -0.0000468    -0.0002827    0.0008136 
   0.146186543    -0.3525727    0.1544258     0.0000947    0.0001241    -0.0003074    0.0001329     0.0000270    0.0002866 
   0.146286568    -0.3421777    0.1692532     0.0003263    0.0000232    -0.0001640   -0.0000282    -0.0003045    0.0000755 
   0.146386593    -0.3328758    0.1810718    -0.0001055    0.0002378    -0.0001454   -0.0000705    -0.0003374    0.0002246 
   0.146486618    -0.3186694    0.1945625     0.0002610    0.0001304    -0.0000679   -0.0000997    -0.0003504    0.0001700 
   0.146586643    -0.3071037    0.2074606    -0.0002576   -0.0000445     0.0001489   -0.0001254    -0.0003440    0.0004373 
   0.146686668    -0.2942953    0.2173733    -0.0000114    0.0000282     0.0000194    0.0003513    -0.0003282    0.0008691 
   0.146786693    -0.2809524    0.2329284     0.0000726   -0.0000866    -0.0000735    0.0001486    -0.0001735    0.0006064 
   0.146886718    -0.2672865    0.2434362    -0.0000366   -0.0000958    -0.0000120   -0.0000624    -0.0001253    0.0008077 
   0.146986743    -0.2535000    0.2523955     0.0002032   -0.0001443     0.0000919   -0.0000795    -0.0001863    0.0005385 
   0.147086768    -0.2365135    0.2629594    -0.0001539   -0.0000919     0.0001596   -0.0001867    -0.0005790    0.0003596 
   0.147186793    -0.2228705    0.2733613     0.0000531    0.0000439     0.0001500   -0.0001971    -0.0002777    0.0003230 
   0.147286818    -0.2063202    0.2849742    -0.0000521   -0.0000762     0.0000271    0.0000682    -0.0000830    0.0004996 
   0.147386843    -0.1904815    0.2942681     0.0001179    0.0000452     0.0001577   -0.0000931    -0.0001916    0.0004992 
   0.147486868    -0.1732872    0.3018335    -0.0001275   -0.0000718    -0.0001785   -0.0000540    -0.0008041    0.0004628 
   0.147586893    -0.1546853    0.3118526     0.0002246    0.0001961     0.0000713   -0.0000575    -0.0005075    0.0006327 
   0.147686918    -0.1369172    0.3177856     0.0000193    0.0000240    -0.0001789    0.0000187    -0.0003324    0.0004838 
   0.147786943    -0.1170157    0.3243843     0.0000063   -0.0001344    -0.0001330   -0.0001774    -0.0003438    0.0006636 
   0.147886968    -0.0976763    0.3311642    -0.0000378   -0.0000601    -0.0000397   -0.0000132    -0.0002565    0.0007125 
   0.147986993    -0.0803719    0.3366232     0.0000417    0.0002033    -0.0000087    0.0000317    -0.0004257    0.0005416 
   0.148087019    -0.0622483    0.3417247     0.0001133   -0.0002384    -0.0001325    0.0000569     0.0000418    0.0006424 
   0.148187044    -0.0417111    0.3447570     0.0002702    0.0000235    -0.0001552   -0.0001868    -0.0002879    0.0003080 
   0.148287069    -0.0215584    0.3489608     0.0002903    0.0001639     0.0001587    0.0001053    -0.0006597    0.0001572 
   0.148387094    -0.0014415    0.3500784    -0.0001117    0.0000482     0.0000961    0.0000632    -0.0006426    0.0004087 
   0.148487119     0.0192214    0.3509577     0.0000010   -0.0000709    -0.0000017   -0.0000995    -0.0001213    0.0007071 
   0.148587144     0.0383125    0.3519440     0.0001541    0.0001602     0.0001676    0.0000049     0.0002296    0.0005154 
   0.148687169     0.0586463    0.3511234    -0.0001195    0.0000542    -0.0000448   -0.0000988    -0.0003077    0.0003750 
   0.148787194     0.0809823    0.3501044    -0.0000123    0.0001425     0.0000549    0.0000605    -0.0004154    0.0004394 
   0.148887219     0.1013073    0.3495333    -0.0000369    0.0001095    -0.0000824   -0.0000321    -0.0002408    0.0007436 
   0.148987244     0.1236322    0.3468136    -0.0000020    0.0002709    -0.0000305   -0.0000034    -0.0002591    0.0001699 
   0.149087269     0.1418921    0.3416801    -0.0000444    0.0001039    -0.0000374   -0.0000692    -0.0004960    0.0004087 
   0.149187294     0.1626926    0.3373666     0.0002359   -0.0000511     0.0000892   -0.0000390    -0.0005893    0.0002237 
   0.149287319     0.1819108    0.3292488    -0.0000313    0.0000834    -0.0001118   -0.0000886    -0.0001781   -0.0002365 
   0.149387344     0.2039594    0.3262484     0.0001570   -0.0001108    -0.0000065    0.0000199    -0.0007337    0.0002860 
   0.149487369     0.2225132    0.3170540    -0.0000714   -0.0000389     0.0000168    0.0000963     0.0002812    0.0001883 
   0.149587394     0.2415621    0.3105476    -0.0001395    0.0000413     0.0000828   -0.0000469    -0.0003093   -0.0002588 
   0.149687419     0.2620505    0.2980160     0.0001102    0.0001907     0.0000622   -0.0001089    -0.0002295    0.0002774 
   0.149787444     0.2781915    0.2887791     0.0002641   -0.0002942     0.0000491   -0.0000110    -0.0003046    0.0004200 
   0.149887469     0.2989716    0.2797971    -0.0002352    0.0002706    -0.0000880   -0.0000669    -0.0000623    0.0000665 
   0.149987494     0.3179245    0.2670910    -0.0000518    0.0002659    -0.0001643    0.0000770    -0.0002398    0.0002555 
   0.150087519     0.3342413    0.2559181    -0.0000136   -0.0000305     0.0000219   -0.0000314    -0.0004175    0.0000969 
   0.150187544     0.3502845    0.2449889    -0.0003079    0.0001888     0.0000216    0.0001020    -0.0001534    0.0004980 
   0.150287569     0.3682843    0.2277473    -0.0002106   -0.0001232    -0.0001221    0.0000523    -0.0002740    0.0002305 
   0.150387594     0.3842503    0.2144994     0.0000528    0.0000599     0.0001310    0.0001753    -0.0002852    0.0001350 
   0.150487619     0.3976349    0.1999952    -0.0003373   -0.0000296    -0.0002519    0.0000287    -0.0000558    0.0004660 
   0.150587644     0.4127029    0.1837476    -0.0002295    0.0002243    -0.0000010   -0.0000286     0.0005665    0.0001406 
   0.150687669     0.4259824    0.1674378    -0.0001643   -0.0000988     0.0000517    0.0000455    -0.0002101    0.0002852 
   0.150787694     0.4393026    0.1515674     0.0002401   -0.0002820    -0.0000418    0.0001777    -0.0000643    0.0004148 
   0.150887719     0.4493909    0.1336243    -0.0000706    0.0001865    -0.0000870   -0.0000367    -0.0003797    0.0002499 
   0.150987744     0.4614108    0.1185827     0.0002975    0.0000292     0.0001075   -0.0000620    -0.0000990    0.0000113 
   0.151087769     0.4715492    0.0962567    -0.0001266   -0.0000506     0.0002404   -0.0000278    -0.0004820    0.0002318 
   0.151187794     0.4803462    0.0796863     0.0000183   -0.0004580    -0.0000839   -0.0002375     0.0000567    0.0001816 
   0.151287819     0.4901032    0.0608762    -0.0004581   -0.0000278    -0.0000620   -0.0001390    -0.0000535    0.0006467 
   0.151387844     0.4984302    0.0427042     0.0002137   -0.0000884     0.0000097    0.0001197    -0.0002645    0.0004820 
   0.151487869     0.5060033    0.0245281    -0.0001216    0.0000262    -0.0001823   -0.0000698     0.0001516    0.0003039 
   0.151587894     0.5115108    0.0048566     0.0001250    0.0002236     0.0000151   -0.0001411    -0.0003072    0.0000021 
   0.151687919     0.5162505   -0.0157240     0.0004193   -0.0000503    -0.0000070    0.0000132    -0.0001865    0.0003364 
   0.151787944     0.5221130   -0.0362604    -0.0002255    0.0003793    -0.0001008    0.0000094    -0.0001834    0.0002919 
   0.151887969     0.5256158   -0.0536710    -0.0003476    0.0000554     0.0000334    0.0000323     0.0000666    0.0001883 
   0.151987994     0.5288482   -0.0770632    -0.0000722   -0.0001296    -0.0000088    0.0000884    -0.0006097    0.0008081 
   0.152088019     0.5306519   -0.0914647    -0.0001507   -0.0001234    -0.0001260   -0.0000487     0.0001872    0.0000519 
   0.152188044     0.5301749   -0.1122630     0.0000354   -0.0000825     0.0002146   -0.0001028    -0.0000730    0.0006409 
   0.152288069     0.5335308   -0.1308116     0.0002969   -0.0000634    -0.0001922   -0.0000211     0.0001949    0.0002841 
   0.152388094     0.5316229   -0.1513071    -0.0003271   -0.0002659    -0.0000673   -0.0001910    -0.0005184    0.0001912 
   0.152488119     0.5306010   -0.1683762     0.0000195    0.0000675    -0.0000440   -0.0001358    -0.0005378    0.0002741 
   0.152588144     0.5299067   -0.1883293     0.0003590    0.0001943     0.0001133   -0.0001027    -0.0002684    0.0004687 
   0.152688169     0.5267256   -0.2060206     0.0000387   -0.0001332    -0.0000995   -0.0002253    -0.0008780   -0.0004086 
   0.152788194     0.5235855   -0.2257735    -0.0001314    0.0001125     0.0000406   -0.0000280    -0.0000666    0.0002466 
   0.152888219     0.5241073   -0.2471289    -0.0001288   -0.0004121     0.0000029    0.0000152    -0.0003076    0.0003079 
   0.152988244     0.5145400   -0.2624159     0.0002594   -0.0000511    -0.0000832   -0.0000529    -0.0001559   -0.0000557 
   0.153088269     0.5133374   -0.2800091     0.0001919    0.0001692     0.0000365   -0.0000773     0.0003679    0.0002786 
   0.153188294     0.5048786   -0.3006612     0.0001740    0.0001090    -0.0000600    0.0000676    -0.0003953   -0.0000350 
   0.153288319     0.4981692   -0.3149185     0.0000443    0.0002329    -0.0000913    0.0000622    -0.0001300    0.0002340 
   0.153388344     0.4962320   -0.3264442    -0.0002444   -0.0000167     0.0003447    0.0004554    -0.0000161    0.0000108 
   0.153488369     0.4852826   -0.3484297    -0.0001623   -0.0002654    -0.0000355   -0.0001171    -0.0000282    0.0005395 
   0.153588394     0.4818690   -0.3606124    -0.0001050    0.0001182    -0.0001970   -0.0002527    -0.0000891    0.0003825 
   0.153688419     0.4702375   -0.3766977     0.0002888   -0.0000792    -0.0000126    0.0001610    -0.0001378    0.0005538 
   0.153788444     0.4626298   -0.3913758     0.0002055    0.0001978    -0.0001358    0.0000205    -0.0006555    0.0002558 
   0.153888469     0.4552055   -0.4063945     0.0001666    0.0002415    -0.0000449    0.0000326    -0.0003386    0.0002002 
   0.153988494     0.4455510   -0.4231688     0.0003009   -0.0003411    -0.0002891   -0.0000864    -0.0002058    0.0009414 
   0.154088519     0.4355516   -0.4351954     0.0003377   -0.0005103    -0.0000925    0.0003152    -0.0002171    0.0003710 
   0.154188544     0.4216251   -0.4458152     0.0000891   -0.0001216    -0.0001873    0.0001130    -0.0001691    0.0002879 
   0.154288569     0.4116916   -0.4600224    -0.0001972    0.0000827    -0.0000440   -0.0002793    -0.0002383    0.0003419 
   0.154388594     0.4026025   -0.4717749     0.0001047    0.0000160    -0.0001033   -0.0001801     0.0000490    0.0001427 
   0.154488619     0.3892491   -0.4870030    -0.0002097   -0.0003472    -0.0000387   -0.0000510    -0.0005053    0.0003836 
   0.154588644     0.3790198   -0.4945850    -0.0003629   -0.0003958    -0.0000534    0.0000256    -0.0002418    0.0003486 
   0.154688669     0.3689577   -0.5070418     0.0000381   -0.0005037    -0.0001839   -0.0000767     0.0002109    0.0003571 
   0.154788694     0.3586895   -0.5179476     0.0000575    0.0003961     0.0001362   -0.0001997    -0.0004084    0.0008051 
   0.154888719     0.3462062   -0.5235320     0.0000084    0.0002802    -0.0003443   -0.0001445    -0.0003743    0.0001948 
   0.154988744     0.3340400   -0.5349042     0.0000835    0.0002329     0.0000267   -0.0002751    -0.0001136    0.0002378 
   0.155088769     0.3183177   -0.5438055    -0.0004090    0.0003314    -0.0002086   -0.0000790    -0.0002384    0.0000839 
   0.155188794     0.3070559   -0.5543245     0.0001083    0.0002253    -0.0000141   -0.0000440     0.0001026    0.0001391 
   0.155288819     0.2923685   -0.5583864     0.0000743    0.0000584    -0.0000193    0.0000258    -0.0001419    0.0004779 
   0.155388844     0.2781994   -0.5667914    -0.0000243   -0.0000893     0.0000514   -0.0002466    -0.0006784   -0.0000767 
   0.155488869     0.2653374   -0.5715245    -0.0001694    0.0001487     0.0001033    0.0000722    -0.0002411   -0.0000535 
   0.155588894     0.2555520   -0.5823985    -0.0001486   -0.0000519     0.0004884    0.0001991     0.0001359   -0.0002411 
   0.155688919     0.2396310   -0.5907138    -0.0004694   -0.0000064     0.0000148   -0.0001536    -0.0002928    0.0002797 
   0.155788944     0.2279332   -0.5942121     0.0001746   -0.0000383    -0.0001027   -0.0001859     0.0002960   -0.0001035 
   0.155888969     0.2156594   -0.6011062     0.0003527   -0.0000940     0.0000621    0.0000072    -0.0006137    0.0002149 
   0.155988994     0.2005576   -0.6078314     0.0002566    0.0004081    -0.0002501   -0.0001352    -0.0004919    0.0002989 
   0.156089020     0.1848906   -0.6125252    -0.0002395   -0.0002516     0.0000587   -0.0002926    -0.0005243    0.0004170 
   0.156189045     0.1739961   -0.6120604     0.0004946   -0.0002110    -0.0000871   -0.0000309     0.0002252    0.0003118 
   0.156289070     0.1572825   -0.6167110    -0.0000888   -0.0001617    -0.0002280   -0.0001740    -0.0008300    0.0003718 
   0.156389095     0.1456557   -0.6198785    -0.0001152   -0.0001766     0.0001299   -0.0000755    -0.0001968    0.0004473 
   0.156489120     0.1347972   -0.6187437     0.0002413   -0.0000780     0.0000284   -0.0002337    -0.0002067    0.0001456 
   0.156589145     0.1229786   -0.6217853     0.0001909   -0.0004805    -0.0000061    0.0000583    -0.0001600   -0.0000626 
   0.156689170     0.1020759   -0.6273074     0.0001561   -0.0000964    -0.0001075   -0.0000670    -0.0004736    0.0000998 
   0.156789195     0.0904713   -0.6288049    -0.0002420   -0.0000780     0.0001386   -0.0000908    -0.0001049    0.0000302 
   0.156889220     0.0750688   -0.6298632     0.0003699    0.0001377    -0.0001615    0.0000166     0.0000565   -0.0000562 
   0.156989245     0.0658805   -0.6293141     0.0000463   -0.0001025     0.0001894   -0.0000469    -0.0004223    0.0001540 
   0.157089270     0.0512085   -0.6286261    -0.0000682   -0.0001275     0.0001129    0.0001156    -0.0006333    0.0000270 
   0.157189295     0.0391298   -0.6322219     0.0003071    0.0003938     0.0002800    0.0001982    -0.0004724    0.0000084 
   0.157289320     0.0241406   -0.6285430    -0.0001311    0.0000829     0.0000117    0.0000602    -0.0004589   -0.0003346 
   0.157389345     0.0175549   -0.6301817     0.0001370   -0.0000217     0.0001559    0.0001638    -0.0001914    0.0002147 
   0.157489370    -0.0003897   -0.6287929     0.0000302    0.0003389    -0.0002155   -0.0002371    -0.0001156    0.0003912 
   0.157589395    -0.0158650   -0.6284188     0.0002761    0.0004107     0.0000560    0.0000364     0.0001723   -0.0000910 
   0.157689420    -0.0242809   -0.6279845    -0.0002947    0.0001579    -0.0001291   -0.0001170    -0.0003180   -0.0001777 
   0.157789445    -0.0365388   -0.6249080     0.0000055    0.0001359     0.0001267    0.0000705     0.0004300   -0.0000837 
   0.157889470    -0.0496271   -0.6214594     0.0002165    0.0002113     0.0001659    0.0001148    -0.0003752   -0.0000203 
   0.157989495    -0.0640276   -0.6170590     0.0003424   -0.0001553    -0.0000183    0.0000196    -0.0003077    0.0000360 
   0.158089520    -0.0746481   -0.6159998    -0.0000132   -0.0002872    -0.0000609   -0.0001397     0.0001039   -0.0003672 
   0.158189545    -0.0919026   -0.6137668     0.0005011   -0.0000889    -0.0002932    0.0000028     0.0000899    0.0003422 
   0.158289570    -0.1011890   -0.6106670    -0.0000679    0.0002292     0.0002356   -0.0000767    -0.0001166   -0.0000575 
   0.158389595    -0.1118326   -0.6082613    -0.0003338    0.0000656    -0.0000653   -0.0000479     0.0000105    0.0000653 
   0.158489620    -0.1257979   -0.5998389     0.0000279    0.0000855     0.0000479    0.0000306    -0.0001273    0.0001846 
   0.158589645    -0.1373083   -0.5993409    -0.0004164    0.0000384    -0.0000505   -0.0001048    -0.0000780    0.0002586 
   0.158689670    -0.1483248   -0.5908844    -0.0000609    0.0001323    -0.0000116    0.0000516    -0.0003600   -0.0000975 
   0.158789695    -0.1602575   -0.5865057    -0.0003046    0.0001419    -0.0000400   -0.0000265    -0.0000495    0.0002405 
   0.158889720    -0.1701322   -0.5842882    -0.0002193    0.0003404    -0.0002414   -0.0001501    -0.0001695   -0.0001229 
   0.158989745    -0.1815555   -0.5771891    -0.0000570   -0.0000991     0.0000884    0.0001712    -0.0006315    0.0000340 
   0.159089770    -0.1930025   -0.5728483     0.0001485    0.0000436     0.0003075    0.0000427    -0.0000393    0.0000795 
   0.159189795    -0.2037621   -0.5639513    -0.0000862   -0.0000205    -0.0000492   -0.0000958    -0.0002306   -0.0002518 
   0.159289820    -0.2135458   -0.5602237     0.0000733    0.0000821     0.0002637    0.0000145    -0.0003582    0.0003883 
   0.159389845    -0.2241140   -0.5531865     0.0001831    0.0000048     0.0000772   -0.0000662     0.0001548   -0.0002992 
   0.159489870    -0.2359567   -0.5480583    -0.0002122    0.0000310     0.0000091   -0.0000154    -0.0000444   -0.0005367 
   0.159589895    -0.2438053   -0.5373085    -0.0001130   -0.0003789     0.0001819   -0.0002606    -0.0000260    0.0003034 
   0.159689920    -0.2548262   -0.5339834    -0.0001194    0.0000739     0.0001179    0.0000895    -0.0002052   -0.0000377 
   0.159789945    -0.2655530   -0.5266731    -0.0001013    0.0000588    -0.0002251   -0.0001292    -0.0000239    0.0000905 
   0.159889970    -0.2774529   -0.5208188    -0.0003097    0.0002690     0.0002284   -0.0000610     0.0001106    0.0000174 
   0.159989995    -0.2867442   -0.5124972     0.0002634   -0.0001787    -0.0002342   -0.0000655    -0.0003980   -0.0001721 
   0.160090020    -0.2953061   -0.5035131    -0.0001433    0.0000482    -0.0001354   -0.0000123    -0.0003038   -0.0002270 
   0.160190045    -0.3005107   -0.4945230    -0.0003863    0.0002705     0.0001227    0.0000025    -0.0002400   -0.0003285 
   0.160290070    -0.3128018   -0.4876299    -0.0002770   -0.0000232    -0.0000353   -0.0000917    -0.0003472    0.0000905 
   0.160390095    -0.3206168   -0.4769936    -0.0004631    0.0001847    -0.0002661    0.0002804     0.0001122   -0.0003642 
   0.160490120    -0.3271243   -0.4691136    -0.0000396    0.0001072    -0.0000761    0.0000100    -0.0006880    0.0000923 
   0.160590145    -0.3331875   -0.4617414     0.0001651   -0.0000358     0.0000865    0.0000565    -0.0000400    0.0003023 
   0.160690170    -0.3429447   -0.4487229    -0.0000519   -0.0000372    -0.0000429   -0.0000669    -0.0005797   -0.0001436 
   0.160790195    -0.3522856   -0.4397126    -0.0000065   -0.0000922     0.0000764   -0.0003041    -0.0001418   -0.0000867 
   0.160890220    -0.3563634   -0.4321533     0.0003918   -0.0000652     0.0000357   -0.0000482    -0.0006365    0.0002273 
   0.160990245    -0.3692609   -0.4238774     0.0002189    0.0000407     0.0000648   -0.0000163    -0.0004478    0.0004999 
   0.161090270    -0.3728378   -0.4128986    -0.0000865   -0.0002188    -0.0000064    0.0002257    -0.0002806    0.0000849 
   0.161190295    -0.3814717   -0.4015451    -0.0001472    0.0001864     0.0000538    0.0002281    -0.0008991    0.0000288 
   0.161290320    -0.3873915   -0.3878477    -0.0001522   -0.0001908     0.0001327   -0.0000500    -0.0002466   -0.0001587 
   0.161390345    -0.3950505   -0.3829535     0.0000132    0.0000317    -0.0001840   -0.0000126    -0.0005293   -0.0000378 
   0.161490370    -0.3974469   -0.3706190     0.0001831   -0.0000169    -0.0000219    0.0000069    -0.0004680   -0.0000518 
   0.161590395    -0.4068673   -0.3592003    -0.0001266    0.0002794     0.0000146   -0.0000063     0.0003062   -0.0003158 
   0.161690420    -0.4117488   -0.3476165     0.0000819   -0.0002936     0.0001023    0.0000384    -0.0000903    0.0003095 
   0.161790445    -0.4175496   -0.3372363     0.0000766    0.0001774     0.0000872   -0.0001081     0.0002209   -0.0000853 
   0.161890470    -0.4212374   -0.3235817     0.0000497   -0.0002256     0.0000799    0.0000126    -0.0001185   -0.0000718 
   0.161990495    -0.4296943   -0.3158447    -0.0001487    0.0000855    -0.0001439    0.0000615     0.0002948   -0.0005456 
   0.162090520    -0.4315364   -0.3031075     0.0001246   -0.0000351    -0.0002819   -0.0002411    -0.0006516   -0.0000101 
   0.162190545    -0.4361648   -0.2924137    -0.0000979   -0.0001149     0.0000166    0.0000513    -0.0007700    0.0000017 
   0.162290570    -0.4395363   -0.2794445    -0.0001148   -0.0001362    -0.0000077   -0.0000696    -0.0000689   -0.0002142 
   0.162390595    -0.4450600   -0.2683058     0.0001197   -0.0000056     0.0000028    0.0000288    -0.0001705   -0.0003531 
   0.162490620    -0.4462588   -0.2536733     0.0000076   -0.0003696    -0.0000097   -0.0001364    -0.0004524   -0.0003115 
   0.162590645    -0.4502070   -0.2411596     0.0001283   -0.0000325     0.0000021    0.0000313    -0.0003783   -0.0001885 
   0.162690670    -0.4542484   -0.2275078    -0.0001295    0.0001662    -0.0000909    0.0000882    -0.0000677   -0.0003373 
   0.162790695    -0.4558111   -0.2168007     0.0003524   -0.0001313    -0.0000325   -0.0000669    -0.0001739   -0.0003734 
   0.162890720    -0.4551854   -0.2051031     0.0001190   -0.0002396    -0.0000962   -0.0001756    -0.0005964   -0.0000064 
   0.162990745    -0.4591932   -0.1913170    -0.0000447    0.0002414    -0.0000103   -0.0000631     0.0000481   -0.0002068 
   0.163090770    -0.4605965   -0.1775412     0.0000011    0.0000255     0.0000755    0.0000018    -0.0005707   -0.0004109 
   0.163190795    -0.4634764   -0.1651071    -0.0001746   -0.0002575    -0.0000981   -0.0000127     0.0002197   -0.0002637 
   0.163290820    -0.4627944   -0.1532395     0.0001524   -0.0000628    -0.0001043   -0.0000030    -0.0003781   -0.0001068 
   0.163390845    -0.4624192   -0.1381869    -0.0001140    0.0000985     0.0001202   -0.0001079    -0.0006977   -0.0001852 
   0.163490870    -0.4647110   -0.1258105    -0.0000742    0.0000531    -0.0000550    0.0000734     0.0001940   -0.0000686 
   0.163590895    -0.4616961   -0.1095962    -0.0000760    0.0001607    -0.0000108   -0.0000092     0.0000947    0.0003401 
   0.163690920    -0.4627046   -0.0997026    -0.0000216    0.0000001     0.0000977   -0.0000892    -0.0001895    0.0001714 
   0.163790945    -0.4608109   -0.0848573     0.0000446   -0.0000491    -0.0000880    0.0000687     0.0000237    0.0001583 
   0.163890970    -0.4585851   -0.0693883    -0.0002480    0.0000313    -0.0000892   -0.0001254    -0.0004564   -0.0001219 
   0.163990995    -0.4602684   -0.0575953     0.0000887    0.0001505    -0.0000632   -0.0000679     0.0002121   -0.0000392 
   0.164091021    -0.4567595   -0.0450498     0.0000821    0.0000075     0.0000856   -0.0000261    -0.0001181   -0.0003975 
   0.164191046    -0.4544397   -0.0291788    -0.0000670    0.0000898     0.0000045    0.0000694    -0.0003822    0.0001412 
   0.164291071    -0.4498673   -0.0197919     0.0002408    0.0001640    -0.0000216    0.0001149     0.0000803   -0.0003385 
   0.164391096    -0.4462301   -0.0013919     0.0001621    0.0001623    -0.0000285    0.0000750    -0.0005832    0.0001136 
   0.164491121    -0.4455694    0.0128013     0.0000391   -0.0001984     0.0000760    0.0001234    -0.0002552    0.0000354 
   0.164591146    -0.4387623    0.0250401     0.0000511   -0.0000391    -0.0001359    0.0000116    -0.0005055   -0.0003448 
   0.164691171    -0.4352254    0.0390818     0.0000640   -0.0000539     0.0000041    0.0001119    -0.0003539   -0.0002548 
   0.164791196    -0.4297534    0.0514739    -0.0003266    0.0000517    -0.0001668    0.0000651    -0.0000897   -0.0001478 
   0.164891221    -0.4239109    0.0657776     0.0001083   -0.0000007     0.0000998   -0.0000624    -0.0002039   -0.0005661 
   0.164991246    -0.4170914    0.0799249    -0.0002633   -0.0001260    -0.0000689    0.0000882    -0.0003910    0.0002205 
   0.165091271    -0.4127411    0.0916077     0.0000775   -0.0000958    -0.0000253    0.0001354     0.0002363    0.0003950 
   0.165191296    -0.4057133    0.1069698    -0.0002270   -0.0000373    -0.0000825    0.0001105     0.0001799    0.0002989 
   0.165291321    -0.3991933    0.1170062     0.0000119    0.0000842     0.0001578    0.0000516    -0.0000426   -0.0000862 
   0.165391346    -0.3908958    0.1317679    -0.0001932   -0.0000760    -0.0001127    0.0001446     0.0000457   -0.0003775 
   0.165491371    -0.3821147    0.1450224    -0.0001301    0.0000340     0.0000524   -0.0000566     0.0000339   -0.0002917 
   0.165591396    -0.3744336    0.1594014    -0.0001018   -0.0000982    -0.0000097    0.0000010    -0.0000526   -0.0002050 
   0.165691421    -0.3636426    0.1719915     0.0003175   -0.0000589    -0.0000782    0.0001615    -0.0003922   -0.0004512 
   0.165791446    -0.3521305    0.1840499    -0.0002184   -0.0000275    -0.0001535   -0.0001000    -0.0004495   -0.0004932 
   0.165891471    -0.3437939    0.1951900    -0.0000153    0.0000982    -0.0000583    0.0000371     0.0002507   -0.0001182 
   0.165991496    -0.3340374    0.2063577    -0.0001894    0.0000251     0.0000919    0.0001276    -0.0001846   -0.0004136 
   0.166091521    -0.3219649    0.2182827     0.0000778    0.0000599    -0.0000843   -0.0001016    -0.0003105   -0.0001506 
   0.166191546    -0.3120727    0.2292221     0.0000956   -0.0000885     0.0000148    0.0001634    -0.0004240   -0.0005493 
   0.166291571    -0.2992260    0.2408441    -0.0000236    0.0000635    -0.0001001   -0.0000161    -0.0004318   -0.0007110 
   0.166391596    -0.2853442    0.2521479    -0.0001114    0.0000668    -0.0000840   -0.0000120    -0.0002780   -0.0003632 
   0.166491621    -0.2723615    0.2626123    -0.0000436    0.0003650    -0.0000826    0.0001122    -0.0003362   -0.0002880 
   0.166591646    -0.2606034    0.2725703    -0.0000619   -0.0000771     0.0000521   -0.0000844    -0.0005494   -0.0005245 
   0.166691671    -0.2470960    0.2819974     0.0000148    0.0001258     0.0000299   -0.0000248    -0.0003780   -0.0002129 
   0.166791696    -0.2300581    0.2908517     0.0000407   -0.0000968     0.0000637    0.0002077    -0.0001295   -0.0001112 
   0.166891721    -0.2178673    0.3003612    -0.0000623   -0.0000989    -0.0000516   -0.0001911    -0.0002240   -0.0002053 
   0.166991746    -0.2018184    0.3087965    -0.0000205   -0.0000290     0.0000007    0.0001710    -0.0001690   -0.0006043 
   0.167091771    -0.1858785    0.3173587    -0.0000126    0.0000644    -0.0000053   -0.0001103    -0.0004565    0.0000523 
   0.167191796    -0.1711569    0.3237352    -0.0001683   -0.0000551    -0.0001219   -0.0000458    -0.0001028    0.0001284 
   0.167291821    -0.1556805    0.3280641     0.0000417    0.0002795     0.0000247    0.0000163    -0.0001432   -0.0002023 
   0.167391846    -0.1372716    0.3370413     0.0003371    0.0000808    -0.0002001   -0.0000238     0.0000737   -0.0000430 
   0.167491871    -0.1214281    0.3409311     0.0000777   -0.0001803    -0.0000115   -0.0002695    -0.0002162   -0.0002077 
   0.167591896    -0.1043961    0.3480747    -0.0001892   -0.0000203    -0.0000116    0.0000839    -0.0008383    0.0000567 
   0.167691921    -0.0860883    0.3505279    -0.0000840   -0.0000051     0.0001278   -0.0001341    -0.0004687   -0.0002149 
   0.167791946    -0.0701365    0.3557008     0.0001453   -0.0000386     0.0000675    0.0000321    -0.0003097   -0.0007473 
   0.167891971    -0.0510559    0.3584273     0.0002960   -0.0000081    -0.0001604   -0.0000219    -0.0001731   -0.0002411 
   0.167991996    -0.0316083    0.3621835    -0.0000448    0.0000287     0.0000222    0.0001458     0.0002729   -0.0000579 
   0.168092021    -0.0137371    0.3633974    -0.0000141   -0.0001156     0.0000567    0.0000324    -0.0003242    0.0000699 
   0.168192046     0.0033298    0.3643615     0.0000328    0.0000686     0.0001988   -0.0000054    -0.0003514   -0.0000007 
   0.168292071     0.0222956    0.3633532    -0.0000755    0.0000898     0.0002343   -0.0002553     0.0000101   -0.0004254 
   0.168392096     0.0421777    0.3645435     0.0002527    0.0002211     0.0000413    0.0000818    -0.0003515   -0.0007172 
   0.168492121     0.0599713    0.3642638     0.0000669   -0.0000886    -0.0001857    0.0001433     0.0000907   -0.0002609 
   0.168592146     0.0822279    0.3619199    -0.0000630    0.0001669    -0.0000118    0.0000299    -0.0000716    0.0000027 
   0.168692171     0.0998430    0.3587954    -0.0002758    0.0002726     0.0000093    0.0000265    -0.0003560   -0.0001476 
   0.168792196     0.1190632    0.3545296     0.0001878    0.0003307     0.0000613    0.0001576     0.0001751   -0.0005687 
   0.168892221     0.1363533    0.3511866     0.0000662   -0.0001491    -0.0000715    0.0001734    -0.0002119   -0.0001528 
   0.168992246     0.1554331    0.3474535    -0.0004259   -0.0002098     0.0003001   -0.0002114    -0.0002256   -0.0004297 
   0.169092271     0.1750488    0.3419475    -0.0003110    0.0001223    -0.0000242    0.0001908    -0.0001549   -0.0000920 
   0.169192296     0.1933634    0.3340989     0.0003230   -0.0000022    -0.0001653    0.0000478    -0.0003828    0.0001243 
   0.169292321     0.2126173    0.3260879    -0.0001590    0.0000289    -0.0002083   -0.0000599     0.0000448    0.0001310 
   0.169392346     0.2305795    0.3187826     0.0003398   -0.0001731    -0.0000999    0.0000366    -0.0002510   -0.0003451 
   0.169492371     0.2476106    0.3114933    -0.0002569    0.0002116    -0.0000336    0.0000266    -0.0001354   -0.0000975 
   0.169592396     0.2652825    0.3012380    -0.0005904    0.0002405    -0.0001128    0.0000432    -0.0000876   -0.0002913 
   0.169692421     0.2827761    0.2911839     0.0002503   -0.0001061    -0.0000005    0.0001435    -0.0005101   -0.0005115 
   0.169792446     0.2996481    0.2806630     0.0000596    0.0001222    -0.0001118    0.0000063    -0.0002424   -0.0001691 
   0.169892471     0.3147155    0.2695656    -0.0001591    0.0000788    -0.0001066   -0.0000319    -0.0000240   -0.0004416 
   0.169992496     0.3313142    0.2591216     0.0001115    0.0002149     0.0000284    0.0000465     0.0000487   -0.0001022 
   0.170092521     0.3458503    0.2437002     0.0000403    0.0000696     0.0000930    0.0000970    -0.0004388    0.0000541 
   0.170192546     0.3610507    0.2304983    -0.0000538    0.0002615    -0.0000531    0.0001163    -0.0002738   -0.0002435 
   0.170292571     0.3758133    0.2155993    -0.0000890   -0.0000462     0.0001043   -0.0000225    -0.0002672   -0.0002454 
   0.170392596     0.3893269    0.2007040    -0.0000492    0.0000139    -0.0000889    0.0000346     0.0004217    0.0001836 
   0.170492621     0.4005454    0.1868300    -0.0003246    0.0000635     0.0001800    0.0001649    -0.0005760    0.0001682 
   0.170592646     0.4149888    0.1701993     0.0001309    0.0001290     0.0000927    0.0000338    -0.0006751   -0.0006952 
   0.170692671     0.4250090    0.1532101    -0.0002709    0.0003272     0.0001207    0.0000170    -0.0003489   -0.0003540 
   0.170792696     0.4355786    0.1363396    -0.0000074   -0.0001609    -0.0000667   -0.0002060     0.0000484   -0.0002358 
   0.170892721     0.4476077    0.1174014    -0.0000960    0.0000168     0.0000883   -0.0000173     0.0000541   -0.0004728 
   0.170992746     0.4573250    0.1009130    -0.0000048   -0.0002278     0.0000851    0.0001030    -0.0004590    0.0000688 
   0.171092771     0.4651531    0.0854304    -0.0001004   -0.0005070    -0.0000362   -0.0001213    -0.0000035   -0.0002500 
   0.171192796     0.4737843    0.0637408    -0.0003646    0.0000874    -0.0000811   -0.0000462    -0.0001579   -0.0005668 
   0.171292821     0.4807275    0.0486043     0.0000808   -0.0000228     0.0000605    0.0001169    -0.0001832   -0.0003418 
   0.171392846     0.4855169    0.0287126     0.0002736   -0.0002051     0.0002680    0.0003541     0.0001847   -0.0003550 
   0.171492871     0.4918053    0.0078431    -0.0003079    0.0000940    -0.0002839   -0.0000102    -0.0001150    0.0002122 
   0.171592896     0.4955688   -0.0100104    -0.0002476   -0.0001138     0.0000735    0.0000927    -0.0005521   -0.0001359 
   0.171692921     0.5005597   -0.0266531     0.0000649    0.0000549    -0.0000486   -0.0000143     0.0001631   -0.0006409 
   0.171792946     0.5046362   -0.0470009    -0.0002254   -0.0000216    -0.0001271   -0.0000993    -0.0005795   -0.0004691 
   0.171892971     0.5069078   -0.0682742     0.0004909   -0.0000957    -0.0000114    0.0003471    -0.0001524   -0.0006019 
   0.171992996     0.5083246   -0.0860260    -0.0004991   -0.0000475     0.0000220    0.0000661    -0.0007541   -0.0004321 
   0.172093022     0.5088217   -0.1051927    -0.0000392   -0.0003189     0.0002250    0.0001351    -0.0000057   -0.0004685 
   0.172193047     0.5108346   -0.1244098    -0.0003508    0.0002649    -0.0001180   -0.0000541     0.0001406   -0.0007858 
   0.172293072     0.5058473   -0.1442187    -0.0001158   -0.0001969     0.0001815    0.0000351    -0.0000339    0.0001721 
   0.172393097     0.5067303   -0.1607621     0.0000813   -0.0000512     0.0002809   -0.0000340    -0.0000220   -0.0008080 
   0.172493122     0.5030375   -0.1817942     0.0001883   -0.0001639     0.0003031    0.0002955     0.0001394   -0.0000607 
   0.172593147     0.5010808   -0.1995550    -0.0000452   -0.0000917    -0.0001543    0.0000106    -0.0006362   -0.0004920 
   0.172693172     0.4997186   -0.2175891     0.0001271    0.0001837    -0.0000116   -0.0001741    -0.0002793    0.0000536 
   0.172793197     0.4934750   -0.2373860    -0.0000599   -0.0003345    -0.0001909   -0.0001132     0.0000953   -0.0002355 
   0.172893222     0.4869386   -0.2575053     0.0002158   -0.0001883     0.0000329   -0.0000832    -0.0002601   -0.0004205 
   0.172993247     0.4826666   -0.2724959     0.0002467    0.0001234    -0.0000468    0.0001807    -0.0004840   -0.0008146 
   0.173093272     0.4765145   -0.2882385     0.0002832    0.0000520     0.0003037   -0.0000172     0.0002703    0.0003122 
   0.173193297     0.4697430   -0.3071853     0.0001182   -0.0000998     0.0000897   -0.0002227    -0.0001795   -0.0003221 
   0.173293322     0.4649524   -0.3219621     0.0001250    0.0000789     0.0001853   -0.0000432     0.0004259   -0.0002898 
   0.173393347     0.4536407   -0.3385488     0.0002192    0.0001809     0.0002065   -0.0000171    -0.0000252   -0.0000809 
   0.173493372     0.4465732   -0.3524970    -0.0000060   -0.0000053    -0.0000273   -0.0002183     0.0001482   -0.0005069 
   0.173593397     0.4390805   -0.3702795    -0.0001809   -0.0000794     0.0001111    0.0000350     0.0000220    0.0000863 
   0.173693422     0.4273828   -0.3839654     0.0001299    0.0000457    -0.0000916    0.0001066    -0.0001997   -0.0004568 
   0.173793447     0.4186091   -0.3957481    -0.0000556   -0.0004439    -0.0002445   -0.0002919     0.0003472   -0.0005258 
   0.173893472     0.4078237   -0.4114309     0.0002319    0.0002329    -0.0000169   -0.0001216    -0.0001482   -0.0006270 
   0.173993497     0.3970421   -0.4254049    -0.0003612   -0.0001958    -0.0001396    0.0000910     0.0000606   -0.0002228 
   0.174093522     0.3843826   -0.4416725    -0.0002677    0.0001998    -0.0001006    0.0001397    -0.0000871   -0.0007257 
   0.174193547     0.3726726   -0.4511001     0.0003284   -0.0000769     0.0001992    0.0000338     0.0000613   -0.0003064 
   0.174293572     0.3633578   -0.4659205     0.0000983   -0.0002957     0.0001237    0.0000529     0.0000055   -0.0001120 
   0.174393597     0.3509798   -0.4746063     0.0002060    0.0000553    -0.0002469    0.0000192     0.0000100   -0.0000284 
   0.174493622     0.3365150   -0.4845169    -0.0000142    0.0003813     0.0000257   -0.0000203    -0.0001067   -0.0004492 
   0.174593647     0.3279745   -0.4960314    -0.0001834   -0.0005420     0.0002368    0.0000207     0.0003167   -0.0005165 
   0.174693672     0.3125467   -0.5038596    -0.0003040    0.0004478     0.0002035    0.0001140    -0.0004036   -0.0003624 
   0.174793697     0.3017876   -0.5167732    -0.0002738    0.0002375     0.0001444   -0.0000917     0.0002002   -0.0004472 
   0.174893722     0.2877546   -0.5202714     0.0002651    0.0000502     0.0001358    0.0000140     0.0000330   -0.0006677 
   0.174993747     0.2702821   -0.5314289     0.0001217    0.0000936    -0.0001844   -0.0000594    -0.0002312   -0.0000206 
   0.175093772     0.2610369   -0.5394338     0.0000090    0.0003914     0.0001003   -0.0001939     0.0004945   -0.0008558 
   0.175193797     0.2470097   -0.5443888     0.0001187   -0.0002303     0.0000360    0.0000264     0.0001005   -0.0000904 
   0.175293822     0.2315917   -0.5534075    -0.0000279   -0.0001254    -0.0000116    0.0000964    -0.0004018   -0.0007169 
   0.175393847     0.2175872   -0.5579416     0.0000942    0.0000308     0.0000269   -0.0001038     0.0001085   -0.0009153 
   0.175493872     0.2022525   -0.5660120     0.0000825   -0.0002782     0.0000558   -0.0000129    -0.0006148   -0.0004128 
   0.175593897     0.1889907   -0.5707890    -0.0000374    0.0000340    -0.0001320   -0.0002345    -0.0000521    0.0001542 
   0.175693922     0.1764265   -0.5765256    -0.0000773    0.0001610    -0.0000193   -0.0002094     0.0001612   -0.0006031 
   0.175793947     0.1618306   -0.5804333     0.0000124   -0.0001447     0.0000740   -0.0000477     0.0002204   -0.0008705 
   0.175893972     0.1466839   -0.5838603    -0.0002042    0.0001521     0.0000786    0.0000225     0.0005263   -0.0010141 
   0.175993997     0.1310399   -0.5893040    -0.0002282    0.0001019    -0.0000031   -0.0000353    -0.0001527   -0.0006333 
   0.176094022     0.1192258   -0.5908817    -0.0001506    0.0001431     0.0001383    0.0000142    -0.0000974   -0.0001017 
   0.176194047     0.1038375   -0.5918145     0.0000145    0.0001789    -0.0000564    0.0001440     0.0002172   -0.0007181 
   0.176294072     0.0920576   -0.5966827     0.0000752   -0.0001394    -0.0001294    0.0001733    -0.0004120   -0.0005639 
   0.176394097     0.0743777   -0.5974615    -0.0000804   -0.0001849    -0.0000296    0.0001000    -0.0004527   -0.0001892 
   0.176494122     0.0622663   -0.5987957     0.0000008    0.0000081    -0.0000913    0.0000170     0.0000660   -0.0003813 
   0.176594147     0.0475270   -0.5991394    -0.0000185    0.0000393     0.0000363   -0.0000963     0.0003757   -0.0004812 
   0.176694172     0.0348765   -0.6001138     0.0003069   -0.0001676     0.0000868    0.0000416    -0.0002681   -0.0007869 
   0.176794197     0.0190596   -0.5995257    -0.0002890   -0.0002446     0.0000177    0.0000801     0.0001040   -0.0002586 
   0.176894222     0.0053156   -0.6003711     0.0000884    0.0000503    -0.0000892   -0.0000851    -0.0000643    0.0001067 
   0.176994247    -0.0055998   -0.6002939     0.0000151    0.0000647     0.0000216   -0.0000469     0.0000889   -0.0007393 
   0.177094272    -0.0221457   -0.5979664    -0.0000208    0.0001731    -0.0001015   -0.0001172     0.0001156   -0.0002438 
   0.177194297    -0.0346983   -0.5963026    -0.0001763   -0.0000674     0.0000581    0.0000544    -0.0003390   -0.0005343 
   0.177294322    -0.0508286   -0.5969978    -0.0000279    0.0000631     0.0000076   -0.0000979     0.0000973   -0.0004236 
   0.177394347    -0.0605182   -0.5933587    -0.0000564    0.0003362     0.0000074    0.0000366     0.0003037   -0.0000289 
   0.177494372    -0.0746120   -0.5914766    -0.0000537   -0.0000520     0.0000286   -0.0001456    -0.0001660   -0.0007191 
   0.177594397    -0.0891556   -0.5864252     0.0001491    0.0000815     0.0001646   -0.0000693    -0.0000709   -0.0000850 
   0.177694422    -0.1029523   -0.5860058    -0.0000073   -0.0000017    -0.0000004    0.0000192     0.0002670   -0.0006060 
   0.177794447    -0.1142962   -0.5802374    -0.0000777   -0.0001484    -0.0000630   -0.0000292     0.0000466   -0.0006572 
   0.177894472    -0.1273203   -0.5757315    -0.0000930    0.0000566     0.0001212   -0.0000044     0.0003354   -0.0005079 
   0.177994497    -0.1379981   -0.5717703    -0.0002486   -0.0001469    -0.0001015    0.0000904     0.0002642   -0.0003726 
   0.178094522    -0.1484543   -0.5682330    -0.0000153   -0.0003434     0.0000418   -0.0000838     0.0000718   -0.0000486 
   0.178194547    -0.1624566   -0.5631025    -0.0002874    0.0002336     0.0001063    0.0000995     0.0000458   -0.0004393 
   0.178294572    -0.1739300   -0.5584263     0.0001142    0.0001148     0.0000380    0.0000773    -0.0000526   -0.0003227 
   0.178394597    -0.1882916   -0.5519376    -0.0000229    0.0000800     0.0000398   -0.0001245    -0.0002974   -0.0006522 
   0.178494622    -0.1993224   -0.5480033    -0.0001227    0.0000491     0.0000402    0.0000230     0.0000788   -0.0006759 
   0.178594647    -0.2117023   -0.5425427     0.0000692   -0.0000367    -0.0001361   -0.0000798     0.0002863    0.0000598 
   0.178694672    -0.2224186   -0.5361421    -0.0000994    0.0000301    -0.0000418    0.0001185     0.0001012   -0.0005503 
   0.178794697    -0.2318041   -0.5302439    -0.0000767   -0.0000542     0.0000150    0.0000049     0.0001892   -0.0006794 
   0.178894722    -0.2439092   -0.5228099    -0.0000984    0.0001879     0.0000950   -0.0001126    -0.0003047   -0.0003351 
   0.178994747    -0.2536055   -0.5141263    -0.0000555   -0.0000616    -0.0000269   -0.0000554     0.0002498   -0.0006377 
   0.179094772    -0.2607313   -0.5078638    -0.0000951    0.0001626     0.0002376    0.0000023     0.0008286   -0.0006484 
   0.179194797    -0.2734411   -0.4978919    -0.0000082   -0.0001013    -0.0000148    0.0001974    -0.0001092   -0.0002899 
   0.179294822    -0.2828588   -0.4913773    -0.0000117    0.0000941     0.0000513   -0.0000322     0.0003604   -0.0003418 
   0.179394847    -0.2927108   -0.4844200    -0.0000484    0.0000031     0.0000385   -0.0000251     0.0003848   -0.0001676 
   0.179494872    -0.3029612   -0.4778620     0.0000197    0.0000984    -0.0000573   -0.0000508    -0.0000725   -0.0003437 
   0.179594897    -0.3128667   -0.4707459     0.0000390   -0.0000795     0.0000552    0.0000536    -0.0001077   -0.0006468 
   0.179694922    -0.3206360   -0.4606210     0.0000161    0.0002997    -0.0000052   -0.0000111     0.0003512   -0.0002776 
   0.179794947    -0.3288890   -0.4510145    -0.0000842   -0.0000576     0.0000169    0.0001963     0.0000773   -0.0005457 
   0.179894972    -0.3387152   -0.4419517    -0.0000086    0.0000391    -0.0000038   -0.0000609     0.0006702   -0.0008253 
   0.179994997    -0.3469519   -0.4321506    -0.0000128   -0.0000247    -0.0001283    0.0000482     0.0001901   -0.0003975 
   0.180095023    -0.3544858   -0.4238991    -0.0000409    0.0000488    -0.0000983    0.0000180     0.0000158   -0.0005494 
   0.180195048    -0.3616172   -0.4135297     0.0000120    0.0000041    -0.0001000   -0.0000078     0.0000088   -0.0005739 
   0.180295073    -0.3700521   -0.4051532    -0.0000666    0.0000093     0.0000091   -0.0000425     0.0007163    0.0001840 
   0.180395098    -0.3777875   -0.3949847     0.0000287    0.0002038    -0.0000949   -0.0000937     0.0006711   -0.0006478 
   0.180495123    -0.3842515   -0.3840705    -0.0000106   -0.0000648     0.0000037   -0.0001309    -0.0000619   -0.0008143 
   0.180595148    -0.3917336   -0.3746539     0.0000234   -0.0000204     0.0000438   -0.0000771    -0.0001149   -0.0003371 
   0.180695173    -0.3959738   -0.3634027     0.0000612   -0.0001354    -0.0001406    0.0000531     0.0001708   -0.0007054 
   0.180795198    -0.4051560   -0.3543935    -0.0002162   -0.0000004    -0.0000036   -0.0000050    -0.0002504   -0.0005874 
   0.180895223    -0.4094846   -0.3435943    -0.0000517   -0.0000424     0.0001429    0.0001627     0.0000925   -0.0004790 
   0.180995248    -0.4169399   -0.3321023     0.0001102    0.0000588    -0.0001454    0.0000123     0.0000866   -0.0001992 
   0.181095273    -0.4193763   -0.3212945    -0.0000926    0.0000525     0.0000789    0.0000128     0.0005898   -0.0008145 
   0.181195298    -0.4273363   -0.3093516     0.0001183    0.0000367     0.0000123    0.0000324     0.0000036   -0.0004166 
   0.181295323    -0.4326202   -0.2980843    -0.0001084   -0.0001209     0.0000817   -0.0000245     0.0001424   -0.0005490 
   0.181395348    -0.4360377   -0.2860922     0.0000668    0.0000422    -0.0000481   -0.0000309     0.0003051   -0.0007244 
   0.181495373    -0.4395830   -0.2730516     0.0000806   -0.0000174    -0.0000142    0.0000495     0.0004192   -0.0006686 
   0.181595398    -0.4455365   -0.2628866     0.0001632   -0.0001073    -0.0000422   -0.0000735     0.0000856   -0.0002253 
   0.181695423    -0.4506555   -0.2504227     0.0000628   -0.0001966     0.0001360   -0.0001792     0.0002776   -0.0004836 
   0.181795448    -0.4513120   -0.2393342    -0.0000822   -0.0001051     0.0000048    0.0000006    -0.0001036   -0.0001546 
   0.181895473    -0.4537645   -0.2281736    -0.0002482   -0.0001572    -0.0000095    0.0000541     0.0001588   -0.0005325 
   0.181995498    -0.4585789   -0.2146717     0.0001449   -0.0001412    -0.0000582    0.0000544     0.0003642   -0.0003565 
   0.182095523    -0.4606388   -0.2030306     0.0000844   -0.0002461     0.0000886    0.0000525     0.0007435   -0.0007676 
   0.182195548    -0.4635937   -0.1906068     0.0001043   -0.0000349     0.0000224   -0.0000589    -0.0000078   -0.0005354 
   0.182295573    -0.4640212   -0.1788058    -0.0001179    0.0000201    -0.0001392    0.0000415     0.0004042   -0.0002373 
   0.182395598    -0.4657841   -0.1653000     0.0001002    0.0000604    -0.0000499   -0.0001357     0.0003697   -0.0010974 
   0.182495623    -0.4680204   -0.1521700    -0.0000840   -0.0000786     0.0000911    0.0000312     0.0000029   -0.0005307 
   0.182595648    -0.4676806   -0.1410529     0.0001003   -0.0002133     0.0001901    0.0000210     0.0002272   -0.0008149 
   0.182695673    -0.4690607   -0.1316669    -0.0000611   -0.0000883     0.0000957    0.0000178    -0.0000552   -0.0000588 
   0.182795698    -0.4706628   -0.1156716     0.0000400   -0.0003258    -0.0000684   -0.0000863     0.0002708   -0.0005159 
   0.182895723    -0.4691076   -0.1029648     0.0000647   -0.0001196     0.0000486    0.0000008     0.0002739   -0.0002570 
   0.182995748    -0.4676455   -0.0903793     0.0000845    0.0002671    -0.0000527    0.0002051     0.0005448   -0.0006859 
   0.183095773    -0.4677227   -0.0774099     0.0000389    0.0000795     0.0000902    0.0000864     0.0000315   -0.0006563 
   0.183195798    -0.4671309   -0.0629431    -0.0001830    0.0000856     0.0000690   -0.0000112     0.0009015   -0.0002684 
   0.183295823    -0.4660812   -0.0506428     0.0001434    0.0001486     0.0000928   -0.0000704    -0.0000218   -0.0007871 
   0.183395848    -0.4652570   -0.0396786    -0.0001349    0.0001354     0.0000126   -0.0000672     0.0002667   -0.0003682 
   0.183495873    -0.4629876   -0.0247502     0.0001978    0.0002190     0.0001369   -0.0001135     0.0002014   -0.0007093 
   0.183595898    -0.4611306   -0.0113556     0.0000038   -0.0000244    -0.0000916   -0.0000177     0.0003610   -0.0005107 
   0.183695923    -0.4594139   -0.0011730    -0.0000325   -0.0001295    -0.0000968    0.0001181     0.0002905   -0.0003338 
   0.183795948    -0.4551018    0.0142385    -0.0002035   -0.0001460     0.0000143    0.0000858    -0.0000201   -0.0002775 
   0.183895973    -0.4520328    0.0262426     0.0000941   -0.0003315    -0.0000723    0.0000925     0.0003312   -0.0009824 
   0.183995998    -0.4482214    0.0401973    -0.0000560   -0.0001997    -0.0000923    0.0001525     0.0001368   -0.0005276 
   0.184096023    -0.4443955    0.0516403     0.0000292    0.0000014    -0.0000053   -0.0000842     0.0003677   -0.0005521 
   0.184196048    -0.4389559    0.0655794    -0.0000597   -0.0000177    -0.0001027    0.0000068     0.0003161   -0.0001161 
   0.184296073    -0.4348670    0.0764955    -0.0000843    0.0002324     0.0003060    0.0001131     0.0004441   -0.0005063 
   0.184396098    -0.4289716    0.0903558     0.0004119   -0.0000863    -0.0000574    0.0001894     0.0004711   -0.0006203 
   0.184496123    -0.4235722    0.1029131     0.0001101    0.0002317    -0.0000407    0.0000723     0.0005421   -0.0008215 
   0.184596148    -0.4168785    0.1137943    -0.0000039    0.0000263    -0.0000376   -0.0002069     0.0002891   -0.0002306 
   0.184696173    -0.4100909    0.1274357     0.0000271    0.0000700     0.0000342    0.0001182     0.0000285   -0.0003889 
   0.184796198    -0.4026935    0.1405961    -0.0001897    0.0000451     0.0000063   -0.0000041     0.0007733   -0.0004895 
   0.184896223    -0.3955006    0.1537954    -0.0001751    0.0000638     0.0000709    0.0000091     0.0003634   -0.0009400 
   0.184996248    -0.3899836    0.1644915    -0.0002696   -0.0003167     0.0000294   -0.0001186     0.0003106   -0.0008734 
   0.185096273    -0.3809470    0.1763591    -0.0001310   -0.0001420    -0.0000829    0.0000249     0.0002194    0.0001092 
   0.185196298    -0.3726000    0.1870294    -0.0000338   -0.0001617    -0.0001083    0.0000336     0.0003573   -0.0003176 
   0.185296323    -0.3642291    0.1978435     0.0000726   -0.0000730     0.0000040    0.0000852     0.0002494   -0.0003220 
   0.185396348    -0.3555840    0.2103926     0.0001037    0.0001540     0.0001629    0.0001311     0.0000144   -0.0003380 
   0.185496373    -0.3463669    0.2210083    -0.0000446    0.0001969    -0.0000790    0.0000621     0.0001061   -0.0004181 
   0.185596398    -0.3359756    0.2315075    -0.0001886   -0.0002202    -0.0001619   -0.0000045     0.0000284   -0.0003093 
   0.185696423    -0.3247186    0.2411882     0.0000945    0.0001600    -0.0000256   -0.0001608    -0.0001181   -0.0002183 
   0.185796448    -0.3145830    0.2533812    -0.0003608   -0.0003406     0.0000125   -0.0002605     0.0003976   -0.0000284 
   0.185896473    -0.3027398    0.2615755    -0.0001202    0.0000564     0.0000487   -0.0000865     0.0003369   -0.0003662 
   0.185996498    -0.2945293    0.2733097     0.0003143   -0.0000053     0.0000212    0.0000786    -0.0000955   -0.0007328 
   0.186096523    -0.2808722    0.2804210    -0.0001495   -0.0001000     0.0000519    0.0001200     0.0007812   -0.0007329 
   0.186196548    -0.2678047    0.2922112     0.0001537    0.0001787     0.0001781   -0.0002169     0.0001301   -0.0001276 
   0.186296573    -0.2550853    0.2992002     0.0000228   -0.0000267     0.0000386   -0.0002788     0.0004665   -0.0002988 
   0.186396598    -0.2423362    0.3080018     0.0002662    0.0001960     0.0000816    0.0000644     0.0006090   -0.0004578 
   0.186496623    -0.2302911    0.3159686     0.0000750    0.0000713    -0.0000165   -0.0001619     0.0001015   -0.0004036 
   0.186596648    -0.2151000    0.3239636    -0.0001246   -0.0000811    -0.0001162    0.0002541    -0.0000152   -0.0004443 
   0.186696673    -0.2012531    0.3316104    -0.0001539    0.0001141     0.0001153    0.0001345     0.0006979   -0.0003484 
   0.186796698    -0.1860001    0.3388185     0.0001389   -0.0005107     0.0000387   -0.0000060     0.0005403   -0.0005593 
   0.186896723    -0.1732759    0.3441170    -0.0000752   -0.0000205     0.0000304    0.0001785     0.0008894   -0.0000243 
   0.186996748    -0.1565553    0.3501908    -0.0000205    0.0004214    -0.0000886   -0.0000547     0.0009711   -0.0005645 
   0.187096773    -0.1430742    0.3554370    -0.0000725    0.0000438     0.0000798   -0.0000853     0.0008095   -0.0004026 
   0.187196798    -0.1266446    0.3612754    -0.0000893    0.0000934     0.0000603    0.0000115     0.0004116   -0.0006328 
   0.187296823    -0.1114673    0.3663208    -0.0001543    0.0001384    -0.0000697    0.0000142    -0.0001491   -0.0010255 
   0.187396848    -0.0935932    0.3699636     0.0003034    0.0000314     0.0001151   -0.0001706     0.0007700   -0.0010906 
   0.187496873    -0.0788370    0.3747205    -0.0004486    0.0001899     0.0000553    0.0000726     0.0005437   -0.0001820 
   0.187596898    -0.0617307    0.3758846    -0.0001492   -0.0001448     0.0001870   -0.0000582     0.0007651   -0.0002606 
   0.187696923    -0.0438785    0.3785381     0.0001306    0.0000537    -0.0000143    0.0001381     0.0004145   -0.0004637 
   0.187796948    -0.0276999    0.3802815     0.0001825   -0.0000490     0.0000072   -0.0000538     0.0006890   -0.0006369 
   0.187896973    -0.0113179    0.3828030     0.0001662    0.0002087    -0.0002745    0.0001985     0.0001279   -0.0006199 
   0.187996998     0.0069345    0.3815554     0.0000221   -0.0003249     0.0001326   -0.0000147     0.0007000   -0.0004263 
   0.188097024     0.0223276    0.3838264     0.0000768   -0.0000427     0.0000336    0.0000238     0.0002773   -0.0005861 
   0.188197049     0.0414308    0.3818759     0.0001441    0.0000443     0.0000978   -0.0001967     0.0002403   -0.0004914 
   0.188297074     0.0577875    0.3813558    -0.0001968   -0.0000381     0.0000353    0.0002043     0.0003896   -0.0000806 
   0.188397099     0.0757546    0.3784294     0.0000963    0.0001705     0.0001166   -0.0000356     0.0002670   -0.0003685 
   0.188497124     0.0936485    0.3752260     0.0003059    0.0001753    -0.0002849    0.0001801     0.0004874   -0.0008216 
   0.188597149     0.1116743    0.3724421    -0.0002282    0.0000838    -0.0001162   -0.0001028     0.0005606   -0.0006866 
   0.188697174     0.1283360    0.3677734    -0.0002228    0.0001247     0.0002910    0.0000418     0.0008841   -0.0004244 
   0.188797199     0.1465370    0.3634202    -0.0005091   -0.0001182     0.0002184    0.0002049     0.0002059   -0.0006945 
   0.188897224     0.1620294    0.3591296     0.0002220    0.0002994    -0.0001715    0.0001847     0.0003993   -0.0002205 
   0.188997249     0.1794204    0.3533479     0.0001192    0.0002618    -0.0000858    0.0000114     0.0003616   -0.0007516 
   0.189097274     0.1989887    0.3462416     0.0000024   -0.0001744     0.0001713   -0.0000828     0.0004616   -0.0003828 
   0.189197299     0.2138911    0.3394245    -0.0000175    0.0002900    -0.0000570   -0.0000839     0.0002413   -0.0006293 
   0.189297324     0.2316748    0.3321821    -0.0002405    0.0000111    -0.0000443    0.0000156     0.0005992   -0.0002792 
   0.189397349     0.2471040    0.3233986     0.0003047    0.0001768    -0.0001131    0.0001050     0.0001130   -0.0001063 
   0.189497374     0.2648219    0.3120296    -0.0003497    0.0000724    -0.0000857    0.0000353     0.0002239   -0.0007664 
   0.189597399     0.2799558    0.3041911    -0.0004285   -0.0002738     0.0001764   -0.0000677     0.0003443   -0.0003547 
   0.189697424     0.2965910    0.2919796    -0.0001341   -0.0002991    -0.0000783   -0.0001737     0.0003561   -0.0001770 
   0.189797449     0.3088470    0.2810307     0.0002445   -0.0000391     0.0000356    0.0000451     0.0006294   -0.0007404 
   0.189897474     0.3247612    0.2691835    -0.0000637    0.0001984    -0.0001374   -0.0000401     0.0003236   -0.0001663 
   0.189997499     0.3380403    0.2557777     0.0000608    0.0001945     0.0001604    0.0000631     0.0009662   -0.0001295 
   0.190097524     0.3519636    0.2436280    -0.0001914    0.0001573     0.0000068    0.0000087     0.0005024   -0.0004685 
   0.190197549     0.3662226    0.2298007     0.0001038    0.0001308    -0.0000601   -0.0002461     0.0005798    0.0001220 
   0.190297574     0.3781659    0.2154347    -0.0003646   -0.0002386     0.0001466    0.0001031     0.0008801   -0.0001676 
   0.190397599     0.3900368    0.2019489    -0.0000994   -0.0002459    -0.0000058    0.0000655     0.0005696   -0.0008581 
   0.190497624     0.4038642    0.1842044     0.0001428    0.0001620     0.0000752   -0.0002684     0.0007671   -0.0000040 
   0.190597649     0.4136088    0.1703906    -0.0001191   -0.0000497     0.0001411    0.0000150     0.0007641   -0.0007466 
   0.190697674     0.4228373    0.1547398     0.0001217    0.0001617    -0.0001170   -0.0001006     0.0002957   -0.0002216 
   0.190797699     0.4297845    0.1370183    -0.0001289    0.0002319     0.0000411   -0.0003000     0.0005120   -0.0008915 
   0.190897724     0.4395542    0.1182754    -0.0002485   -0.0001740    -0.0000313    0.0000570     0.0003774   -0.0003570 
   0.190997749     0.4494416    0.1004776     0.0001846   -0.0000946    -0.0000120   -0.0000252     0.0006161   -0.0002840 
   0.191097774     0.4582802    0.0862967    -0.0002014    0.0000445     0.0001808   -0.0001632     0.0002229   -0.0003514 
   0.191197799     0.4632397    0.0674507     0.0002186    0.0001355     0.0001387   -0.0001182     0.0003775   -0.0000186 
   0.191297824     0.4702620    0.0492405    -0.0000943   -0.0001149    -0.0000685    0.0000975     0.0002154   -0.0005106 
   0.191397849     0.4753295    0.0300401    -0.0000197    0.0000572     0.0000719    0.0000735     0.0004732   -0.0001841 
   0.191497874     0.4800513    0.0108111     0.0000305   -0.0000924     0.0002136   -0.0001122     0.0006667   -0.0003052 
   0.191597899     0.4849733   -0.0073523     0.0000318   -0.0002604    -0.0000726   -0.0000106     0.0005957   -0.0004500 
   0.191697924     0.4876720   -0.0256345    -0.0002007   -0.0000303     0.0001063    0.0000020     0.0006775   -0.0008882 
   0.191797949     0.4895706   -0.0439966     0.0002038   -0.0002948    -0.0000510    0.0000789     0.0006024   -0.0004522 
   0.191897974     0.4923978   -0.0634335    -0.0001659    0.0002105     0.0001296   -0.0001452     0.0004460   -0.0003495 
   0.191997999     0.4908419   -0.0847349    -0.0005061   -0.0003625     0.0001194    0.0001165    -0.0000602   -0.0004261 
   0.192098024     0.4916590   -0.1040953    -0.0003964    0.0001633     0.0001507   -0.0000044     0.0005943   -0.0005128 
   0.192198049     0.4921235   -0.1197289     0.0001549    0.0001352     0.0001274    0.0001994     0.0002954   -0.0004252 
   0.192298074     0.4898027   -0.1402984    -0.0000777    0.0001494    -0.0000661   -0.0003155     0.0005273   -0.0006344 
   0.192398099     0.4864283   -0.1587341    -0.0002034   -0.0001084    -0.0000479    0.0001813     0.0004807   -0.0001464 
   0.192498124     0.4820109   -0.1757912     0.0001990    0.0000045     0.0000018   -0.0000218     0.0004192   -0.0000678 
   0.192598149     0.4795317   -0.1965151    -0.0000122   -0.0001585    -0.0000549   -0.0001753     0.0006346   -0.0007244 
   0.192698174     0.4738263   -0.2109631    -0.0001404   -0.0001032    -0.0001739   -0.0000338     0.0003997   -0.0002668 
   0.192798199     0.4720798   -0.2294668    -0.0001468   -0.0001289     0.0000993    0.0002267     0.0002444   -0.0004803 
   0.192898224     0.4654133   -0.2488782     0.0000177    0.0001686    -0.0000969    0.0001998     0.0010584   -0.0005720 
   0.192998249     0.4598124   -0.2671431     0.0002121   -0.0000503    -0.0000213    0.0000403     0.0000422   -0.0005935 
   0.193098274     0.4530761   -0.2826169    -0.0000368   -0.0001080    -0.0001300    0.0001377     0.0001852   -0.0002801 
   0.193198299     0.4451466   -0.2999719     0.0000768    0.0001142    -0.0000450   -0.0000027     0.0003932   -0.0008081 
   0.193298324     0.4366205   -0.3149964     0.0000053   -0.0000519    -0.0000221    0.0000060     0.0004327   -0.0006408 
   0.193398349     0.4277132   -0.3334853    -0.0000662    0.0002458     0.0000848    0.0001601     0.0006453   -0.0000455 
   0.193498374     0.4199578   -0.3444410    -0.0000540   -0.0000187     0.0000541   -0.0000162     0.0006570   -0.0003005 
   0.193598399     0.4097419   -0.3622097    -0.0000677    0.0001533    -0.0000107   -0.0000375     0.0005347   -0.0004581 
   0.193698424     0.3992846   -0.3727617    -0.0000251    0.0001560    -0.0000102   -0.0000212     0.0002876   -0.0002922 
   0.193798449     0.3907900   -0.3898457    -0.0001695    0.0000619     0.0001089   -0.0000915     0.0004626   -0.0007734 
   0.193898474     0.3778425   -0.4031323     0.0000658    0.0002721    -0.0000183   -0.0001076     0.0004362   -0.0007016 
   0.193998499     0.3642971   -0.4166757    -0.0001948   -0.0001519     0.0000945   -0.0000138     0.0002378   -0.0006948 
   0.194098524     0.3559742   -0.4284002    -0.0001790   -0.0001391    -0.0001107   -0.0000377     0.0006879   -0.0003282 
   0.194198549     0.3423628   -0.4412009    -0.0000471   -0.0000750    -0.0001328   -0.0000732     0.0004026   -0.0007999 
   0.194298574     0.3295648   -0.4507215     0.0001498   -0.0001322     0.0000476    0.0001027     0.0006062   -0.0006916 
   0.194398599     0.3166083   -0.4625168     0.0001682   -0.0000971    -0.0000067   -0.0001895     0.0004674   -0.0006058 
   0.194498624     0.3024265   -0.4708353     0.0000125   -0.0000791    -0.0000616    0.0000991     0.0005774   -0.0002695 
   0.194598649     0.2878495   -0.4823873     0.0001251    0.0000781     0.0002118    0.0001063     0.0006293   -0.0005721 
   0.194698674     0.2768390   -0.4917738     0.0002154   -0.0000072    -0.0000409   -0.0000800     0.0007471    0.0002088 
   0.194798699     0.2615546   -0.5015743     0.0000032    0.0000132     0.0002165   -0.0000736     0.0004227   -0.0004291 
   0.194898724     0.2481754   -0.5100996     0.0002071   -0.0000016    -0.0001257    0.0000755     0.0003523   -0.0006721 
   0.194998749     0.2331134   -0.5180469     0.0001412   -0.0001794     0.0001288   -0.0000555     0.0005422   -0.0005133 
   0.195098774     0.2179719   -0.5237036    -0.0000468    0.0001222    -0.0000022   -0.0000766     0.0008416   -0.0008139 
   0.195198799     0.2062337   -0.5302891     0.0000124    0.0001803    -0.0000288    0.0001101     0.0009262   -0.0003838 
   0.195298824     0.1879444   -0.5391389    -0.0000803    0.0000884    -0.0000740   -0.0000731     0.0004819   -0.0002771 
   0.195398849     0.1727128   -0.5426790    -0.0000373   -0.0000728    -0.0000514   -0.0000445     0.0004316   -0.0006563 
   0.195498874     0.1597335   -0.5490776    -0.0000260    0.0000398    -0.0000138    0.0001471     0.0006963   -0.0005764 
   0.195598899     0.1459465   -0.5505223     0.0001574   -0.0002549    -0.0000677    0.0001184     0.0011321   -0.0001971 
   0.195698924     0.1266891   -0.5563577     0.0000772   -0.0001955    -0.0000619    0.0000257     0.0010660   -0.0003115 
   0.195798949     0.1150468   -0.5604579     0.0000000    0.0000632    -0.0000569    0.0000167     0.0010245   -0.0004686 
   0.195898974     0.0995735   -0.5616040     0.0000670   -0.0000499    -0.0000041    0.0000424     0.0000053   -0.0002847 
   0.195998999     0.0860583   -0.5631688    -0.0000129    0.0001211    -0.0000027   -0.0001040     0.0009797   -0.0000601 
   0.196099025     0.0683978   -0.5659426     0.0001474    0.0000392    -0.0000448   -0.0000270     0.0006626   -0.0005981 
   0.196199050     0.0536357   -0.5667500     0.0001109   -0.0000775    -0.0000516   -0.0001056     0.0005091   -0.0006770 
   0.196299075     0.0406088   -0.5678977    -0.0000439   -0.0000069     0.0000338   -0.0000190     0.0007936   -0.0003871 
   0.196399100     0.0246428   -0.5698332    -0.0000099    0.0001345     0.0000340    0.0000433     0.0010821   -0.0002601 
   0.196499125     0.0119672   -0.5707884    -0.0001614   -0.0001254    -0.0000162   -0.0000110     0.0006807   -0.0000686 
   0.196599150    -0.0056068   -0.5684020     0.0000884    0.0000027    -0.0000112   -0.0000311     0.0005911   -0.0004690 
   0.196699175    -0.0185217   -0.5686036     0.0001269    0.0001523     0.0000928    0.0000590     0.0004674   -0.0006299 
   0.196799200    -0.0303668   -0.5654027     0.0000342    0.0000176     0.0000698   -0.0000188     0.0009950   -0.0001843 
   0.196899225    -0.0479095   -0.5655884    -0.0000168   -0.0001904    -0.0000213    0.0001829     0.0002056   -0.0006249 
   0.196999250    -0.0618997   -0.5620314     0.0000739   -0.0000938     0.0000280   -0.0000865     0.0005398   -0.0005490 
   0.197099275    -0.0738682   -0.5607830     0.0001076    0.0001449     0.0000683    0.0000264     0.0005312   -0.0006146 
   0.197199300    -0.0891797   -0.5598879    -0.0001377    0.0000176     0.0000558   -0.0000471     0.0006957   -0.0005522 
   0.197299325    -0.1034285   -0.5541460     0.0004999   -0.0000771    -0.0000098    0.0000676     0.0005346   -0.0004428 
   0.197399350    -0.1174145   -0.5505605     0.0000264   -0.0000497    -0.0002289    0.0000700     0.0007056   -0.0004807 
   0.197499375    -0.1286228   -0.5480806    -0.0000545   -0.0000111    -0.0001132   -0.0000019     0.0004383   -0.0004621 
   0.197599400    -0.1428030   -0.5430375    -0.0001711    0.0002959    -0.0000254   -0.0001337     0.0008482   -0.0006155 
   0.197699425    -0.1557313   -0.5374837    -0.0001788    0.0000950     0.0000059   -0.0000445     0.0015038   -0.0002179 
   0.197799450    -0.1697637   -0.5313616    -0.0001193    0.0000413     0.0000570    0.0000991     0.0004441   -0.0003668 
   0.197899475    -0.1818773   -0.5284049     0.0001305   -0.0001764     0.0000345   -0.0000284     0.0007981    0.0001880 
   0.197999500    -0.1949529   -0.5234641     0.0000216   -0.0002625    -0.0000756    0.0000474     0.0004983    0.0000686 
   0.198099525    -0.2057255   -0.5155523    -0.0001038   -0.0000254     0.0000780    0.0001008     0.0010571   -0.0005701 
   0.198199550    -0.2172952   -0.5085521    -0.0001369    0.0000229     0.0001014   -0.0001753     0.0007214   -0.0004162 
   0.198299575    -0.2287302   -0.5016994    -0.0000442    0.0002240    -0.0001329   -0.0000151     0.0008429   -0.0002089 
   0.198399600    -0.2395101   -0.4959362    -0.0000665   -0.0001233     0.0000403    0.0001981     0.0004067   -0.0006370 
   0.198499625    -0.2499212   -0.4889775     0.0001072   -0.0000802     0.0001103   -0.0000831     0.0003816   -0.0001730 
   0.198599650    -0.2625380   -0.4817647     0.0000350   -0.0004366    -0.0001224    0.0000144     0.0008223   -0.0007342 
   0.198699675    -0.2729892   -0.4736053    -0.0002518   -0.0002147     0.0001502   -0.0001344     0.0005621   -0.0004217 
   0.198799700    -0.2833046   -0.4654128     0.0001594   -0.0001274     0.0001045    0.0001662     0.0008301   -0.0001471 
   0.198899725    -0.2915200   -0.4577020     0.0003266   -0.0000268     0.0001212    0.0001011     0.0009572   -0.0004268 
   0.198999750    -0.3040992   -0.4484337     0.0000491    0.0000042    -0.0000173   -0.0000090     0.0004904   -0.0004453 
   0.199099775    -0.3132593   -0.4399279     0.0000626    0.0001109    -0.0000667    0.0000441     0.0007534   -0.0003157 
   0.199199800    -0.3243156   -0.4310459    -0.0000380    0.0002246     0.0000901    0.0002218     0.0007779   -0.0002836 
   0.199299825    -0.3307270   -0.4219812    -0.0000109   -0.0000366     0.0000592   -0.0001668     0.0002814    0.0000153 
   0.199399850    -0.3395089   -0.4134172     0.0000003    0.0001548    -0.0000754    0.0001524     0.0007745   -0.0002201 
   0.199499875    -0.3469347   -0.4049869    -0.0000574    0.0001103    -0.0000316   -0.0000467     0.0004853   -0.0007884 
   0.199599900    -0.3556958   -0.3936371    -0.0000401    0.0000294    -0.0000952   -0.0001049     0.0007838   -0.0002299 
   0.199699925    -0.3625478   -0.3862042    -0.0000157    0.0003500     0.0002240   -0.0000047     0.0000684   -0.0001601 
   0.199799950    -0.3725161   -0.3759221     0.0003045    0.0002043    -0.0000762    0.0001344     0.0007915   -0.0003437 
   0.199899975    -0.3795794   -0.3647865     0.0000259    0.0001271     0.0000066    0.0001220     0.0011505    0.0000047 
   0.200000000    -0.3870835   -0.3529412    -0.0001349    0.0000448    -0.0001740   -0.0002097     0.0006127   -0.0001648 
