! Generated by Python
# HZ S RI R 50
50000000.000000000   0.512732565   -0.468018476   0.512732565   -0.468018476   0.512732565   -0.468018476   0.512732565   -0.468018476
50100503.000000000   0.513804350   -0.480352315   0.513804350   -0.480352315   0.513804350   -0.480352315   0.513804350   -0.480352315
50201005.000000000   0.514641282   -0.492905688   0.514641282   -0.492905688   0.514641282   -0.492905688   0.514641282   -0.492905688
50301508.000000000   0.514559688   -0.505880908   0.514559688   -0.505880908   0.514559688   -0.505880908   0.514559688   -0.505880908
50402010.000000000   0.513966634   -0.518821893   0.513966634   -0.518821893   0.513966634   -0.518821893   0.513966634   -0.518821893
50502513.000000000   0.512711803   -0.532193383   0.512711803   -0.532193383   0.512711803   -0.532193383   0.512711803   -0.532193383
50603015.000000000   0.510551102   -0.545552817   0.510551102   -0.545552817   0.510551102   -0.545552817   0.510551102   -0.545552817
50703518.000000000   0.507685257   -0.559014559   0.507685257   -0.559014559   0.507685257   -0.559014559   0.507685257   -0.559014559
50804020.000000000   0.504055383   -0.572242917   0.504055383   -0.572242917   0.504055383   -0.572242917   0.504055383   -0.572242917
50904523.000000000   0.499821839   -0.585701723   0.499821839   -0.585701723   0.499821839   -0.585701723   0.499821839   -0.585701723
51005025.000000000   0.494751706   -0.598571458   0.494751706   -0.598571458   0.494751706   -0.598571458   0.494751706   -0.598571458
51105528.000000000   0.489071943   -0.611281271   0.489071943   -0.611281271   0.489071943   -0.611281271   0.489071943   -0.611281271
51206030.000000000   0.482971002   -0.623746631   0.482971002   -0.623746631   0.482971002   -0.623746631   0.482971002   -0.623746631
51306533.000000000   0.475986966   -0.635695571   0.475986966   -0.635695571   0.475986966   -0.635695571   0.475986966   -0.635695571
51407035.000000000   0.468756601   -0.647380797   0.468756601   -0.647380797   0.468756601   -0.647380797   0.468756601   -0.647380797
51507538.000000000   0.460942449   -0.658578098   0.460942449   -0.658578098   0.460942449   -0.658578098   0.460942449   -0.658578098
51608040.000000000   0.452717451   -0.669512583   0.452717451   -0.669512583   0.452717451   -0.669512583   0.452717451   -0.669512583
51708543.000000000   0.444236230   -0.679844600   0.444236230   -0.679844600   0.444236230   -0.679844600   0.444236230   -0.679844600
51809045.000000000   0.435246699   -0.689723085   0.435246699   -0.689723085   0.435246699   -0.689723085   0.435246699   -0.689723085
51909548.000000000   0.426175834   -0.699269927   0.426175834   -0.699269927   0.426175834   -0.699269927   0.426175834   -0.699269927
52010050.000000000   0.416683500   -0.708266580   0.416683500   -0.708266580   0.416683500   -0.708266580   0.416683500   -0.708266580
52110553.000000000   0.406874384   -0.716974656   0.406874384   -0.716974656   0.406874384   -0.716974656   0.406874384   -0.716974656
52211055.000000000   0.397047254   -0.725207192   0.397047254   -0.725207192   0.397047254   -0.725207192   0.397047254   -0.725207192
52311558.000000000   0.387010869   -0.732968614   0.387010869   -0.732968614   0.387010869   -0.732968614   0.387010869   -0.732968614
52412060.000000000   0.376825320   -0.740306968   0.376825320   -0.740306968   0.376825320   -0.740306968   0.376825320   -0.740306968
52512563.000000000   0.366457940   -0.747090268   0.366457940   -0.747090268   0.366457940   -0.747090268   0.366457940   -0.747090268
52613065.000000000   0.355982077   -0.753844174   0.355982077   -0.753844174   0.355982077   -0.753844174   0.355982077   -0.753844174
52713568.000000000   0.345448540   -0.759943038   0.345448540   -0.759943038   0.345448540   -0.759943038   0.345448540   -0.759943038
52814070.000000000   0.334753473   -0.765652477   0.334753473   -0.765652477   0.334753473   -0.765652477   0.334753473   -0.765652477
52914573.000000000   0.324244569   -0.771222593   0.324244569   -0.771222593   0.324244569   -0.771222593   0.324244569   -0.771222593
53015075.000000000   0.313423632   -0.776237145   0.313423632   -0.776237145   0.313423632   -0.776237145   0.313423632   -0.776237145
53115578.000000000   0.302756525   -0.780993000   0.302756525   -0.780993000   0.302756525   -0.780993000   0.302756525   -0.780993000
53216080.000000000   0.291922191   -0.785381177   0.291922191   -0.785381177   0.291922191   -0.785381177   0.291922191   -0.785381177
53316583.000000000   0.281201466   -0.789437453   0.281201466   -0.789437453   0.281201466   -0.789437453   0.281201466   -0.789437453
53417085.000000000   0.270450538   -0.793269299   0.270450538   -0.793269299   0.270450538   -0.793269299   0.270450538   -0.793269299
53517588.000000000   0.259696700   -0.796659983   0.259696700   -0.796659983   0.259696700   -0.796659983   0.259696700   -0.796659983
53618090.000000000   0.248985214   -0.799811570   0.248985214   -0.799811570   0.248985214   -0.799811570   0.248985214   -0.799811570
53718593.000000000   0.238348229   -0.802637690   0.238348229   -0.802637690   0.238348229   -0.802637690   0.238348229   -0.802637690
53819095.000000000   0.227681931   -0.805268846   0.227681931   -0.805268846   0.227681931   -0.805268846   0.227681931   -0.805268846
53919598.000000000   0.216888948   -0.807681133   0.216888948   -0.807681133   0.216888948   -0.807681133   0.216888948   -0.807681133
54020101.000000000   0.206147895   -0.809731890   0.206147895   -0.809731890   0.206147895   -0.809731890   0.206147895   -0.809731890
54120603.000000000   0.195602589   -0.811324035   0.195602589   -0.811324035   0.195602589   -0.811324035   0.195602589   -0.811324035
54221106.000000000   0.185037406   -0.812869826   0.185037406   -0.812869826   0.185037406   -0.812869826   0.185037406   -0.812869826
54321608.000000000   0.174434514   -0.814247434   0.174434514   -0.814247434   0.174434514   -0.814247434   0.174434514   -0.814247434
54422111.000000000   0.164057472   -0.815225689   0.164057472   -0.815225689   0.164057472   -0.815225689   0.164057472   -0.815225689
54522613.000000000   0.153466556   -0.816008769   0.153466556   -0.816008769   0.153466556   -0.816008769   0.153466556   -0.816008769
54623116.000000000   0.143026596   -0.816504276   0.143026596   -0.816504276   0.143026596   -0.816504276   0.143026596   -0.816504276
54723618.000000000   0.132815656   -0.816842817   0.132815656   -0.816842817   0.132815656   -0.816842817   0.132815656   -0.816842817
54824121.000000000   0.122532323   -0.816825100   0.122532323   -0.816825100   0.122532323   -0.816825100   0.122532323   -0.816825100
54924623.000000000   0.112237064   -0.816537236   0.112237064   -0.816537236   0.112237064   -0.816537236   0.112237064   -0.816537236
55025126.000000000   0.101881858   -0.816202900   0.101881858   -0.816202900   0.101881858   -0.816202900   0.101881858   -0.816202900
55125628.000000000   0.091735698   -0.815382545   0.091735698   -0.815382545   0.091735698   -0.815382545   0.091735698   -0.815382545
55226131.000000000   0.081847743   -0.814247335   0.081847743   -0.814247335   0.081847743   -0.814247335   0.081847743   -0.814247335
55326633.000000000   0.072056257   -0.812995676   0.072056257   -0.812995676   0.072056257   -0.812995676   0.072056257   -0.812995676
55427136.000000000   0.062496479   -0.811516489   0.062496479   -0.811516489   0.062496479   -0.811516489   0.062496479   -0.811516489
55527638.000000000   0.053136166   -0.809746249   0.053136166   -0.809746249   0.053136166   -0.809746249   0.053136166   -0.809746249
55628141.000000000   0.043957831   -0.808068866   0.043957831   -0.808068866   0.043957831   -0.808068866   0.043957831   -0.808068866
55728643.000000000   0.034924248   -0.806045902   0.034924248   -0.806045902   0.034924248   -0.806045902   0.034924248   -0.806045902
55829146.000000000   0.025978501   -0.804017082   0.025978501   -0.804017082   0.025978501   -0.804017082   0.025978501   -0.804017082
55929648.000000000   0.017308771   -0.801868935   0.017308771   -0.801868935   0.017308771   -0.801868935   0.017308771   -0.801868935
56030151.000000000   0.008903594   -0.799589556   0.008903594   -0.799589556   0.008903594   -0.799589556   0.008903594   -0.799589556
56130653.000000000   0.000657923   -0.797575071   0.000657923   -0.797575071   0.000657923   -0.797575071   0.000657923   -0.797575071
56231156.000000000   -0.007667449   -0.795459191   -0.007667449   -0.795459191   -0.007667449   -0.795459191   -0.007667449   -0.795459191
56331658.000000000   -0.015808381   -0.793317648   -0.015808381   -0.793317648   -0.015808381   -0.793317648   -0.015808381   -0.793317648
56432161.000000000   -0.023904123   -0.791354330   -0.023904123   -0.791354330   -0.023904123   -0.791354330   -0.023904123   -0.791354330
56532663.000000000   -0.032188666   -0.789547725   -0.032188666   -0.789547725   -0.032188666   -0.789547725   -0.032188666   -0.789547725
56633166.000000000   -0.040243428   -0.787591515   -0.040243428   -0.787591515   -0.040243428   -0.787591515   -0.040243428   -0.787591515
56733668.000000000   -0.048741106   -0.785538986   -0.048741106   -0.785538986   -0.048741106   -0.785538986   -0.048741106   -0.785538986
56834171.000000000   -0.057203737   -0.783597142   -0.057203737   -0.783597142   -0.057203737   -0.783597142   -0.057203737   -0.783597142
56934673.000000000   -0.065907295   -0.781289435   -0.065907295   -0.781289435   -0.065907295   -0.781289435   -0.065907295   -0.781289435
57035176.000000000   -0.074615026   -0.778938548   -0.074615026   -0.778938548   -0.074615026   -0.778938548   -0.074615026   -0.778938548
57135678.000000000   -0.083544052   -0.776251474   -0.083544052   -0.776251474   -0.083544052   -0.776251474   -0.083544052   -0.776251474
57236181.000000000   -0.092447508   -0.773521496   -0.092447508   -0.773521496   -0.092447508   -0.773521496   -0.092447508   -0.773521496
57336683.000000000   -0.101507713   -0.770417208   -0.101507713   -0.770417208   -0.101507713   -0.770417208   -0.101507713   -0.770417208
57437186.000000000   -0.110436624   -0.767097115   -0.110436624   -0.767097115   -0.110436624   -0.767097115   -0.110436624   -0.767097115
57537688.000000000   -0.119226855   -0.763649021   -0.119226855   -0.763649021   -0.119226855   -0.763649021   -0.119226855   -0.763649021
57638191.000000000   -0.127864879   -0.759842801   -0.127864879   -0.759842801   -0.127864879   -0.759842801   -0.127864879   -0.759842801
57738693.000000000   -0.136805404   -0.755874765   -0.136805404   -0.755874765   -0.136805404   -0.755874765   -0.136805404   -0.755874765
57839196.000000000   -0.145323643   -0.751841335   -0.145323643   -0.751841335   -0.145323643   -0.751841335   -0.145323643   -0.751841335
57939698.000000000   -0.153850941   -0.747726697   -0.153850941   -0.747726697   -0.153850941   -0.747726697   -0.153850941   -0.747726697
58040201.000000000   -0.162615914   -0.743431272   -0.162615914   -0.743431272   -0.162615914   -0.743431272   -0.162615914   -0.743431272
58140704.000000000   -0.171446291   -0.738807441   -0.171446291   -0.738807441   -0.171446291   -0.738807441   -0.171446291   -0.738807441
58241206.000000000   -0.180300739   -0.733975456   -0.180300739   -0.733975456   -0.180300739   -0.733975456   -0.180300739   -0.733975456
58341709.000000000   -0.189144701   -0.728684710   -0.189144701   -0.728684710   -0.189144701   -0.728684710   -0.189144701   -0.728684710
58442211.000000000   -0.197837291   -0.723047903   -0.197837291   -0.723047903   -0.197837291   -0.723047903   -0.197837291   -0.723047903
58542714.000000000   -0.206352248   -0.717032792   -0.206352248   -0.717032792   -0.206352248   -0.717032792   -0.206352248   -0.717032792
58643216.000000000   -0.214547197   -0.710817607   -0.214547197   -0.710817607   -0.214547197   -0.710817607   -0.214547197   -0.710817607
58743719.000000000   -0.222577430   -0.704461511   -0.222577430   -0.704461511   -0.222577430   -0.704461511   -0.222577430   -0.704461511
58844221.000000000   -0.230468544   -0.698040338   -0.230468544   -0.698040338   -0.230468544   -0.698040338   -0.230468544   -0.698040338
58944724.000000000   -0.238314383   -0.691369495   -0.238314383   -0.691369495   -0.238314383   -0.691369495   -0.238314383   -0.691369495
59045226.000000000   -0.246197658   -0.684444533   -0.246197658   -0.684444533   -0.246197658   -0.684444533   -0.246197658   -0.684444533
59145729.000000000   -0.253883103   -0.677133920   -0.253883103   -0.677133920   -0.253883103   -0.677133920   -0.253883103   -0.677133920
59246231.000000000   -0.261610144   -0.669435777   -0.261610144   -0.669435777   -0.261610144   -0.669435777   -0.261610144   -0.669435777
59346734.000000000   -0.268875387   -0.661385708   -0.268875387   -0.661385708   -0.268875387   -0.661385708   -0.268875387   -0.661385708
59447236.000000000   -0.275829566   -0.652847353   -0.275829566   -0.652847353   -0.275829566   -0.652847353   -0.275829566   -0.652847353
59547739.000000000   -0.282426202   -0.644077817   -0.282426202   -0.644077817   -0.282426202   -0.644077817   -0.282426202   -0.644077817
59648241.000000000   -0.288385862   -0.635162428   -0.288385862   -0.635162428   -0.288385862   -0.635162428   -0.288385862   -0.635162428
59748744.000000000   -0.294005760   -0.626089838   -0.294005760   -0.626089838   -0.294005760   -0.626089838   -0.294005760   -0.626089838
59849246.000000000   -0.298917221   -0.616839782   -0.298917221   -0.616839782   -0.298917221   -0.616839782   -0.298917221   -0.616839782
59949749.000000000   -0.303401505   -0.607630088   -0.303401505   -0.607630088   -0.303401505   -0.607630088   -0.303401505   -0.607630088
60050251.000000000   -0.307568217   -0.598549183   -0.307568217   -0.598549183   -0.307568217   -0.598549183   -0.307568217   -0.598549183
60150754.000000000   -0.311310756   -0.589736235   -0.311310756   -0.589736235   -0.311310756   -0.589736235   -0.311310756   -0.589736235
60251256.000000000   -0.314651610   -0.581095863   -0.314651610   -0.581095863   -0.314651610   -0.581095863   -0.314651610   -0.581095863
60351759.000000000   -0.317724456   -0.572549732   -0.317724456   -0.572549732   -0.317724456   -0.572549732   -0.317724456   -0.572549732
60452261.000000000   -0.320696544   -0.564431027   -0.320696544   -0.564431027   -0.320696544   -0.564431027   -0.320696544   -0.564431027
60552764.000000000   -0.323494201   -0.556406462   -0.323494201   -0.556406462   -0.323494201   -0.556406462   -0.323494201   -0.556406462
60653266.000000000   -0.326191656   -0.548585380   -0.326191656   -0.548585380   -0.326191656   -0.548585380   -0.326191656   -0.548585380
60753769.000000000   -0.328700029   -0.540903963   -0.328700029   -0.540903963   -0.328700029   -0.540903963   -0.328700029   -0.540903963
60854271.000000000   -0.331298204   -0.533327092   -0.331298204   -0.533327092   -0.331298204   -0.533327092   -0.331298204   -0.533327092
60954774.000000000   -0.333796057   -0.525898263   -0.333796057   -0.525898263   -0.333796057   -0.525898263   -0.333796057   -0.525898263
61055276.000000000   -0.336158248   -0.518528342   -0.336158248   -0.518528342   -0.336158248   -0.518528342   -0.336158248   -0.518528342
61155779.000000000   -0.338563798   -0.511154131   -0.338563798   -0.511154131   -0.338563798   -0.511154131   -0.338563798   -0.511154131
61256281.000000000   -0.340960838   -0.503975739   -0.340960838   -0.503975739   -0.340960838   -0.503975739   -0.340960838   -0.503975739
61356784.000000000   -0.343425779   -0.496771023   -0.343425779   -0.496771023   -0.343425779   -0.496771023   -0.343425779   -0.496771023
61457286.000000000   -0.345704415   -0.489585116   -0.345704415   -0.489585116   -0.345704415   -0.489585116   -0.345704415   -0.489585116
61557789.000000000   -0.348005647   -0.482403094   -0.348005647   -0.482403094   -0.348005647   -0.482403094   -0.348005647   -0.482403094
61658291.000000000   -0.350289998   -0.475015735   -0.350289998   -0.475015735   -0.350289998   -0.475015735   -0.350289998   -0.475015735
61758794.000000000   -0.352494869   -0.467853602   -0.352494869   -0.467853602   -0.352494869   -0.467853602   -0.352494869   -0.467853602
61859296.000000000   -0.354469060   -0.460480317   -0.354469060   -0.460480317   -0.354469060   -0.460480317   -0.354469060   -0.460480317
61959799.000000000   -0.356363188   -0.453327743   -0.356363188   -0.453327743   -0.356363188   -0.453327743   -0.356363188   -0.453327743
62060302.000000000   -0.358100167   -0.446133368   -0.358100167   -0.446133368   -0.358100167   -0.446133368   -0.358100167   -0.446133368
62160804.000000000   -0.359547315   -0.439195615   -0.359547315   -0.439195615   -0.359547315   -0.439195615   -0.359547315   -0.439195615
62261307.000000000   -0.360954909   -0.432377939   -0.360954909   -0.432377939   -0.360954909   -0.432377939   -0.360954909   -0.432377939
62361809.000000000   -0.362369652   -0.425972717   -0.362369652   -0.425972717   -0.362369652   -0.425972717   -0.362369652   -0.425972717
62462312.000000000   -0.363746487   -0.419706050   -0.363746487   -0.419706050   -0.363746487   -0.419706050   -0.363746487   -0.419706050
62562814.000000000   -0.365259588   -0.413672172   -0.365259588   -0.413672172   -0.365259588   -0.413672172   -0.365259588   -0.413672172
62663317.000000000   -0.366820963   -0.407847428   -0.366820963   -0.407847428   -0.366820963   -0.407847428   -0.366820963   -0.407847428
62763819.000000000   -0.368843735   -0.401956525   -0.368843735   -0.401956525   -0.368843735   -0.401956525   -0.368843735   -0.401956525
62864322.000000000   -0.370956133   -0.396211208   -0.370956133   -0.396211208   -0.370956133   -0.396211208   -0.370956133   -0.396211208
62964824.000000000   -0.373444160   -0.390630196   -0.373444160   -0.390630196   -0.373444160   -0.390630196   -0.373444160   -0.390630196
63065327.000000000   -0.376125183   -0.384869550   -0.376125183   -0.384869550   -0.376125183   -0.384869550   -0.376125183   -0.384869550
63165829.000000000   -0.379023013   -0.379035276   -0.379023013   -0.379035276   -0.379023013   -0.379035276   -0.379023013   -0.379035276
63266332.000000000   -0.382257238   -0.373123519   -0.382257238   -0.373123519   -0.382257238   -0.373123519   -0.382257238   -0.373123519
63366834.000000000   -0.385857137   -0.367291221   -0.385857137   -0.367291221   -0.385857137   -0.367291221   -0.385857137   -0.367291221
63467337.000000000   -0.389830050   -0.361137768   -0.389830050   -0.361137768   -0.389830050   -0.361137768   -0.389830050   -0.361137768
63567839.000000000   -0.394123750   -0.354726349   -0.394123750   -0.354726349   -0.394123750   -0.354726349   -0.394123750   -0.354726349
63668342.000000000   -0.398726114   -0.348003294   -0.398726114   -0.348003294   -0.398726114   -0.348003294   -0.398726114   -0.348003294
63768844.000000000   -0.403765024   -0.340772156   -0.403765024   -0.340772156   -0.403765024   -0.340772156   -0.403765024   -0.340772156
63869347.000000000   -0.408935147   -0.333009408   -0.408935147   -0.333009408   -0.408935147   -0.333009408   -0.408935147   -0.333009408
63969849.000000000   -0.414320899   -0.324773244   -0.414320899   -0.324773244   -0.414320899   -0.324773244   -0.414320899   -0.324773244
64070352.000000000   -0.419774503   -0.315967930   -0.419774503   -0.315967930   -0.419774503   -0.315967930   -0.419774503   -0.315967930
64170854.000000000   -0.425414085   -0.306468915   -0.425414085   -0.306468915   -0.425414085   -0.306468915   -0.425414085   -0.306468915
64271357.000000000   -0.430928584   -0.296393552   -0.430928584   -0.296393552   -0.430928584   -0.296393552   -0.430928584   -0.296393552
64371859.000000000   -0.436485618   -0.285854314   -0.436485618   -0.285854314   -0.436485618   -0.285854314   -0.436485618   -0.285854314
64472362.000000000   -0.441826068   -0.274558906   -0.441826068   -0.274558906   -0.441826068   -0.274558906   -0.441826068   -0.274558906
64572864.000000000   -0.447305762   -0.262911989   -0.447305762   -0.262911989   -0.447305762   -0.262911989   -0.447305762   -0.262911989
64673367.000000000   -0.452781474   -0.250277545   -0.452781474   -0.250277545   -0.452781474   -0.250277545   -0.452781474   -0.250277545
64773869.000000000   -0.458132802   -0.236819969   -0.458132802   -0.236819969   -0.458132802   -0.236819969   -0.458132802   -0.236819969
64874372.000000000   -0.462973797   -0.222402089   -0.462973797   -0.222402089   -0.462973797   -0.222402089   -0.462973797   -0.222402089
64974874.000000000   -0.467521272   -0.207149394   -0.467521272   -0.207149394   -0.467521272   -0.207149394   -0.467521272   -0.207149394
65075377.000000000   -0.471364757   -0.191275014   -0.471364757   -0.191275014   -0.471364757   -0.191275014   -0.471364757   -0.191275014
65175879.000000000   -0.474619729   -0.174616056   -0.474619729   -0.174616056   -0.474619729   -0.174616056   -0.474619729   -0.174616056
65276382.000000000   -0.477105613   -0.157058143   -0.477105613   -0.157058143   -0.477105613   -0.157058143   -0.477105613   -0.157058143
65376884.000000000   -0.478885434   -0.138880170   -0.478885434   -0.138880170   -0.478885434   -0.138880170   -0.478885434   -0.138880170
65477387.000000000   -0.479873147   -0.120216253   -0.479873147   -0.120216253   -0.479873147   -0.120216253   -0.479873147   -0.120216253
65577889.000000000   -0.480070375   -0.100889625   -0.480070375   -0.100889625   -0.480070375   -0.100889625   -0.480070375   -0.100889625
65678392.000000000   -0.478795900   -0.081046174   -0.478795900   -0.081046174   -0.478795900   -0.081046174   -0.478795900   -0.081046174
65778894.000000000   -0.476766013   -0.060779758   -0.476766013   -0.060779758   -0.476766013   -0.060779758   -0.476766013   -0.060779758
65879397.000000000   -0.473879612   -0.040276762   -0.473879612   -0.040276762   -0.473879612   -0.040276762   -0.473879612   -0.040276762
65979899.000000000   -0.469666321   -0.019568304   -0.469666321   -0.019568304   -0.469666321   -0.019568304   -0.469666321   -0.019568304
66080402.000000000   -0.464333780   0.001298010   -0.464333780   0.001298010   -0.464333780   0.001298010   -0.464333780   0.001298010
66180905.000000000   -0.457442098   0.022043152   -0.457442098   0.022043152   -0.457442098   0.022043152   -0.457442098   0.022043152
66281407.000000000   -0.449487013   0.042784273   -0.449487013   0.042784273   -0.449487013   0.042784273   -0.449487013   0.042784273
66381910.000000000   -0.440771009   0.063321704   -0.440771009   0.063321704   -0.440771009   0.063321704   -0.440771009   0.063321704
66482412.000000000   -0.431023302   0.083477844   -0.431023302   0.083477844   -0.431023302   0.083477844   -0.431023302   0.083477844
66582915.000000000   -0.420002736   0.103153524   -0.420002736   0.103153524   -0.420002736   0.103153524   -0.420002736   0.103153524
66683417.000000000   -0.408384980   0.122510310   -0.408384980   0.122510310   -0.408384980   0.122510310   -0.408384980   0.122510310
66783920.000000000   -0.396334407   0.141690580   -0.396334407   0.141690580   -0.396334407   0.141690580   -0.396334407   0.141690580
66884422.000000000   -0.383495952   0.160316807   -0.383495952   0.160316807   -0.383495952   0.160316807   -0.383495952   0.160316807
66984925.000000000   -0.369574432   0.179409062   -0.369574432   0.179409062   -0.369574432   0.179409062   -0.369574432   0.179409062
67085427.000000000   -0.355473501   0.198152275   -0.355473501   0.198152275   -0.355473501   0.198152275   -0.355473501   0.198152275
67185930.000000000   -0.339705402   0.216838338   -0.339705402   0.216838338   -0.339705402   0.216838338   -0.339705402   0.216838338
67286432.000000000   -0.323444116   0.235698046   -0.323444116   0.235698046   -0.323444116   0.235698046   -0.323444116   0.235698046
67386935.000000000   -0.305717494   0.254591822   -0.305717494   0.254591822   -0.305717494   0.254591822   -0.305717494   0.254591822
67487437.000000000   -0.286178139   0.273301762   -0.286178139   0.273301762   -0.286178139   0.273301762   -0.286178139   0.273301762
67587940.000000000   -0.265413247   0.291217244   -0.265413247   0.291217244   -0.265413247   0.291217244   -0.265413247   0.291217244
67688442.000000000   -0.243397699   0.308285327   -0.243397699   0.308285327   -0.243397699   0.308285327   -0.243397699   0.308285327
67788945.000000000   -0.218926826   0.324669484   -0.218926826   0.324669484   -0.218926826   0.324669484   -0.218926826   0.324669484
67889447.000000000   -0.194151682   0.339919636   -0.194151682   0.339919636   -0.194151682   0.339919636   -0.194151682   0.339919636
67989950.000000000   -0.167895819   0.353674331   -0.167895819   0.353674331   -0.167895819   0.353674331   -0.167895819   0.353674331
68090452.000000000   -0.140399820   0.365752717   -0.140399820   0.365752717   -0.140399820   0.365752717   -0.140399820   0.365752717
68190955.000000000   -0.111433853   0.376995116   -0.111433853   0.376995116   -0.111433853   0.376995116   -0.111433853   0.376995116
68291457.000000000   -0.082041694   0.386346642   -0.082041694   0.386346642   -0.082041694   0.386346642   -0.082041694   0.386346642
68391960.000000000   -0.051755011   0.394420969   -0.051755011   0.394420969   -0.051755011   0.394420969   -0.051755011   0.394420969
68492462.000000000   -0.021629112   0.399994911   -0.021629112   0.399994911   -0.021629112   0.399994911   -0.021629112   0.399994911
68592965.000000000   0.009659140   0.405049130   0.009659140   0.405049130   0.009659140   0.405049130   0.009659140   0.405049130
68693467.000000000   0.041530487   0.408280861   0.041530487   0.408280861   0.041530487   0.408280861   0.041530487   0.408280861
68793970.000000000   0.073778940   0.409735908   0.073778940   0.409735908   0.073778940   0.409735908   0.073778940   0.409735908
68894472.000000000   0.105713211   0.408951981   0.105713211   0.408951981   0.105713211   0.408951981   0.105713211   0.408951981
68994975.000000000   0.138376347   0.408011574   0.138376347   0.408011574   0.138376347   0.408011574   0.138376347   0.408011574
69095477.000000000   0.171472538   0.403982168   0.171472538   0.403982168   0.171472538   0.403982168   0.171472538   0.403982168
69195980.000000000   0.204459461   0.398541647   0.204459461   0.398541647   0.204459461   0.398541647   0.204459461   0.398541647
69296482.000000000   0.236942086   0.390970046   0.236942086   0.390970046   0.236942086   0.390970046   0.236942086   0.390970046
69396985.000000000   0.270037589   0.381073190   0.270037589   0.381073190   0.270037589   0.381073190   0.270037589   0.381073190
69497487.000000000   0.302184840   0.369674551   0.302184840   0.369674551   0.302184840   0.369674551   0.302184840   0.369674551
69597990.000000000   0.333551739   0.356160086   0.333551739   0.356160086   0.333551739   0.356160086   0.333551739   0.356160086
69698492.000000000   0.364555153   0.341628116   0.364555153   0.341628116   0.364555153   0.341628116   0.364555153   0.341628116
69798995.000000000   0.394472586   0.323829119   0.394472586   0.323829119   0.394472586   0.323829119   0.394472586   0.323829119
69899497.000000000   0.423439541   0.305035284   0.423439541   0.305035284   0.423439541   0.305035284   0.423439541   0.305035284
70000000.000000000   0.451474742   0.284427560   0.451474742   0.284427560   0.451474742   0.284427560   0.451474742   0.284427560
70100503.000000000   0.478228624   0.261781065   0.478228624   0.261781065   0.478228624   0.261781065   0.478228624   0.261781065
70201005.000000000   0.503021752   0.237661624   0.503021752   0.237661624   0.503021752   0.237661624   0.503021752   0.237661624
70301508.000000000   0.527350293   0.211926101   0.527350293   0.211926101   0.527350293   0.211926101   0.527350293   0.211926101
70402010.000000000   0.548520149   0.184689456   0.548520149   0.184689456   0.548520149   0.184689456   0.548520149   0.184689456
70502513.000000000   0.567640445   0.156626222   0.567640445   0.156626222   0.567640445   0.156626222   0.567640445   0.156626222
70603015.000000000   0.585605657   0.127221029   0.585605657   0.127221029   0.585605657   0.127221029   0.585605657   0.127221029
70703518.000000000   0.600784266   0.097311753   0.600784266   0.097311753   0.600784266   0.097311753   0.600784266   0.097311753
70804020.000000000   0.614071389   0.067627921   0.614071389   0.067627921   0.614071389   0.067627921   0.614071389   0.067627921
70904523.000000000   0.625391631   0.037277046   0.625391631   0.037277046   0.625391631   0.037277046   0.625391631   0.037277046
71005025.000000000   0.634873297   0.007295621   0.634873297   0.007295621   0.634873297   0.007295621   0.634873297   0.007295621
71105528.000000000   0.642106468   -0.022785861   0.642106468   -0.022785861   0.642106468   -0.022785861   0.642106468   -0.022785861
71206030.000000000   0.647497053   -0.053664434   0.647497053   -0.053664434   0.647497053   -0.053664434   0.647497053   -0.053664434
71306533.000000000   0.651859247   -0.082911037   0.651859247   -0.082911037   0.651859247   -0.082911037   0.651859247   -0.082911037
71407035.000000000   0.653896074   -0.112106682   0.653896074   -0.112106682   0.653896074   -0.112106682   0.653896074   -0.112106682
71507538.000000000   0.655088995   -0.140645046   0.655088995   -0.140645046   0.655088995   -0.140645046   0.655088995   -0.140645046
71608040.000000000   0.654326275   -0.168563377   0.654326275   -0.168563377   0.654326275   -0.168563377   0.654326275   -0.168563377
71708543.000000000   0.652521245   -0.196036573   0.652521245   -0.196036573   0.652521245   -0.196036573   0.652521245   -0.196036573
71809045.000000000   0.649559721   -0.222373450   0.649559721   -0.222373450   0.649559721   -0.222373450   0.649559721   -0.222373450
71909548.000000000   0.645482017   -0.248398053   0.645482017   -0.248398053   0.645482017   -0.248398053   0.645482017   -0.248398053
72010050.000000000   0.640333975   -0.272947440   0.640333975   -0.272947440   0.640333975   -0.272947440   0.640333975   -0.272947440
72110553.000000000   0.634902421   -0.297001039   0.634902421   -0.297001039   0.634902421   -0.297001039   0.634902421   -0.297001039
72211055.000000000   0.628020930   -0.320539129   0.628020930   -0.320539129   0.628020930   -0.320539129   0.628020930   -0.320539129
72311558.000000000   0.620330169   -0.343020397   0.620330169   -0.343020397   0.620330169   -0.343020397   0.620330169   -0.343020397
72412060.000000000   0.612277034   -0.365007442   0.612277034   -0.365007442   0.612277034   -0.365007442   0.612277034   -0.365007442
72512563.000000000   0.603518757   -0.385889421   0.603518757   -0.385889421   0.603518757   -0.385889421   0.603518757   -0.385889421
72613065.000000000   0.594200739   -0.406266325   0.594200739   -0.406266325   0.594200739   -0.406266325   0.594200739   -0.406266325
72713568.000000000   0.584416419   -0.425970909   0.584416419   -0.425970909   0.584416419   -0.425970909   0.584416419   -0.425970909
72814070.000000000   0.574334306   -0.444772911   0.574334306   -0.444772911   0.574334306   -0.444772911   0.574334306   -0.444772911
72914573.000000000   0.563547551   -0.462993339   0.563547551   -0.462993339   0.563547551   -0.462993339   0.563547551   -0.462993339
73015075.000000000   0.552301707   -0.480580248   0.552301707   -0.480580248   0.552301707   -0.480580248   0.552301707   -0.480580248
73115578.000000000   0.540666973   -0.497538654   0.540666973   -0.497538654   0.540666973   -0.497538654   0.540666973   -0.497538654
73216080.000000000   0.528650584   -0.513834648   0.528650584   -0.513834648   0.528650584   -0.513834648   0.528650584   -0.513834648
73316583.000000000   0.516066248   -0.529532413   0.516066248   -0.529532413   0.516066248   -0.529532413   0.516066248   -0.529532413
73417085.000000000   0.503079962   -0.544449947   0.503079962   -0.544449947   0.503079962   -0.544449947   0.503079962   -0.544449947
73517588.000000000   0.489857850   -0.558596586   0.489857850   -0.558596586   0.489857850   -0.558596586   0.489857850   -0.558596586
73618090.000000000   0.476372849   -0.572368159   0.476372849   -0.572368159   0.476372849   -0.572368159   0.476372849   -0.572368159
73718593.000000000   0.462382164   -0.584866867   0.462382164   -0.584866867   0.462382164   -0.584866867   0.462382164   -0.584866867
73819095.000000000   0.448321704   -0.596703615   0.448321704   -0.596703615   0.448321704   -0.596703615   0.448321704   -0.596703615
73919598.000000000   0.433932707   -0.607596735   0.433932707   -0.607596735   0.433932707   -0.607596735   0.433932707   -0.607596735
74020101.000000000   0.420028475   -0.617909206   0.420028475   -0.617909206   0.420028475   -0.617909206   0.420028475   -0.617909206
74120603.000000000   0.405852467   -0.627580546   0.405852467   -0.627580546   0.405852467   -0.627580546   0.405852467   -0.627580546
74221106.000000000   0.391775850   -0.636524686   0.391775850   -0.636524686   0.391775850   -0.636524686   0.391775850   -0.636524686
74321608.000000000   0.377472573   -0.645029820   0.377472573   -0.645029820   0.377472573   -0.645029820   0.377472573   -0.645029820
74422111.000000000   0.363357318   -0.652737192   0.363357318   -0.652737192   0.363357318   -0.652737192   0.363357318   -0.652737192
74522613.000000000   0.349283482   -0.660149454   0.349283482   -0.660149454   0.349283482   -0.660149454   0.349283482   -0.660149454
74623116.000000000   0.335476866   -0.666722606   0.335476866   -0.666722606   0.335476866   -0.666722606   0.335476866   -0.666722606
74723618.000000000   0.321584366   -0.672784430   0.321584366   -0.672784430   0.321584366   -0.672784430   0.321584366   -0.672784430
74824121.000000000   0.308032418   -0.678490515   0.308032418   -0.678490515   0.308032418   -0.678490515   0.308032418   -0.678490515
74924623.000000000   0.294347807   -0.683432493   0.294347807   -0.683432493   0.294347807   -0.683432493   0.294347807   -0.683432493
75025126.000000000   0.280880393   -0.688238525   0.280880393   -0.688238525   0.280880393   -0.688238525   0.280880393   -0.688238525
75125628.000000000   0.267661030   -0.692748311   0.267661030   -0.692748311   0.267661030   -0.692748311   0.267661030   -0.692748311
75226131.000000000   0.254664966   -0.696551868   0.254664966   -0.696551868   0.254664966   -0.696551868   0.254664966   -0.696551868
75326633.000000000   0.241523258   -0.700314803   0.241523258   -0.700314803   0.241523258   -0.700314803   0.241523258   -0.700314803
75427136.000000000   0.228612553   -0.703549622   0.228612553   -0.703549622   0.228612553   -0.703549622   0.228612553   -0.703549622
75527638.000000000   0.216063372   -0.706409651   0.216063372   -0.706409651   0.216063372   -0.706409651   0.216063372   -0.706409651
75628141.000000000   0.203534179   -0.709035166   0.203534179   -0.709035166   0.203534179   -0.709035166   0.203534179   -0.709035166
75728643.000000000   0.191212340   -0.711295161   0.191212340   -0.711295161   0.191212340   -0.711295161   0.191212340   -0.711295161
75829146.000000000   0.178750544   -0.713257272   0.178750544   -0.713257272   0.178750544   -0.713257272   0.178750544   -0.713257272
75929648.000000000   0.166615014   -0.715024719   0.166615014   -0.715024719   0.166615014   -0.715024719   0.166615014   -0.715024719
76030151.000000000   0.154412109   -0.716670467   0.154412109   -0.716670467   0.154412109   -0.716670467   0.154412109   -0.716670467
76130653.000000000   0.142349204   -0.717909525   0.142349204   -0.717909525   0.142349204   -0.717909525   0.142349204   -0.717909525
76231156.000000000   0.130532803   -0.718756237   0.130532803   -0.718756237   0.130532803   -0.718756237   0.130532803   -0.718756237
76331658.000000000   0.118738731   -0.719355340   0.118738731   -0.719355340   0.118738731   -0.719355340   0.118738731   -0.719355340
76432161.000000000   0.106780663   -0.719760845   0.106780663   -0.719760845   0.106780663   -0.719760845   0.106780663   -0.719760845
76532663.000000000   0.095071765   -0.719867414   0.095071765   -0.719867414   0.095071765   -0.719867414   0.095071765   -0.719867414
76633166.000000000   0.083608290   -0.719403977   0.083608290   -0.719403977   0.083608290   -0.719403977   0.083608290   -0.719403977
76733668.000000000   0.072181013   -0.718951511   0.072181013   -0.718951511   0.072181013   -0.718951511   0.072181013   -0.718951511
76834171.000000000   0.060802877   -0.718083532   0.060802877   -0.718083532   0.060802877   -0.718083532   0.060802877   -0.718083532
76934673.000000000   0.049618974   -0.716835118   0.049618974   -0.716835118   0.049618974   -0.716835118   0.049618974   -0.716835118
77035176.000000000   0.038933885   -0.715430776   0.038933885   -0.715430776   0.038933885   -0.715430776   0.038933885   -0.715430776
77135678.000000000   0.028003664   -0.713685459   0.028003664   -0.713685459   0.028003664   -0.713685459   0.028003664   -0.713685459
77236181.000000000   0.017489987   -0.711543696   0.017489987   -0.711543696   0.017489987   -0.711543696   0.017489987   -0.711543696
77336683.000000000   0.007262089   -0.709493606   0.007262089   -0.709493606   0.007262089   -0.709493606   0.007262089   -0.709493606
77437186.000000000   -0.002910613   -0.707146836   -0.002910613   -0.707146836   -0.002910613   -0.707146836   -0.002910613   -0.707146836
77537688.000000000   -0.012830856   -0.704363099   -0.012830856   -0.704363099   -0.012830856   -0.704363099   -0.012830856   -0.704363099
77638191.000000000   -0.022564283   -0.701534730   -0.022564283   -0.701534730   -0.022564283   -0.701534730   -0.022564283   -0.701534730
77738693.000000000   -0.032100590   -0.698420148   -0.032100590   -0.698420148   -0.032100590   -0.698420148   -0.032100590   -0.698420148
77839196.000000000   -0.041375224   -0.695277436   -0.041375224   -0.695277436   -0.041375224   -0.695277436   -0.041375224   -0.695277436
77939698.000000000   -0.050455850   -0.691689835   -0.050455850   -0.691689835   -0.050455850   -0.691689835   -0.050455850   -0.691689835
78040201.000000000   -0.059196930   -0.688076834   -0.059196930   -0.688076834   -0.059196930   -0.688076834   -0.059196930   -0.688076834
78140704.000000000   -0.067664648   -0.684354957   -0.067664648   -0.684354957   -0.067664648   -0.684354957   -0.067664648   -0.684354957
78241206.000000000   -0.075998389   -0.680599733   -0.075998389   -0.680599733   -0.075998389   -0.680599733   -0.075998389   -0.680599733
78341709.000000000   -0.084055551   -0.676619191   -0.084055551   -0.676619191   -0.084055551   -0.676619191   -0.084055551   -0.676619191
78442211.000000000   -0.091995730   -0.672546120   -0.091995730   -0.672546120   -0.091995730   -0.672546120   -0.091995730   -0.672546120
78542714.000000000   -0.099439910   -0.668471504   -0.099439910   -0.668471504   -0.099439910   -0.668471504   -0.099439910   -0.668471504
78643216.000000000   -0.106887860   -0.664179379   -0.106887860   -0.664179379   -0.106887860   -0.664179379   -0.106887860   -0.664179379
78743719.000000000   -0.113977029   -0.660011179   -0.113977029   -0.660011179   -0.113977029   -0.660011179   -0.113977029   -0.660011179
78844221.000000000   -0.120898387   -0.655581739   -0.120898387   -0.655581739   -0.120898387   -0.655581739   -0.120898387   -0.655581739
78944724.000000000   -0.127609155   -0.651320685   -0.127609155   -0.651320685   -0.127609155   -0.651320685   -0.127609155   -0.651320685
79045226.000000000   -0.134107652   -0.646835914   -0.134107652   -0.646835914   -0.134107652   -0.646835914   -0.134107652   -0.646835914
79145729.000000000   -0.140079872   -0.642307658   -0.140079872   -0.642307658   -0.140079872   -0.642307658   -0.140079872   -0.642307658
79246231.000000000   -0.146206280   -0.637893629   -0.146206280   -0.637893629   -0.146206280   -0.637893629   -0.146206280   -0.637893629
79346734.000000000   -0.151738287   -0.633256852   -0.151738287   -0.633256852   -0.151738287   -0.633256852   -0.151738287   -0.633256852
79447236.000000000   -0.157050716   -0.628950799   -0.157050716   -0.628950799   -0.157050716   -0.628950799   -0.157050716   -0.628950799
79547739.000000000   -0.162186211   -0.624550224   -0.162186211   -0.624550224   -0.162186211   -0.624550224   -0.162186211   -0.624550224
79648241.000000000   -0.166794897   -0.620166965   -0.166794897   -0.620166965   -0.166794897   -0.620166965   -0.166794897   -0.620166965
79748744.000000000   -0.171639142   -0.616091836   -0.171639142   -0.616091836   -0.171639142   -0.616091836   -0.171639142   -0.616091836
79849246.000000000   -0.175893815   -0.612168568   -0.175893815   -0.612168568   -0.175893815   -0.612168568   -0.175893815   -0.612168568
79949749.000000000   -0.179807140   -0.608319056   -0.179807140   -0.608319056   -0.179807140   -0.608319056   -0.179807140   -0.608319056
80050251.000000000   -0.183568926   -0.605108777   -0.183568926   -0.605108777   -0.183568926   -0.605108777   -0.183568926   -0.605108777
80150754.000000000   -0.187219758   -0.602135917   -0.187219758   -0.602135917   -0.187219758   -0.602135917   -0.187219758   -0.602135917
80251256.000000000   -0.190838804   -0.599643540   -0.190838804   -0.599643540   -0.190838804   -0.599643540   -0.190838804   -0.599643540
80351759.000000000   -0.194213136   -0.597548696   -0.194213136   -0.597548696   -0.194213136   -0.597548696   -0.194213136   -0.597548696
80452261.000000000   -0.197870665   -0.596135541   -0.197870665   -0.596135541   -0.197870665   -0.596135541   -0.197870665   -0.596135541
80552764.000000000   -0.201830372   -0.595235757   -0.201830372   -0.595235757   -0.201830372   -0.595235757   -0.201830372   -0.595235757
80653266.000000000   -0.205981748   -0.594967459   -0.205981748   -0.594967459   -0.205981748   -0.594967459   -0.205981748   -0.594967459
80753769.000000000   -0.211200563   -0.595206573   -0.211200563   -0.595206573   -0.211200563   -0.595206573   -0.211200563   -0.595206573
80854271.000000000   -0.217096675   -0.595564432   -0.217096675   -0.595564432   -0.217096675   -0.595564432   -0.217096675   -0.595564432
80954774.000000000   -0.224146106   -0.596022098   -0.224146106   -0.596022098   -0.224146106   -0.596022098   -0.224146106   -0.596022098
81055276.000000000   -0.232298810   -0.596274995   -0.232298810   -0.596274995   -0.232298810   -0.596274995   -0.232298810   -0.596274995
81155779.000000000   -0.241180443   -0.595738945   -0.241180443   -0.595738945   -0.241180443   -0.595738945   -0.241180443   -0.595738945
81256281.000000000   -0.251159292   -0.594336994   -0.251159292   -0.594336994   -0.251159292   -0.594336994   -0.251159292   -0.594336994
81356784.000000000   -0.261509592   -0.591978303   -0.261509592   -0.591978303   -0.261509592   -0.591978303   -0.261509592   -0.591978303
81457286.000000000   -0.272009765   -0.588212320   -0.272009765   -0.588212320   -0.272009765   -0.588212320   -0.272009765   -0.588212320
81557789.000000000   -0.282704034   -0.583285121   -0.282704034   -0.583285121   -0.282704034   -0.583285121   -0.282704034   -0.583285121
81658291.000000000   -0.292767163   -0.577276057   -0.292767163   -0.577276057   -0.292767163   -0.577276057   -0.292767163   -0.577276057
81758794.000000000   -0.302473005   -0.570403331   -0.302473005   -0.570403331   -0.302473005   -0.570403331   -0.302473005   -0.570403331
81859296.000000000   -0.311231347   -0.562916128   -0.311231347   -0.562916128   -0.311231347   -0.562916128   -0.311231347   -0.562916128
81959799.000000000   -0.319407334   -0.554734654   -0.319407334   -0.554734654   -0.319407334   -0.554734654   -0.319407334   -0.554734654
82060302.000000000   -0.326598429   -0.546275854   -0.326598429   -0.546275854   -0.326598429   -0.546275854   -0.326598429   -0.546275854
82160804.000000000   -0.333120594   -0.537608719   -0.333120594   -0.537608719   -0.333120594   -0.537608719   -0.333120594   -0.537608719
82261307.000000000   -0.338917371   -0.528721374   -0.338917371   -0.528721374   -0.338917371   -0.528721374   -0.338917371   -0.528721374
82361809.000000000   -0.344070131   -0.520092604   -0.344070131   -0.520092604   -0.344070131   -0.520092604   -0.344070131   -0.520092604
82462312.000000000   -0.348461230   -0.511390266   -0.348461230   -0.511390266   -0.348461230   -0.511390266   -0.348461230   -0.511390266
82562814.000000000   -0.352250779   -0.502886784   -0.352250779   -0.502886784   -0.352250779   -0.502886784   -0.352250779   -0.502886784
82663317.000000000   -0.355612035   -0.494852916   -0.355612035   -0.494852916   -0.355612035   -0.494852916   -0.355612035   -0.494852916
82763819.000000000   -0.358538779   -0.487334795   -0.358538779   -0.487334795   -0.358538779   -0.487334795   -0.358538779   -0.487334795
82864322.000000000   -0.361344545   -0.480281590   -0.361344545   -0.480281590   -0.361344545   -0.480281590   -0.361344545   -0.480281590
82964824.000000000   -0.364076886   -0.473368738   -0.364076886   -0.473368738   -0.364076886   -0.473368738   -0.364076886   -0.473368738
83065327.000000000   -0.366806839   -0.466903023   -0.366806839   -0.466903023   -0.366806839   -0.466903023   -0.366806839   -0.466903023
83165829.000000000   -0.369580185   -0.460503184   -0.369580185   -0.460503184   -0.369580185   -0.460503184   -0.369580185   -0.460503184
83266332.000000000   -0.372297869   -0.454425795   -0.372297869   -0.454425795   -0.372297869   -0.454425795   -0.372297869   -0.454425795
83366834.000000000   -0.375193134   -0.448327057   -0.375193134   -0.448327057   -0.375193134   -0.448327057   -0.375193134   -0.448327057
83467337.000000000   -0.378064047   -0.442559641   -0.378064047   -0.442559641   -0.378064047   -0.442559641   -0.378064047   -0.442559641
83567839.000000000   -0.380920846   -0.436665290   -0.380920846   -0.436665290   -0.380920846   -0.436665290   -0.380920846   -0.436665290
83668342.000000000   -0.383996937   -0.431026845   -0.383996937   -0.431026845   -0.383996937   -0.431026845   -0.383996937   -0.431026845
83768844.000000000   -0.387090433   -0.425340812   -0.387090433   -0.425340812   -0.387090433   -0.425340812   -0.387090433   -0.425340812
83869347.000000000   -0.390268759   -0.419639892   -0.390268759   -0.419639892   -0.390268759   -0.419639892   -0.390268759   -0.419639892
83969849.000000000   -0.393451490   -0.413892526   -0.393451490   -0.413892526   -0.393451490   -0.413892526   -0.393451490   -0.413892526
84070352.000000000   -0.396816185   -0.408107681   -0.396816185   -0.408107681   -0.396816185   -0.408107681   -0.396816185   -0.408107681
84170854.000000000   -0.400283816   -0.402418646   -0.400283816   -0.402418646   -0.400283816   -0.402418646   -0.400283816   -0.402418646
84271357.000000000   -0.403706399   -0.396473021   -0.403706399   -0.396473021   -0.403706399   -0.396473021   -0.403706399   -0.396473021
84371859.000000000   -0.407205621   -0.390597178   -0.407205621   -0.390597178   -0.407205621   -0.390597178   -0.407205621   -0.390597178
84472362.000000000   -0.410761785   -0.384564020   -0.410761785   -0.384564020   -0.410761785   -0.384564020   -0.410761785   -0.384564020
84572864.000000000   -0.414380245   -0.378514983   -0.414380245   -0.378514983   -0.414380245   -0.378514983   -0.414380245   -0.378514983
84673367.000000000   -0.418019118   -0.372385323   -0.418019118   -0.372385323   -0.418019118   -0.372385323   -0.418019118   -0.372385323
84773869.000000000   -0.421702520   -0.366006542   -0.421702520   -0.366006542   -0.421702520   -0.366006542   -0.421702520   -0.366006542
84874372.000000000   -0.425447304   -0.359468296   -0.425447304   -0.359468296   -0.425447304   -0.359468296   -0.425447304   -0.359468296
84974874.000000000   -0.429229607   -0.353052164   -0.429229607   -0.353052164   -0.429229607   -0.353052164   -0.429229607   -0.353052164
85075377.000000000   -0.432878230   -0.346104110   -0.432878230   -0.346104110   -0.432878230   -0.346104110   -0.432878230   -0.346104110
85175879.000000000   -0.436635420   -0.339321844   -0.436635420   -0.339321844   -0.436635420   -0.339321844   -0.436635420   -0.339321844
85276382.000000000   -0.440445257   -0.332016708   -0.440445257   -0.332016708   -0.440445257   -0.332016708   -0.440445257   -0.332016708
85376884.000000000   -0.444224436   -0.324689542   -0.444224436   -0.324689542   -0.444224436   -0.324689542   -0.444224436   -0.324689542
85477387.000000000   -0.448073968   -0.317084270   -0.448073968   -0.317084270   -0.448073968   -0.317084270   -0.448073968   -0.317084270
85577889.000000000   -0.451810854   -0.309397180   -0.451810854   -0.309397180   -0.451810854   -0.309397180   -0.451810854   -0.309397180
85678392.000000000   -0.455526296   -0.301186737   -0.455526296   -0.301186737   -0.455526296   -0.301186737   -0.455526296   -0.301186737
85778894.000000000   -0.459114090   -0.292980301   -0.459114090   -0.292980301   -0.459114090   -0.292980301   -0.459114090   -0.292980301
85879397.000000000   -0.462590920   -0.284303342   -0.462590920   -0.284303342   -0.462590920   -0.284303342   -0.462590920   -0.284303342
85979899.000000000   -0.466025970   -0.275519243   -0.466025970   -0.275519243   -0.466025970   -0.275519243   -0.466025970   -0.275519243
86080402.000000000   -0.469333125   -0.266511468   -0.469333125   -0.266511468   -0.469333125   -0.266511468   -0.469333125   -0.266511468
86180905.000000000   -0.472519732   -0.257169172   -0.472519732   -0.257169172   -0.472519732   -0.257169172   -0.472519732   -0.257169172
86281407.000000000   -0.475417873   -0.247710086   -0.475417873   -0.247710086   -0.475417873   -0.247710086   -0.475417873   -0.247710086
86381910.000000000   -0.478337930   -0.237921209   -0.478337930   -0.237921209   -0.478337930   -0.237921209   -0.478337930   -0.237921209
86482412.000000000   -0.481032514   -0.227996186   -0.481032514   -0.227996186   -0.481032514   -0.227996186   -0.481032514   -0.227996186
86582915.000000000   -0.483410644   -0.217767482   -0.483410644   -0.217767482   -0.483410644   -0.217767482   -0.483410644   -0.217767482
86683417.000000000   -0.485481829   -0.207344726   -0.485481829   -0.207344726   -0.485481829   -0.207344726   -0.485481829   -0.207344726
86783920.000000000   -0.487411250   -0.196709487   -0.487411250   -0.196709487   -0.487411250   -0.196709487   -0.487411250   -0.196709487
86884422.000000000   -0.489257011   -0.185909477   -0.489257011   -0.185909477   -0.489257011   -0.185909477   -0.489257011   -0.185909477
86984925.000000000   -0.490524481   -0.174909276   -0.490524481   -0.174909276   -0.490524481   -0.174909276   -0.490524481   -0.174909276
87085427.000000000   -0.491677143   -0.163810249   -0.491677143   -0.163810249   -0.491677143   -0.163810249   -0.491677143   -0.163810249
87185930.000000000   -0.492632881   -0.152518452   -0.492632881   -0.152518452   -0.492632881   -0.152518452   -0.492632881   -0.152518452
87286432.000000000   -0.493102789   -0.141023712   -0.493102789   -0.141023712   -0.493102789   -0.141023712   -0.493102789   -0.141023712
87386935.000000000   -0.493412270   -0.129528993   -0.493412270   -0.129528993   -0.493412270   -0.129528993   -0.493412270   -0.129528993
87487437.000000000   -0.493346224   -0.117795198   -0.493346224   -0.117795198   -0.493346224   -0.117795198   -0.493346224   -0.117795198
87587940.000000000   -0.493082309   -0.105835511   -0.493082309   -0.105835511   -0.493082309   -0.105835511   -0.493082309   -0.105835511
87688442.000000000   -0.492406603   -0.093815009   -0.492406603   -0.093815009   -0.492406603   -0.093815009   -0.492406603   -0.093815009
87788945.000000000   -0.491311443   -0.081778805   -0.491311443   -0.081778805   -0.491311443   -0.081778805   -0.491311443   -0.081778805
87889447.000000000   -0.489983624   -0.069432846   -0.489983624   -0.069432846   -0.489983624   -0.069432846   -0.489983624   -0.069432846
87989950.000000000   -0.488400101   -0.057134786   -0.488400101   -0.057134786   -0.488400101   -0.057134786   -0.488400101   -0.057134786
88090452.000000000   -0.486261154   -0.044682955   -0.486261154   -0.044682955   -0.486261154   -0.044682955   -0.486261154   -0.044682955
88190955.000000000   -0.484096610   -0.032246209   -0.484096610   -0.032246209   -0.484096610   -0.032246209   -0.484096610   -0.032246209
88291457.000000000   -0.481345382   -0.019760232   -0.481345382   -0.019760232   -0.481345382   -0.019760232   -0.481345382   -0.019760232
88391960.000000000   -0.478293804   -0.007008047   -0.478293804   -0.007008047   -0.478293804   -0.007008047   -0.478293804   -0.007008047
88492462.000000000   -0.474761525   0.005735714   -0.474761525   0.005735714   -0.474761525   0.005735714   -0.474761525   0.005735714
88592965.000000000   -0.470888773   0.018565689   -0.470888773   0.018565689   -0.470888773   0.018565689   -0.470888773   0.018565689
88693467.000000000   -0.466845603   0.031325350   -0.466845603   0.031325350   -0.466845603   0.031325350   -0.466845603   0.031325350
88793970.000000000   -0.462284209   0.044163434   -0.462284209   0.044163434   -0.462284209   0.044163434   -0.462284209   0.044163434
88894472.000000000   -0.457368947   0.057149524   -0.457368947   0.057149524   -0.457368947   0.057149524   -0.457368947   0.057149524
88994975.000000000   -0.452021459   0.070237710   -0.452021459   0.070237710   -0.452021459   0.070237710   -0.452021459   0.070237710
89095477.000000000   -0.446236735   0.083191958   -0.446236735   0.083191958   -0.446236735   0.083191958   -0.446236735   0.083191958
89195980.000000000   -0.439879072   0.096394653   -0.439879072   0.096394653   -0.439879072   0.096394653   -0.439879072   0.096394653
89296482.000000000   -0.433358350   0.109272382   -0.433358350   0.109272382   -0.433358350   0.109272382   -0.433358350   0.109272382
89396985.000000000   -0.425943727   0.122287000   -0.425943727   0.122287000   -0.425943727   0.122287000   -0.425943727   0.122287000
89497487.000000000   -0.418263353   0.135332187   -0.418263353   0.135332187   -0.418263353   0.135332187   -0.418263353   0.135332187
89597990.000000000   -0.409871699   0.148326707   -0.409871699   0.148326707   -0.409871699   0.148326707   -0.409871699   0.148326707
89698492.000000000   -0.401095395   0.161134643   -0.401095395   0.161134643   -0.401095395   0.161134643   -0.401095395   0.161134643
89798995.000000000   -0.391819325   0.173922295   -0.391819325   0.173922295   -0.391819325   0.173922295   -0.391819325   0.173922295
89899497.000000000   -0.382007636   0.186369787   -0.382007636   0.186369787   -0.382007636   0.186369787   -0.382007636   0.186369787
90000000.000000000   -0.371348513   0.198909243   -0.371348513   0.198909243   -0.371348513   0.198909243   -0.371348513   0.198909243
